LAMMPS (22 Jul 2025)
OMP_NUM_THREADS environment is not set. Defaulting to 1 thread.
  using 1 OpenMP thread(s) per MPI task
package omp 0
using multi-threaded neighbor list subroutines
# Input Script of lammps for assembly simulation of polimeric gel network.
# Patchy particle script by Felipe Benavides: https://github.com/PipeB62/Hydrogel-Simulation
# Assembly protocolo based on: https://doi.org/10.1021/acs.macromol.7b01600
# Last Main modification: March 5, 2026 | Threebody interaction

# Initialization
units lj
dimension 3
boundary p p p

# Styles of atoms and that stuff
atom_style full
bond_style harmonic
angle_style harmonic
pair_style hybrid/overlay zero 0.0 lj/cut/omp 1.12 table/omp linear 128 threebody/table

newton on

# Create simulaiton box
region simulation_box block -$L $L -$L $L -$L $L
region simulation_box block -25.622652 $L -$L $L -$L $L
region simulation_box block -25.622652 25.622652 -$L $L -$L $L
region simulation_box block -25.622652 25.622652 -25.622652 $L -$L $L
region simulation_box block -25.622652 25.622652 -25.622652 25.622652 -$L $L
region simulation_box block -25.622652 25.622652 -25.622652 25.622652 -25.622652 $L
region simulation_box block -25.622652 25.622652 -25.622652 25.622652 -25.622652 25.622652
# N-atom-types region-ID keyword value Is necesesary the extra/special/per/atom (# of special neighbors per atom)
create_box 4 simulation_box     bond/types 1     angle/types 2     extra/bond/per/atom 10     extra/angle/per/atom 6     extra/special/per/atom 10
Created orthogonal box = (-25.622652 -25.622652 -25.622652) to (25.622652 25.622652 25.622652)
  2 by 2 by 2 MPI processor grid

# Atom types
mass 1 1.0      # CL
mass 2 1.0      # MO
mass 3 1.0      # PA (CL)
mass 4 1.0      # PB (MO)

# Coefficients
include potential.in
# Script with the pair-wise interaction and bonds between particles

bond_coeff 1 100.0 0.4
angle_coeff 1 100.0 180
angle_coeff 2 100.0 109.4712
pair_coeff 1 3 zero 0.5
pair_coeff 1 4 zero 0.5
pair_coeff 2 3 zero 0.5
pair_coeff 2 4 zero 0.5
pair_coeff 3 3 zero 0.5
pair_coeff 1 1 lj/cut/omp 1.0 1.0 1.12
pair_coeff 2 2 lj/cut/omp 1.0 1.0 1.12
pair_coeff 1 2 lj/cut/omp 1.0 1.0 1.12
pair_coeff 3 4 table/omp sysFiles/pachTab.table POT 0.6 # sw/omp sysFiles/patchyPot.sw NULL NULL PA PB
Reading pair table potential file sysFiles/pachTab.table with DATE: 2025-02-09
WARNING: 1 of 128 force values in table POT are inconsistent with -dE/dr.
WARNING:  Should only be flagged at inflection points (src/pair_table.cpp:469)
pair_coeff 4 4 table/omp sysFiles/pachTab.table POT 0.6 # sw/omp sysFiles/patchyPot.sw NULL NULL PA PB
Reading pair table potential file sysFiles/pachTab.table with DATE: 2025-02-09
WARNING: 1 of 128 force values in table POT are inconsistent with -dE/dr.
WARNING:  Should only be flagged at inflection points (src/pair_table.cpp:469)
pair_coeff * * threebody/table swapMech.3b NULL NULL PA PB
pair_modify pair lj/cut/omp shift yes


# Molecules
include molecules.in
# Script with all molecule information and create groups for computes

# Read the molecule information
molecule CL sysFiles/molecule.patchy.CL
Read molecule template CL:
# Patchy Cross-Linker
  1 molecules
  0 fragments
  0 bodies
  5 atoms with max type 3
  4 bonds with max type 1
  6 angles with max type 2
  0 dihedrals with max type 0
  0 impropers with max type 0
molecule MO sysFiles/molecule.patchy.MO
Read molecule template MO:
# Patchy Monomer
  1 molecules
  0 fragments
  0 bodies
  3 atoms with max type 4
  2 bonds with max type 1
  1 angles with max type 1
  0 dihedrals with max type 0
  0 impropers with max type 0

# Introduce the molecules
# ID style args keyword arg
region spawn_box block -$L $L -$L $L -$L $L
region spawn_box block -25.622652 $L -$L $L -$L $L
region spawn_box block -25.622652 25.622652 -$L $L -$L $L
region spawn_box block -25.622652 25.622652 -25.622652 $L -$L $L
region spawn_box block -25.622652 25.622652 -25.622652 25.622652 -$L $L
region spawn_box block -25.622652 25.622652 -25.622652 25.622652 -25.622652 $L
region spawn_box block -25.622652 25.622652 -25.622652 25.622652 -25.622652 25.622652

# create_atoms type style args keyword values
# style_random: N seed region-ID
# keyword_mol: template-ID seed
# keyword_overlap: overlap value = only insert if at least this distance from all existing atoms
# keyword_maxtry: maxtry value = number of attempts to insert a particle before failure
create_atoms 0 random ${NCL} ${seed1} spawn_box mol CL ${seed1} overlap 1.0 maxtry 5000 #xls
create_atoms 0 random 250 ${seed1} spawn_box mol CL ${seed1} overlap 1.0 maxtry 5000 
create_atoms 0 random 250 66 spawn_box mol CL ${seed1} overlap 1.0 maxtry 5000 
create_atoms 0 random 250 66 spawn_box mol CL 66 overlap 1.0 maxtry 5000 
Created 1250 atoms
  using lattice units in orthogonal box = (-25.622652 -25.622652 -25.622652) to (25.622652 25.622652 25.622652)
  create_atoms CPU = 0.014 seconds
create_atoms 0 random ${NMO} ${seed2} spawn_box mol MO ${seed2} overlap 1.0 maxtry 5000 #mon
create_atoms 0 random 4750 ${seed2} spawn_box mol MO ${seed2} overlap 1.0 maxtry 5000 
create_atoms 0 random 4750 49 spawn_box mol MO ${seed2} overlap 1.0 maxtry 5000 
create_atoms 0 random 4750 49 spawn_box mol MO 49 overlap 1.0 maxtry 5000 
Created 14250 atoms
  using lattice units in orthogonal box = (-25.622652 -25.622652 -25.622652) to (25.622652 25.622652 25.622652)
  create_atoms CPU = 0.487 seconds

# Create patchy particles
group CrossLinker type 1 3
1250 atoms in group CrossLinker
group Monomer type 2 4
14250 atoms in group Monomer
group Patches type 3 4
10500 atoms in group Patches
group CL type 1
250 atoms in group CL
group MO type 2
4750 atoms in group MO
group PA type 3
1000 atoms in group PA
group PB type 4
9500 atoms in group PB
group CM type 1 2
5000 atoms in group CM

# Neighbor list
neighbor 1.2 bin # extra-distance style
#neigh_modify delay 0 every 1 check no
#neigh_modify exclude molecule/intra CrossLinker
#neigh_modify exclude molecule/intra Monomer

# COMPUTES

# Compute global kinetic and potential energy and temperature
compute t all temp
compute p all pressure t
compute ep all pe
compute ek all ke
variable eT equal etotal
variable eB equal ebond
variable eA equal eangle
variable eM equal emol
variable ec equal ecouple
variable eC equal econserve

# Potencial energy per pair-wise interaction
compute wcaPair all pair lj/cut/omp epair
compute patchPair all pair table/omp epair
compute swapPair all pair threebody/table epair

# Compute the pressure
compute press all pressure t ke virial
compute pressVirial all pressure t virial
compute pressVirialMod all pressure t pair bond angle

# Computes for the stress
compute cstress all stress/atom t ke pair bond angle
compute cstressVirial all stress/atom t virial
compute cstressVirialMod all stress/atom t pair bond angle
compute stress all reduce sum c_cstress[*]
compute stressVirial all reduce sum c_cstressVirial[*]
compute stressVirialMod all reduce sum c_cstressVirialMod[*]

# Get the number of central particles per cluster
compute clusters all aggregate/atom 0.6                             # Create the clusters

# DUMPS and FIXES

thermo ${Ndump}
thermo 1000

# Save global energies and temperature
fix Energy all ave/time 1 ${Nsave} ${Nsave} c_t c_wcaPair c_patchPair c_swapPair c_ep c_ek v_eT v_ec v_eC c_p v_eB v_eA v_eM file ${Dir}/${file1_name}
fix Energy all ave/time 1 100000 ${Nsave} c_t c_wcaPair c_patchPair c_swapPair c_ep c_ek v_eT v_ec v_eC c_p v_eB v_eA v_eM file ${Dir}/${file1_name}
fix Energy all ave/time 1 100000 100000 c_t c_wcaPair c_patchPair c_swapPair c_ep c_ek v_eT v_ec v_eC c_p v_eB v_eA v_eM file ${Dir}/${file1_name}
fix Energy all ave/time 1 100000 100000 c_t c_wcaPair c_patchPair c_swapPair c_ep c_ek v_eT v_ec v_eC c_p v_eB v_eA v_eM file /home/franvt/GitRepos/molDynLammps/polymericGels/gel-batch-1/data/2026-04-08-192136_9/${file1_name}
fix Energy all ave/time 1 100000 100000 c_t c_wcaPair c_patchPair c_swapPair c_ep c_ek v_eT v_ec v_eC c_p v_eB v_eA v_eM file /home/franvt/GitRepos/molDynLammps/polymericGels/gel-batch-1/data/2026-04-08-192136_9/system_assembly.fixf

# Save Pressure and Stress tensor
fix fixStress5 all ave/time 1 ${NsaveStress} ${NsaveStress} c_p c_press[*] c_pressVirial[*] c_pressVirialMod[*] c_stress[*] c_stressVirial[*] c_stressVirialMod[*] file ${Dir}/${file2_name}
fix fixStress5 all ave/time 1 100000 ${NsaveStress} c_p c_press[*] c_pressVirial[*] c_pressVirialMod[*] c_stress[*] c_stressVirial[*] c_stressVirialMod[*] file ${Dir}/${file2_name}
fix fixStress5 all ave/time 1 100000 100000 c_p c_press[*] c_pressVirial[*] c_pressVirialMod[*] c_stress[*] c_stressVirial[*] c_stressVirialMod[*] file ${Dir}/${file2_name}
fix fixStress5 all ave/time 1 100000 100000 c_p c_press[*] c_pressVirial[*] c_pressVirialMod[*] c_stress[*] c_stressVirial[*] c_stressVirialMod[*] file /home/franvt/GitRepos/molDynLammps/polymericGels/gel-batch-1/data/2026-04-08-192136_9/${file2_name}
fix fixStress5 all ave/time 1 100000 100000 c_p c_press[*] c_pressVirial[*] c_pressVirialMod[*] c_stress[*] c_stressVirial[*] c_stressVirialMod[*] file /home/franvt/GitRepos/molDynLammps/polymericGels/gel-batch-1/data/2026-04-08-192136_9/stress_assembly.fixf

# Save atom positions with cluster id
dump dumpID all custom ${Ndump} ${Dir}/traj/${file3_name} id mol c_clusters type x y z vx vy vz
dump dumpID all custom 1000 ${Dir}/traj/${file3_name} id mol c_clusters type x y z vx vy vz
dump dumpID all custom 1000 /home/franvt/GitRepos/molDynLammps/polymericGels/gel-batch-1/data/2026-04-08-192136_9/traj/${file3_name} id mol c_clusters type x y z vx vy vz
dump dumpID all custom 1000 /home/franvt/GitRepos/molDynLammps/polymericGels/gel-batch-1/data/2026-04-08-192136_9/traj/traj_assembly.*.dumpf id mol c_clusters type x y z vx vy vz
dump_modify dumpID pbc yes # remap atoms via periodic boundary conditions

# RUN SIMULATION

# Brownian Dynamics using Langevin Thermostat

timestep ${tstep}
timestep 0.001

fix VelVerlet all nve # Use Velocity Verlet integrator

# First elevate the temperature
fix ThermoLng all langevin 0.0 ${temp} ${damp} ${seed3} tally yes zero yes # Brownian Dynamics: langevin + nve
fix ThermoLng all langevin 0.0 0.05 ${damp} ${seed3} tally yes zero yes 
fix ThermoLng all langevin 0.0 0.05 1 ${seed3} tally yes zero yes 
fix ThermoLng all langevin 0.0 0.05 1 115 tally yes zero yes 
run ${stepsheat}
run 500000
WARNING: Using a manybody potential with bonds/angles/dihedrals and special_bond exclusions (src/pair.cpp:250)
Hybrid pair style last /omp style table/omp
Last active /omp style is angle_style harmonic/omp
Neighbor list info ...
  update: every = 1 steps, delay = 0 steps, check = yes
  max neighbors/atom: 2000, page size: 100000
  master list distance cutoff = 2.32
  ghost atom cutoff = 2.32
  binsize = 1.16, bins = 45 45 45
  7 neighbor lists, perpetual/occasional/extra = 6 1 0
  (1) pair zero, perpetual, skip from (7)
      attributes: half, newton on, omp
      pair build: skip/omp
      stencil: none
      bin: none
  (2) pair lj/cut/omp, perpetual, skip from (7)
      attributes: half, newton on, omp
      pair build: skip/omp
      stencil: none
      bin: none
  (3) pair table/omp, perpetual, skip from (7)
      attributes: half, newton on, omp
      pair build: skip/omp
      stencil: none
      bin: none
  (4) pair threebody/table, perpetual, skip from (6)
      attributes: full, newton on, omp
      pair build: skip/omp
      stencil: none
      bin: none
  (5) compute aggregate/atom, occasional, copy from (6)
      attributes: full, newton on, omp
      pair build: copy
      stencil: none
      bin: none
  (6) neighbor class addition, perpetual
      attributes: full, newton on, omp
      pair build: full/bin/omp
      stencil: full/bin/3d
      bin: standard
  (7) neighbor class addition, perpetual, half/full from (6)
      attributes: half, newton on, omp
      pair build: halffull/newton/omp
      stencil: none
      bin: none
Per MPI rank memory allocation (min/avg/max) = 19.21 | 19.21 | 19.22 Mbytes
   Step          Temp          E_pair         E_mol          TotEng         Press     
         0   0              0.00016982819  2.7795448      2.7797146      0.00033792929
      1000   0.48483599     0              0.37968559     1.1068927      0.033288036  
      2000   0.13126756    -1.4196499e-15  0.22556177     0.42245041    -0.007801688  
      3000   0.058567978    2.3434778e-17  0.071250208    0.15909651     0.00054867028
      4000   0.020024506    2.1961719e-09  0.029243105    0.059277929    0.0048466547 
      5000   0.0059497459   0              0.013652458    0.022576501   -0.0013291681 
      6000   0.0025179748   0              0.0053830562   0.0091597747  -0.0017043877 
      7000   0.0019234249   8.2552006e-08  0.0014268578   0.0043118916   0.00053155208
      8000   0.0010772978   9.4216869e-08  0.0010309566   0.0026468932   0.00063590924
      9000   0.00097255696  2.7417484e-08  0.00071288912  0.0021716579  -0.00013891066
     10000   0.00096139086  0              0.00071762046  0.0021596137  -0.00013727823
     11000   0.0010514202   1.8553513e-07  0.0007059372   0.0022831512   7.3645584e-05
     12000   0.0011406839   6.0675892e-08  0.00075642302  0.0024673992   7.8056561e-05
     13000   0.0012223658   3.570045e-08   0.00082342242  0.0026568885   5.8936847e-05
     14000   0.0013049026   7.011871e-08   0.00090287029  0.002860168    4.9611897e-05
     15000   0.0014134628   8.8977286e-09  0.00095085787  0.0030709242   9.7035069e-05
     16000   0.0015179728   2.0047255e-07  0.001001585    0.0032785977   0.00014042095
     17000   0.0016180312   1.5753432e-07  0.0010788079   0.0035058556   0.00021674869
     18000   0.0017030041   3.1108634e-07  0.001162252    0.0037169044   4.016238e-05 
     19000   0.001822954    6.8084003e-08  0.0012315997   0.0039659223   9.9563325e-06
     20000   0.0019112799   5.1764807e-07  0.001314093    0.0041813455   0.00018157603
     21000   0.0020540538   4.0144436e-07  0.0013696105   0.0044508939   5.9759114e-06
     22000   0.0021657632  -0.00011967104  0.0015041708   0.004632935    3.6364279e-05
     23000   0.0022350461  -0.00018410822  0.0015274767   0.0046957214   0.00019407923
     24000   0.0023399086  -0.00028945418  0.0015943541   0.0048145364   0.00012311702
     25000   0.0024222748  -0.00037703845  0.0016607016   0.0049168409   7.9388992e-05
     26000   0.0025420024  -0.00043368935  0.0017395501   0.0051186184   2.5672649e-05
     27000   0.0026298584  -0.00045003685  0.0017981732   0.0052926695   0.00011539969
     28000   0.0027646086  -0.00050639294  0.0019149307   0.0055551831   0.00024742057
     29000   0.0028593508  -0.00060699832  0.0019498286   0.0056315798   0.00013548543
     30000   0.0029810406  -0.00076503728  0.0020296744   0.0057359094   4.7298554e-05
     31000   0.0030785137  -0.00076866983  0.0020886103   0.0059374131   0.00015305498
     32000   0.0031617201  -0.00083665317  0.0021749558   0.0060805768   0.00029369058
     33000   0.0033044162  -0.0011330199   0.0022267907   0.0060500753   0.00012598522
     34000   0.0034169437  -0.0013762484   0.0023534116   0.006102248    9.1143248e-05
     35000   0.0034855196  -0.0015709609   0.0023906201   0.0060476014   5.4218898e-05
     36000   0.0036568813  -0.0018349664   0.0024389656   0.0060889673   8.2924627e-05
     37000   0.003722218   -0.002037082    0.0025388127   0.0060846975   8.3804047e-05
     38000   0.0037220534  -0.002110615    0.002570958    0.0060430628   9.5180628e-05
     39000   0.0038993991  -0.002355371    0.0026715781   0.0061649284   0.00010631171
     40000   0.0040035395  -0.0025366857   0.0027453477   0.0062135838   0.00023771485
     41000   0.0040874889  -0.0025670386   0.0027659573   0.0063297565   0.000175559  
     42000   0.0041419724  -0.0026827521   0.002844839    0.0063746447   0.00011768377
     43000   0.0042494141  -0.0027614947   0.0029050164   0.0065172317   0.00026491319
     44000   0.0043274533  -0.0028234385   0.0029514294   0.0066187521   0.00016988972
     45000   0.0044323958  -0.0029200192   0.0030434722   0.0067716178   9.8323697e-05
     46000   0.0045397781  -0.0029505333   0.0030876355   0.00694633     0.00012953255
     47000   0.0047388127  -0.0032544597   0.0032144065   0.0070677073   0.00010593988
     48000   0.0047736254  -0.0033028654   0.0033063407   0.0071634515  -4.3402978e-05
     49000   0.0048956903  -0.0034795497   0.003332592    0.007196104    0.00016724544
     50000   0.004968905   -0.003732855    0.0033911894   0.0071112111   0.00029312349
     51000   0.0051305995  -0.0039193368   0.0033915488   0.0071676147   0.00027678463
     52000   0.0052172612  -0.0042784948   0.0035724745   0.0071193666   3.3970394e-05
     53000   0.0053046741  -0.0044749206   0.0036424757   0.0071240529   0.00029998814
     54000   0.005375763   -0.0045552703   0.0036546692   0.0071625232   0.00021804859
     55000   0.0055229057  -0.0048478622   0.0038092129   0.0072451748   0.00023712505
     56000   0.0055935432  -0.0051724988   0.0038521446   0.0070694193   5.7427481e-05
     57000   0.0056575873  -0.0054755397   0.003928049    0.0069383428   0.00015924677
     58000   0.0056551289  -0.005613142    0.0039242564   0.0067932605   0.00019729864
     59000   0.0057809801  -0.0057663789   0.0040243772   0.006928909    0.00022327935
     60000   0.0059672034  -0.0058467115   0.0040142244   0.0071177405   0.00022584191
     61000   0.0060877354  -0.0062624093   0.0041716769   0.0070402815   0.0002428443 
     62000   0.0062002126  -0.0064120908   0.0042157727   0.0071034008   0.00024134328
     63000   0.0063444614  -0.0068236406   0.0043917454   0.0070841829   0.00027630005
     64000   0.006373913   -0.0070787885   0.0043297277   0.0068111918   0.00043854308
     65000   0.0064880561  -0.0074314903   0.0044456431   0.0067456089   0.00023301567
     66000   0.0066371207  -0.0077752008   0.0045523698   0.0067322078   0.00034059918
     67000   0.0066520389  -0.0080378674   0.0046620499   0.006601597    0.00026447071
     68000   0.0068078395  -0.0081356384   0.0045340813   0.0066095433   0.0003066198 
     69000   0.0068439525  -0.0083051072   0.0046526856   0.0066128448   0.00037065494
     70000   0.0070593503  -0.0086420836   0.0047421398   0.0066883984   0.00039310102
     71000   0.0070470711  -0.0088169476   0.0048805677   0.0066335447   0.00015669194
     72000   0.0071400481  -0.0090162999   0.0049723151   0.0066653964   0.00018109056
     73000   0.0071974217  -0.0090995537   0.0050674069   0.0067632892   0.00030708221
     74000   0.0073449978  -0.0091544418   0.0050314386   0.0068937827   0.00029520046
     75000   0.0074652846  -0.0093697908   0.0050775492   0.0069049628   0.00025607939
     76000   0.0074339318  -0.009465089    0.005251902    0.0069369913   0.00030008691
     77000   0.0076956524  -0.0097064324   0.0053222909   0.0071585923   0.00018927633
     78000   0.0079493243  -0.010046823    0.0053532287   0.0072296228   0.00025915604
     79000   0.0079052446  -0.010431535    0.0054388511   0.0068644178   0.0004985676 
     80000   0.008076262   -0.01050477     0.0055105964   0.0071194374   0.00038495491
     81000   0.0080882986  -0.01068859     0.0054761912   0.0069192661   6.4181178e-05
     82000   0.0081729667  -0.010927491    0.0056378368   0.0069690053   0.00043548761
     83000   0.0082696065  -0.01124385     0.0056922973   0.0068520563   0.00037207139
     84000   0.0083182999  -0.011398201    0.005767461    0.0068459053   0.0005728008 
     85000   0.0083519822  -0.011422738    0.0057401095   0.0068445369   0.00043486171
     86000   0.0084663771  -0.011708822    0.0058068001   0.0067967248   0.00014138145
     87000   0.0086808139  -0.011779353    0.0058765055   0.0071175334   0.00028636707
     88000   0.0087777727  -0.011869615    0.0060308151   0.0073270096   0.00011733748
     89000   0.0089093881  -0.012209798    0.0060613966   0.007214818    0.00046570453
     90000   0.0089699359  -0.012411533    0.0061341232   0.0071766263   0.00057550975
     91000   0.0090930263  -0.012690637    0.0063380403   0.0072860633   0.00044851563
     92000   0.0092935622  -0.013073533    0.0062446527   0.0071105634   7.4854689e-05
     93000   0.0093757797  -0.013383229    0.0064280782   0.0071076117   0.00054305299
     94000   0.0093974607  -0.013870003    0.006484997    0.0067102759   0.00043660845
     95000   0.0094321972  -0.013994538    0.0065524746   0.0067053192   0.00031603386
     96000   0.0095581405  -0.014205347    0.0065277494   0.0066586879   0.00040223142
     97000   0.0097347259  -0.014442475    0.0066550567   0.0068137287   0.00048892225
     98000   0.0098275884  -0.014801153    0.0068367013   0.00677598     0.00054582692
     99000   0.010006322   -0.01487692     0.0068061189   0.0069377137   0.00039603816
    100000   0.010023317   -0.015058104    0.0068765979   0.0068524989   1.9888876e-05
    101000   0.010092924   -0.015319669    0.0069102465   0.0067289871   0.00048297305
    102000   0.010236197   -0.015636586    0.0070678221   0.0067845409   0.00051757903
    103000   0.010357713   -0.015749571    0.006990747    0.0067767425   0.00061338016
    104000   0.010432445   -0.016019194    0.0072006936   0.006829157    0.00058578234
    105000   0.010568098   -0.016413994    0.0070916318   0.0065287627   8.7507874e-05
    106000   0.010677667   -0.016738919    0.0073686831   0.0066452309   0.00058959796
    107000   0.010759395   -0.016985559    0.0073289303   0.0064814221   0.0005755633 
    108000   0.010749282   -0.017380769    0.0074279157   0.0061700301   0.00036657817
    109000   0.010963434   -0.017520143    0.0073743111   0.0062982579   0.00028855658
    110000   0.011170217   -0.017875431    0.007698459    0.0065772723   0.00056789234
    111000   0.011094788   -0.018113701    0.0075928198   0.0061202275   0.00052892389
    112000   0.011184513   -0.018425299    0.0076827866   0.0060331748   0.00027464061
    113000   0.011401805   -0.018756508    0.0076875606   0.0060326573   0.00039460516
    114000   0.011349878   -0.018992868    0.0078445912   0.0058754418   0.00043877538
    115000   0.011484238   -0.019162398    0.0078107622   0.0058736107   0.00051087164
    116000   0.011577806   -0.019309641    0.0079146756   0.0059706225   0.00043034348
    117000   0.011601804   -0.019686653    0.0080378235   0.0057527546   0.00042211499
    118000   0.011912427   -0.02019219     0.0080553417   0.0057306389   0.00055975931
    119000   0.011908559   -0.020522647    0.0080448866   0.0053839261   0.00018260883
    120000   0.011941962   -0.020709382    0.0081563618   0.0053587665   0.00073663011
    121000   0.012094532   -0.020895284    0.0082848534   0.0055301967   0.00068216395
    122000   0.012229239   -0.021254043    0.0084192877   0.0055079187   0.00041917199
    123000   0.01232804    -0.021396729    0.0085844238   0.0056785617   0.00037218635
    124000   0.012455985   -0.02166024     0.0085914122   0.0056139447   0.00050128055
    125000   0.012605109   -0.02218565     0.0088072399   0.0055280333   0.00061599016
    126000   0.012879596   -0.022510057    0.0086718861   0.0054799759   0.00042852751
    127000   0.012605316   -0.022819367    0.0088458168   0.0049332045   7.749672e-05 
    128000   0.012728082   -0.022915958    0.0088139962   0.0049889292   0.00042463401
    129000   0.013018967   -0.023127392    0.0087614493   0.0051612483   0.00064265778
    130000   0.013028263   -0.023403509    0.0088774586   0.0050150829   0.00060367437
    131000   0.013176817   -0.023750457    0.0088734296   0.0048869234   0.00048404256
    132000   0.013116212   -0.02395621     0.0091534676   0.0048703059   0.0006206968 
    133000   0.013288031   -0.024154877    0.0091214919   0.0048973753   0.00056148607
    134000   0.013404353   -0.02426887     0.0091085995   0.004944961    5.6226201e-05
    135000   0.013445522   -0.024673529    0.0093752472   0.0048687001   0.00068651882
    136000   0.013598367   -0.024939206    0.0093224623   0.0047794905   0.00050957146
    137000   0.013730169   -0.025194654    0.009470176    0.0048694459   0.00057277637
    138000   0.013868477   -0.025285246    0.0094633336   0.0049794606   0.00084534453
    139000   0.013954699   -0.025818457    0.009573345    0.0046855865   0.00071180168
    140000   0.013933956   -0.026170918    0.0096265816   0.0043552488   0.00035151533
    141000   0.014151207   -0.026569876    0.0097565831   0.0044121476   0.0005355963 
    142000   0.014393461   -0.026987812    0.0097404037   0.00434139     0.00054611433
    143000   0.014183358   -0.027179444    0.0096439675   0.003738188    0.00045359363
    144000   0.01436817    -0.027501555    0.009684773    0.0037340819   0.00056980935
    145000   0.014379234   -0.027850097    0.00982561     0.0035429714   0.00035324538
    146000   0.014540304   -0.028056188    0.010015       0.0037678602   0.00064827397
    147000   0.014760463   -0.028485025    0.010060957    0.0037151975   0.00050837958
    148000   0.014964994   -0.02898449     0.010156928    0.0036184814   0.00051756136
    149000   0.014910806   -0.029228283    0.010352408    0.00348889     0.00067923636
    150000   0.015020047   -0.029373394    0.010254537    0.0034097601   0.00061561949
    151000   0.015166942   -0.02978362     0.010531608    0.0034969336   0.00067567033
    152000   0.01542141    -0.03002577     0.010325659    0.0034305116   0.00081560049
    153000   0.01528893    -0.030636424    0.010610306    0.0029057976   0.00053546176
    154000   0.015520815   -0.031167925    0.010814885    0.0029266797   0.000840416  
    155000   0.015394457   -0.031546045    0.010870344    0.0024144937   0.00026612703
    156000   0.015783699   -0.031825498    0.010761185    0.0026097091   0.00036052756
    157000   0.015821406   -0.032159052    0.010907276    0.0024788021   0.00074660496
    158000   0.015734139   -0.032416221    0.010987952    0.0021714173   0.0007083318 
    159000   0.016178239   -0.032960811    0.010874969    0.0021799506   0.00038733666
    160000   0.016164078   -0.033316558    0.010938595    0.0018665912   0.00060826408
    161000   0.016029029   -0.033642339    0.01111574     0.0015153938   0.0004701816 
    162000   0.016311949   -0.034155588    0.011160886    0.0014716436   0.00064059832
    163000   0.016273264   -0.034568137    0.01111323     0.00095341447  0.00044966932
    164000   0.016477807   -0.034858484    0.011264439    0.0011210711   0.00090859691
    165000   0.016665315   -0.035417994    0.011318305    0.00089667047  0.00045925891
    166000   0.016775304   -0.035671376    0.011524227    0.0010141832   0.00060750674
    167000   0.016845783   -0.03603641     0.011521889    0.00075252404  0.00069546241
    168000   0.016790112   -0.036462226    0.011518332    0.00023964944  0.00056003129
    169000   0.01683767    -0.03689654     0.011737641    9.5976663e-05  0.00072684616
    170000   0.017050402   -0.037073089    0.011721443    0.00022230615  0.00019673021
    171000   0.017302832   -0.037533279    0.011848428    0.00026772383  0.00064229999
    172000   0.017265144   -0.037989636    0.011773468   -0.00032012197  0.00078746133
    173000   0.017375088   -0.038237811    0.01187289    -0.00030397072  0.00047528079
    174000   0.017615932   -0.038510619    0.012073263   -1.5163268e-05  0.00053887206
    175000   0.01766191    -0.038799718    0.01225826    -5.0301833e-05  3.9709865e-05
    176000   0.017668219   -0.039342146    0.012125722   -0.00071580532  0.00086789317
    177000   0.017566737   -0.03981491     0.011986607   -0.0014798976   0.00061018194
    178000   0.017578264   -0.039990103    0.012129698   -0.0014947098   0.0002390353 
    179000   0.017869487   -0.040478295    0.012192114   -0.0014836786   0.00073755743
    180000   0.018009291   -0.040903742    0.01231707    -0.0015744783   0.00055884318
    181000   0.018085245   -0.041429314    0.012669492   -0.0016337054   0.0007729742 
    182000   0.018172839   -0.041758557    0.012645323   -0.0018557333   0.00031622721
    183000   0.018304115   -0.042041995    0.012653537   -0.0019340563   0.00072405506
    184000   0.018402523   -0.042741774    0.01270121    -0.0024385606   0.00064992498
    185000   0.018409141   -0.04301842     0.012865243   -0.0025412468   0.00068642094
    186000   0.018605901   -0.043455257    0.012850422   -0.002697784    0.00062843912
    187000   0.018790112   -0.043798892    0.012848519   -0.0027670246   0.00073049327
    188000   0.019013705   -0.043911523    0.012921045   -0.0024717605   0.00086141787
    189000   0.01884272    -0.044122466    0.013278595   -0.002581614    0.00077403847
    190000   0.019128782   -0.044364101    0.012932643   -0.0027401357   0.00073034496
    191000   0.019144922   -0.044735052    0.0134236     -0.0025959213   0.00039201966
    192000   0.019244759   -0.045148141    0.013252169   -0.0030306947   0.0003304777 
    193000   0.019410581   -0.045587196    0.013573239   -0.0028999639   0.00076599594
    194000   0.019523605   -0.046209564    0.013307012   -0.0036190341   0.0002391447 
    195000   0.01957047    -0.046405738    0.013355591   -0.0036963359   0.00049282333
    196000   0.019562035   -0.046574566    0.013452747   -0.0037806594   0.00068416049
    197000   0.019637501   -0.046735971    0.013508557   -0.0037730628   0.00055249902
    198000   0.019829298   -0.047270646    0.013482801   -0.0040458167   0.00086456087
    199000   0.019918097   -0.04762659     0.013611618   -0.0041397533   0.00067375191
    200000   0.019923964   -0.048077598    0.013718759   -0.0044748224   0.00060535818
    201000   0.020102559   -0.048452316    0.013751953   -0.0045484695   0.0006648479 
    202000   0.02010287    -0.048827077    0.013836115   -0.0048386034   0.00041542829
    203000   0.020083299   -0.049103319    0.013859309   -0.0051210056   0.0008776912 
    204000   0.020259335   -0.049467633    0.013841806   -0.0052387848   0.0010684132 
    205000   0.020661276   -0.049833353    0.013898531   -0.0049449079   0.0011371945 
    206000   0.020636725   -0.050308296    0.013882652   -0.0054725526   0.00073839323
    207000   0.02054491    -0.050783249    0.014271491   -0.0056963811   0.00052533997
    208000   0.020662377   -0.0509712      0.014277307   -0.0057023268   0.0010201797 
    209000   0.020823252   -0.051342564    0.01423679    -0.0058729111   0.00080028366
    210000   0.021354977   -0.051936297    0.014536746   -0.0053691509   0.0003736212 
    211000   0.02131902    -0.052457239    0.014534053   -0.0059467195   0.00052651057
    212000   0.021104108   -0.052752039    0.01457735    -0.00652057     0.0010658147 
    213000   0.021133928   -0.053293387    0.014553212   -0.0070413274   0.00085021126
    214000   0.02129357    -0.053413268    0.014406647   -0.0070683273   0.00051133918
    215000   0.021450425   -0.053795812    0.014729598   -0.0068926523   0.00092220222
    216000   0.021715036   -0.054264622    0.014569666   -0.0071245043   0.00081685382
    217000   0.021700945   -0.054736852    0.015047755   -0.0071397792   0.00088778903
    218000   0.021723047   -0.054935729    0.015133927   -0.0072193348   0.00043796019
    219000   0.022039824   -0.055202378    0.015085141   -0.0070596344   0.0004752554 
    220000   0.022141015   -0.055547777    0.014746038   -0.0075923585   0.00073731078
    221000   0.021859742   -0.055813351    0.014912503   -0.0081133512   0.00084652542
    222000   0.022019509   -0.055896849    0.0152288     -0.0076409161   0.00042471937
    223000   0.022381455   -0.056492225    0.015284553   -0.0076376552   0.00078524685
    224000   0.022408582   -0.056746307    0.01543078    -0.0077048235   0.00093002164
    225000   0.022710437   -0.057084415    0.015414669   -0.007606288    0.00070656054
    226000   0.022580914   -0.057429586    0.015777436   -0.0077829653   0.0010498118 
    227000   0.022970258   -0.057665496    0.015681945   -0.007530387    0.00062012123
    228000   0.022767235   -0.057975721    0.015864426   -0.0079626449   0.00076701085
    229000   0.022957875   -0.058647443    0.016018719   -0.0081941341   0.00081768459
    230000   0.023043892   -0.058917001    0.015817242   -0.0085361512   0.00094652889
    231000   0.023127354   -0.059301306    0.015908482   -0.008704031    0.00070737536
    232000   0.023345863   -0.059625701    0.015988747   -0.0086204186   0.00031436304
    233000   0.023286546   -0.059715881    0.016255078   -0.0085332382   0.00066359107
    234000   0.023581107   -0.060246925    0.016312638   -0.0085649085   0.00080134049
    235000   0.02360602    -0.060515821    0.016121886   -0.008987189    0.00076572844
    236000   0.023527811   -0.060953889    0.016255001   -0.0094094477   0.00099251676
    237000   0.023743241   -0.061129125    0.016308292   -0.0092082687   0.00035273009
    238000   0.023628145   -0.061664431    0.016019367   -0.010205133    0.00036432052
    239000   0.024151797   -0.062274567    0.016373162   -0.0096760462   0.0011022923 
    240000   0.023932161   -0.062362094    0.016568943   -0.0098972251   0.00066369739
    241000   0.02396343    -0.0625051      0.016650504   -0.0099117689   0.0010431331 
    242000   0.024084572   -0.0627931      0.01646856    -0.010200013    0.0010226536 
    243000   0.024353752   -0.063088119    0.016697506   -0.0098623416   0.00078510723
    244000   0.024319679   -0.063501974    0.01687834    -0.010146468    0.00052608012
    245000   0.024609254   -0.063803816    0.017047517   -0.0098447993   0.00084523516
    246000   0.0248145     -0.064146828    0.016951154   -0.0099763252   0.00095037703
    247000   0.024579729   -0.064666351    0.017278163   -0.010520973    0.00087668938
    248000   0.024905215   -0.064886402    0.017212729   -0.010318261    0.00076929577
    249000   0.024961773   -0.065271338    0.017178537   -0.010652557    0.00096377178
    250000   0.025328567   -0.065764916    0.017188697   -0.010585819    0.00060982544
    251000   0.024976608   -0.066195047    0.017163857   -0.011568695    0.00064144201
    252000   0.025401195   -0.06656101     0.017655344   -0.010806332    0.00097163393
    253000   0.02534845    -0.066989127    0.017519541   -0.011449364    0.00074878578
    254000   0.025411952   -0.067169827    0.017598734   -0.011455624    0.00085510333
    255000   0.025655507   -0.067417716    0.017477597   -0.011459341    0.0011329211 
    256000   0.0256042     -0.067937764    0.017780053   -0.011753888    0.00055830033
    257000   0.025732726   -0.068541452    0.017795047   -0.012149806    0.0007658433 
    258000   0.025525483   -0.068769169    0.018116617   -0.012366798    0.00059774956
    259000   0.026224915   -0.069088697    0.017768648   -0.011985215    0.00058296224
    260000   0.026460846   -0.069332604    0.01809174    -0.011552155    0.0012754945 
    261000   0.026377015   -0.069869873    0.017900694   -0.012406209    0.0010641374 
    262000   0.026516778   -0.070226781    0.018761207   -0.011692974    0.00021538288
    263000   0.026843291   -0.070982719    0.018066747   -0.012653633    0.00066764783
    264000   0.026393595   -0.071385498    0.018364241   -0.01343342     0.00084312693
    265000   0.026889173   -0.071611777    0.017887654   -0.013392965    0.0010302546 
    266000   0.026478679   -0.072001328    0.018475172   -0.0138107      0.00047041704
    267000   0.026689783   -0.07233309     0.018309486   -0.013991513    0.0014247651 
    268000   0.026942139   -0.072840033    0.018666602   -0.01376283     0.00033682969
    269000   0.027334241   -0.073405927    0.018808745   -0.013598466    0.0010066164 
    270000   0.027112677   -0.074046551    0.01881444    -0.01456572     0.00033216215
    271000   0.026923011   -0.074382961    0.018734275   -0.015266775    0.00087685802
    272000   0.027296155   -0.074981731    0.018989943   -0.015050198    0.00058787814
    273000   0.027493086   -0.075218577    0.019073248   -0.014908361    0.0010562574 
    274000   0.027427625   -0.0754888      0.018642793   -0.015707223    0.00074935133
    275000   0.027351827   -0.075853025    0.018790658   -0.016037273    0.0011215394 
    276000   0.027619384   -0.076503239    0.019066072   -0.016010764    0.00093019238
    277000   0.027671815   -0.076799947    0.018835088   -0.016459814    0.00080640037
    278000   0.02773839    -0.077089287    0.0189732     -0.016511187    0.00086606799
    279000   0.02788526    -0.077339348    0.019132638   -0.016381519    0.00040464641
    280000   0.027945784   -0.077502387    0.019398379   -0.016188037    0.00074605967
    281000   0.028132651   -0.078004263    0.019590689   -0.016217321    0.0010384557 
    282000   0.028399858   -0.078368385    0.019407554   -0.016363794    0.00089264793
    283000   0.028500484   -0.078578041    0.019403691   -0.016426382    0.0005681584 
    284000   0.028734813   -0.078911461    0.019469345   -0.016342677    0.0007852091 
    285000   0.028612043   -0.079467007    0.019475659   -0.017076052    0.0013618012 
    286000   0.028790685   -0.080043559    0.019969013   -0.016891305    0.00054932172
    287000   0.028616562   -0.080378493    0.019888955   -0.017567463    0.00050478138
    288000   0.028733289   -0.080710667    0.019825952   -0.017787562    0.00080343459
    289000   0.028903789   -0.080950316    0.019529499   -0.01806793     0.00090104392
    290000   0.02866102    -0.081429351    0.020124765   -0.018315829    0.00044731108
    291000   0.029171657   -0.081904743    0.02030685    -0.017843231    0.00097800341
    292000   0.029118546   -0.082442576    0.020115471   -0.018652104    0.00077066215
    293000   0.02919807    -0.083189798    0.019984077   -0.019411442    0.00072307811
    294000   0.029208277   -0.083433328    0.020016554   -0.019607186    0.00086933174
    295000   0.029414488   -0.083805545    0.020269411   -0.019417249    0.0014473746 
    296000   0.029666709   -0.084055335    0.020631974   -0.018926168    0.0013421412 
    297000   0.029849772   -0.084237268    0.020950071   -0.018515428    0.0013563458 
    298000   0.030269217   -0.084469937    0.020858113   -0.018210928    0.00075256786
    299000   0.030214485   -0.084711423    0.020636205   -0.018756415    0.0010460946 
    300000   0.030260783   -0.085104084    0.021333322   -0.018382517    0.0015284578 
    301000   0.03005375    -0.085295581    0.020627792   -0.019590073    0.0013729584 
    302000   0.030359819   -0.085669307    0.020937446   -0.01919507     0.001008838  
    303000   0.030530843   -0.08615122     0.021194855   -0.019163055    0.0015739751 
    304000   0.030849737   -0.086776245    0.021184575   -0.019320049    0.00050908385
    305000   0.030804891   -0.087357373    0.020761672   -0.020391346    0.0012545107 
    306000   0.030678787   -0.088014538    0.021061336   -0.020937991    0.00099352759
    307000   0.030550641   -0.088454652    0.021086899   -0.021544748    0.0007238001 
    308000   0.031133778   -0.088608357    0.021164925   -0.020745777    0.00076622622
    309000   0.03078319    -0.088796668    0.021741313   -0.020883548    0.00075013406
    310000   0.031250957   -0.089044861    0.021414095   -0.020757353    0.0015987292 
    311000   0.030875038   -0.089377838    0.021673837   -0.021394432    0.00090386879
    312000   0.031573201   -0.089925829    0.021287286   -0.021281798    0.00086036056
    313000   0.031517009   -0.090351917    0.021594795   -0.021484658    0.00094228578
    314000   0.03107417    -0.090614078    0.021790264   -0.022215566    0.0013620035 
    315000   0.031535204   -0.090719809    0.021806774   -0.021613281    0.001213518  
    316000   0.031518847   -0.09095184     0.021571935   -0.022104685    0.0011085398 
    317000   0.031461958   -0.091388294    0.022100071   -0.022098331    0.00028371748
    318000   0.032007158   -0.091758104    0.021725006   -0.022025458    0.00050722858
    319000   0.032220174   -0.092131496    0.022159097   -0.021645256    0.0013241735 
    320000   0.032014114   -0.092926205    0.022329181   -0.022578952    0.00092659786
    321000   0.032393427   -0.093633137    0.022327538   -0.022718594    0.0007317718 
    322000   0.032240377   -0.09390608     0.022599809   -0.022948826    0.001148321  
    323000   0.032452773   -0.094310601    0.022597821   -0.023036761    0.0011879032 
    324000   0.032684382   -0.094556899    0.022202149   -0.02333134     0.001290662  
    325000   0.032619058   -0.09478098     0.022225019   -0.02363053     0.00083535912
    326000   0.032492719   -0.095113656    0.022385646   -0.023992076    0.0010457232 
    327000   0.032531837   -0.095531535    0.022729166   -0.024007762    0.00046259477
    328000   0.032996413   -0.09611772     0.022784244   -0.023842049    0.00084053464
    329000   0.033009453   -0.096044926    0.022967797   -0.023566143    0.0011183378 
    330000   0.032947878   -0.09660057     0.023064413   -0.024117528    0.00032751164
    331000   0.033312612   -0.097127935    0.022682595   -0.024479646    0.0015264739 
    332000   0.033198007   -0.097509011    0.022968056   -0.024747159    0.00078805599
    333000   0.033615125   -0.097683001    0.022812917   -0.024450649    0.00021249867
    334000   0.033257155   -0.098119909    0.022975268   -0.025262127    0.0015055263 
    335000   0.03327319    -0.09887727     0.023014039   -0.025956665    0.00069509073
    336000   0.033177767   -0.099034011    0.023661866   -0.025608706    0.00081191345
    337000   0.033967299   -0.099286164    0.022867751   -0.025470752    0.0013877497 
    338000   0.033874361   -0.099661334    0.023123323   -0.025729747    0.0013292415 
    339000   0.034177974   -0.10009228     0.023626745   -0.025201881    0.0010874128 
    340000   0.034018731   -0.10013943     0.023178969   -0.025935655    0.00090497917
    341000   0.033666331   -0.10056313     0.023521159   -0.026545734    0.0012184847 
    342000   0.03418862    -0.10080365     0.022943816   -0.026580214    0.0016424919 
    343000   0.034057898   -0.10128032     0.023446991   -0.026749779    0.0007821383 
    344000   0.034470215   -0.10173732     0.023785245   -0.026250089    0.00047197273
    345000   0.034591893   -0.10241017     0.023980093   -0.02654559     0.0010309962 
    346000   0.034790295   -0.10250363     0.024185819   -0.026135739    0.0014679667 
    347000   0.034637405   -0.10281964     0.02398209    -0.026884796    0.00070507785
    348000   0.035272269   -0.10343722     0.023877414   -0.026654817    0.0013080679 
    349000   0.034580929   -0.10376686     0.024376522   -0.027522292    0.00064861205
    350000   0.03473502    -0.10391999     0.024076944   -0.027743881    0.00047895671
    351000   0.035005305   -0.10402722     0.024400286   -0.02712236     0.0011328264 
    352000   0.03522313    -0.10442379     0.024449168   -0.027143336    0.00098258455
    353000   0.035200191   -0.10477129     0.024260455   -0.027713956    0.0011212198 
    354000   0.03544979    -0.10495166     0.024491349   -0.027289055    0.00065148372
    355000   0.035328955   -0.10512013     0.024670346   -0.027459772    0.0013229234 
    356000   0.035696541   -0.10525784     0.024314906   -0.027401577    0.00083136837
    357000   0.03587036    -0.10574945     0.024703581   -0.027243799    0.0013607273 
    358000   0.035953733   -0.10608038     0.024776446   -0.027376814    0.00083384472
    359000   0.035870621   -0.10626649     0.024954593   -0.02750944     0.0012137854 
    360000   0.036166849   -0.10670237     0.025011389   -0.027444203    0.00062947905
    361000   0.036199225   -0.1069921      0.024751057   -0.027945713    0.00090822377
    362000   0.036418613   -0.10725567     0.02498566    -0.027645609    0.0010461593 
    363000   0.036742743   -0.10752688     0.025172789   -0.027243528    0.00093625512
    364000   0.036141029   -0.10763008     0.025494638   -0.027927393    0.00059487099
    365000   0.036586587   -0.10796735     0.025303264   -0.027787743    0.0009539633 
    366000   0.036704011   -0.10817995     0.025302323   -0.027825163    0.00071596001
    367000   0.036667739   -0.1086758      0.025296825   -0.028380914    0.00092445565
    368000   0.036888275   -0.10890596     0.025583273   -0.027993844    0.0012119193 
    369000   0.036884978   -0.10917447     0.025909555   -0.027941021    0.00045463636
    370000   0.037297371   -0.10961549     0.02557651    -0.028096531    0.0012973479 
    371000   0.037541348   -0.10981588     0.02605823    -0.027449256    0.0011585069 
    372000   0.037276782   -0.11018366     0.025729705   -0.028542389    0.00069837276
    373000   0.037436833   -0.11053877     0.025789958   -0.028597181    0.0015769532 
    374000   0.037401468   -0.11078526     0.025672036   -0.029014643    0.00092352694
    375000   0.037962158   -0.11115453     0.025966103   -0.028248868    0.0010390581 
    376000   0.038097776   -0.1117471      0.02599834    -0.028605781    0.0012692824 
    377000   0.037936048   -0.11186144     0.02586248    -0.029098561    0.0011913078 
    378000   0.037769298   -0.11200827     0.026178089   -0.029179895    0.0008557386 
    379000   0.037580422   -0.11267063     0.026277324   -0.030026308    0.0010105466 
    380000   0.037923336   -0.11324835     0.025910331   -0.030456682    0.0015207131 
    381000   0.038233464   -0.11327396     0.026184939   -0.029742528    0.00078991839
    382000   0.03814088    -0.11347022     0.026322438   -0.029940151    0.00057496151
    383000   0.038309844   -0.11361345     0.026732167   -0.029420224    0.00061931505
    384000   0.038656609   -0.11395846     0.027026366   -0.028950918    0.0011851717 
    385000   0.038836494   -0.11434021     0.026675817   -0.029413409    0.00071541453
    386000   0.038407303   -0.11459807     0.026875076   -0.03011576     0.00084310808
    387000   0.038685604   -0.1147424      0.0264275     -0.030290238    0.001083646  
    388000   0.03796949    -0.11506966     0.026801616   -0.031317484    0.00067071079
    389000   0.038942632   -0.1154085      0.026821837   -0.030176489    0.0011679746 
    390000   0.038646165   -0.11573614     0.026819932   -0.030950702    0.0011230894 
    391000   0.039260714   -0.11622751     0.026871423   -0.030468819    0.00080177745
    392000   0.039044802   -0.11621502     0.027028736   -0.030622856    0.0012612763 
    393000   0.039339028   -0.11649791     0.027072024   -0.030421153    0.0013004124 
    394000   0.039765946   -0.11710149     0.026999092   -0.030457329    0.0005510021 
    395000   0.039264599   -0.11739395     0.027361295   -0.031139552    0.00099584191
    396000   0.03978718    -0.11781979     0.027370789   -0.030772085    0.00069737636
    397000   0.039474556   -0.11825523     0.027567925   -0.031479287    0.00020257163
    398000   0.039730089   -0.11888724     0.027805041   -0.031490907    0.0015452509 
    399000   0.039955601   -0.11904165     0.027285269   -0.031826845    0.0012130783 
    400000   0.039723825   -0.11920276     0.027488844   -0.032132025    0.00054531982
    401000   0.040668056   -0.11936349     0.02751999    -0.030845351    0.0013216875 
    402000   0.040265894   -0.11983032     0.027951182   -0.031484194    0.0010612037 
    403000   0.040572787   -0.12011825     0.027529216   -0.031733775    0.00098572136
    404000   0.040404241   -0.12066119     0.028070848   -0.031987887    0.00077396907
    405000   0.040666699   -0.12083247     0.028584992   -0.031251369    0.00086341327
    406000   0.040779023   -0.12097881     0.028328349   -0.031485874    0.0011268644 
    407000   0.040464991   -0.12144119     0.028375464   -0.032372153    0.00065543003
    408000   0.040583794   -0.1214706      0.028384312   -0.032214525    0.00091142106
    409000   0.041187753   -0.12181642     0.02849764    -0.031541137    0.00084984515
    410000   0.041272906   -0.12203337     0.028705852   -0.031422153    0.00045569293
    411000   0.041260031   -0.12261398     0.028635143   -0.032092787    0.00094208002
    412000   0.040978367   -0.12293166     0.029059054   -0.032409021    0.00089823793
    413000   0.041552644   -0.12340968     0.029033496   -0.032051244    0.00098771064
    414000   0.041621183   -0.12352324     0.028925068   -0.032170423    0.00083399431
    415000   0.04105944    -0.12372786     0.028707949   -0.03343472     0.0010543591 
    416000   0.041668213   -0.12416681     0.028077386   -0.033591137    0.0011767832 
    417000   0.04158412    -0.12413828     0.029119753   -0.032646369    0.00062082472
    418000   0.042211512   -0.12434589     0.028951958   -0.032080745    0.00079207634
    419000   0.042040886   -0.12495093     0.029196143   -0.032697522    0.00048227962
    420000   0.042030887   -0.12511426     0.029296381   -0.03277562     0.0014036856 
    421000   0.04201873    -0.12560423     0.029432381   -0.033147822    0.00073309481
    422000   0.042214993   -0.12568874     0.029461036   -0.032909295    0.0010828955 
    423000   0.042462915   -0.12609877     0.029021865   -0.033386642    0.0013090384 
    424000   0.042453681   -0.12650849     0.029584568   -0.033247504    0.00092475935
    425000   0.042940576   -0.12675738     0.029094664   -0.03325601     0.0016512307 
    426000   0.042855996   -0.12688892     0.029158057   -0.033451022    0.0017528033 
    427000   0.042555057   -0.12714788     0.029862726   -0.033456691    0.0010154634 
    428000   0.042642199   -0.12751555     0.029129633   -0.034426747    0.00079971726
    429000   0.04256458    -0.12768959     0.030296662   -0.033550178    0.00068350587
    430000   0.042930597   -0.1280977      0.029827236   -0.033878722    0.00066971414
    431000   0.043384626   -0.12825281     0.02987812    -0.03330195     0.00075664702
    432000   0.043521221   -0.1284493      0.02980428    -0.033367403    0.0011697206 
    433000   0.043645694   -0.12843896     0.030150326   -0.032824318    0.001275804  
    434000   0.043448077   -0.1290982      0.030455082   -0.033475209    0.00076700746
    435000   0.043591613   -0.12925962     0.029945381   -0.033931043    0.0014498437 
    436000   0.043555671   -0.12975537     0.029933641   -0.034492443    0.0011980067 
    437000   0.043592777   -0.12987856     0.03073036    -0.033763257    0.00028714304
    438000   0.043939596   -0.13021929     0.03057735    -0.033736796    0.00079254312
    439000   0.043995725   -0.13064903     0.030293186   -0.034366517    0.0013237325 
    440000   0.044721835   -0.130754       0.030697542   -0.032978035    0.0015492421 
    441000   0.044040731   -0.13098877     0.031187154   -0.033744778    0.00063409933
    442000   0.044201066   -0.13120427     0.030154388   -0.03475256     0.0015083417 
    443000   0.044508407   -0.13151371     0.030956778   -0.033798628    0.0013086537 
    444000   0.044307345   -0.13177337     0.030978718   -0.034337917    0.00021042617
    445000   0.044594652   -0.1324769      0.030620784   -0.034968452    0.0013002559 
    446000   0.044359252   -0.13272318     0.030809023   -0.035379572    0.0012974725 
    447000   0.0441007     -0.1332028      0.030757834   -0.036298178    0.0013566041 
    448000   0.044615856   -0.13336057     0.031154135   -0.03528697     0.001496925  
    449000   0.044769433   -0.13349308     0.030864335   -0.035478929    0.0010982849 
    450000   0.045197691   -0.13350009     0.031331728   -0.0343762      0.00054200756
    451000   0.045268406   -0.13380448     0.031797347   -0.034108901    0.001228146  
    452000   0.045090684   -0.13385887     0.03125988    -0.034967324    0.0010625698 
    453000   0.045507752   -0.13423174     0.031427037   -0.034547477    0.00088196276
    454000   0.045131169   -0.13462267     0.031622854   -0.035307425    8.8975762e-05
    455000   0.045660741   -0.13474316     0.031839907   -0.034416561    0.0020475666 
    456000   0.045890764   -0.13508522     0.03159913    -0.034654384    0.0018382112 
    457000   0.045723323   -0.13543775     0.031654018   -0.035203178    0.00063129862
    458000   0.045479424   -0.13600509     0.031624764   -0.036165588    0.00079525036
    459000   0.045917885   -0.13618528     0.031430321   -0.035882575    0.00069279356
    460000   0.045664737   -0.1362277      0.032323333   -0.035411679    0.0012268652 
    461000   0.046466637   -0.13657315     0.031872921   -0.035004768    0.00075230098
    462000   0.045844027   -0.13681158     0.031873716   -0.036176255    0.0019428453 
    463000   0.046781188   -0.13679156     0.031917013   -0.034707292    0.0008448262 
    464000   0.046301475   -0.13717031     0.032157185   -0.035565396    0.00094665027
    465000   0.046442709   -0.13771846     0.032524178   -0.035534712    0.00052439986
    466000   0.047035532   -0.13821668     0.032793907   -0.034874029    0.0009963334 
    467000   0.046758756   -0.13829619     0.032174176   -0.035988401    0.0014771262 
    468000   0.047195634   -0.13840652     0.032713571   -0.034904065    0.001119375  
    469000   0.046847062   -0.13923428     0.032518352   -0.036449872    0.0011362899 
    470000   0.046871448   -0.13916935     0.033188101   -0.035678617    0.001106922  
    471000   0.047362828   -0.13973195     0.032907603   -0.035784693    0.0003830913 
    472000   0.047339728   -0.13961524     0.032759273   -0.035850955    0.00070332546
    473000   0.047528813   -0.1396374      0.033285362   -0.03506342     0.00040964214
    474000   0.047757865   -0.14014027     0.032872033   -0.035636057    0.0016149928 
    475000   0.047776193   -0.14053305     0.033241365   -0.035632015    0.0015778368 
    476000   0.047790384   -0.14074137     0.03322338    -0.035837039    0.0011025608 
    477000   0.048022617   -0.14081848     0.032968256   -0.035820942    0.00066693896
    478000   0.048059682   -0.14097192     0.032971621   -0.035915431    0.00097212388
    479000   0.047958609   -0.14125419     0.033743677   -0.035577239    0.00076512595
    480000   0.048084107   -0.1415745      0.033439654   -0.036013342    0.0012891842 
    481000   0.047822717   -0.1419342      0.032929767   -0.037274986    0.00121184   
    482000   0.048825528   -0.14231316     0.033327936   -0.035751655    0.00066018445
    483000   0.048299145   -0.14240498     0.033550253   -0.036410681    0.0015324226 
    484000   0.048271048   -0.14278684     0.03362567    -0.03675927     0.0012806319 
    485000   0.048509816   -0.14326019     0.03341375    -0.037086411    0.0010192278 
    486000   0.048286375   -0.14366103     0.033735368   -0.037500775   -5.143899e-05 
    487000   0.048222817   -0.14389349     0.033510837   -0.038053099    0.0013989469 
    488000   0.048476172   -0.14449764     0.034119944   -0.037668131    0.0014447158 
    489000   0.048977904   -0.1445876      0.033466947   -0.037658537    0.001425747  
    490000   0.04820286    -0.14449781     0.034016384   -0.038181799    0.0004878168 
    491000   0.048843302   -0.1448784      0.034291566   -0.037326605    0.0012898312 
    492000   0.049053474   -0.1451895      0.034063035   -0.037551001    0.00012584445
    493000   0.049121901   -0.14543585     0.033854667   -0.037903091    0.00084331932
    494000   0.049968892   -0.14603143     0.034804081   -0.036278847    0.00060312565
    495000   0.049683352   -0.1462123      0.034113383   -0.037578702    0.0014048309 
    496000   0.050400922   -0.14633122     0.034212375   -0.036522337    0.0013153999 
    497000   0.050045015   -0.14690006     0.035156532   -0.036680845    0.00085636454
    498000   0.049709947   -0.1470553      0.034667953   -0.03782724     0.00080687531
    499000   0.049702154   -0.14720171     0.03456487    -0.03808842     0.0011910156 
    500000   0.050135345   -0.14758299     0.034830598   -0.037554228    0.0012030862 
Loop time of 498.395 on 8 procs for 500000 steps with 15500 atoms

Performance: 86678.196 tau/day, 1003.220 timesteps/s, 15.550 Matom-step/s
93.3% CPU use with 8 MPI tasks x 1 OpenMP threads

MPI task timing breakdown:
Section |  min time  |  avg time  |  max time  |%varavg| %total
---------------------------------------------------------------
Pair    | 90.076     | 95.796     | 102.36     |  39.6 | 19.22
Bond    | 47.162     | 47.996     | 48.987     |   8.6 |  9.63
Neigh   | 0.53928    | 0.54002    | 0.5417     |   0.1 |  0.11
Comm    | 33.705     | 40.804     | 47.279     |  65.3 |  8.19
Output  | 3.2073     | 3.3338     | 3.4528     |   4.5 |  0.67
Modify  | 302.18     | 303.78     | 305.02     |   4.6 | 60.95
Other   |            | 6.144      |            |       |  1.23

Nlocal:         1937.5 ave        2037 max        1806 min
Histogram: 1 0 0 1 1 1 2 0 1 1
Nghost:        1277.25 ave        1328 max        1214 min
Histogram: 2 1 0 0 1 0 0 1 0 3
Neighs:              0 ave           0 max           0 min
Histogram: 8 0 0 0 0 0 0 0 0 0
FullNghs:      8948.25 ave       10039 max        7685 min
Histogram: 1 0 1 0 1 2 1 1 0 1

Total # of neighbors = 71586
Ave neighs/atom = 4.6184516
Ave special neighs/atom = 2.1612903
Neighbor list builds = 402
Dangerous builds = 0

unfix ThermoLng

# Now we let the system to create the polymeric network
fix ThermoLng all langevin ${temp} ${temp} ${damp} ${seed3} tally yes zero yes # Brownian Dynamics: langevin + nve
fix ThermoLng all langevin 0.05 ${temp} ${damp} ${seed3} tally yes zero yes 
fix ThermoLng all langevin 0.05 0.05 ${damp} ${seed3} tally yes zero yes 
fix ThermoLng all langevin 0.05 0.05 1 ${seed3} tally yes zero yes 
fix ThermoLng all langevin 0.05 0.05 1 115 tally yes zero yes 
run ${steps}
run 9500000
WARNING: Using a manybody potential with bonds/angles/dihedrals and special_bond exclusions (src/pair.cpp:250)
Hybrid pair style last /omp style table/omp
Last active /omp style is angle_style harmonic/omp
Per MPI rank memory allocation (min/avg/max) = 23.38 | 23.38 | 23.39 Mbytes
   Step          Temp          E_pair         E_mol          TotEng         Press     
    500000   0.050135345   -0.14758299     0.034830598   -0.037554228    0.0012030862 
    501000   0.050216494   -0.14777375     0.034112422   -0.038341442    0.0015788398 
    502000   0.050294068   -0.14817805     0.034746406   -0.03799541     0.00039674173
    503000   0.050537538   -0.14863065     0.035019234   -0.037809997    0.0013607184 
    504000   0.050408833   -0.14919754     0.034304895   -0.039284276    0.00094609999
    505000   0.049979723   -0.14931505     0.03490828    -0.03944202     0.00056789184
    506000   0.050348979   -0.14916105     0.034503786   -0.039138669    0.0011342706 
    507000   0.049639568   -0.14969184     0.035043827   -0.040193466    0.0008500704 
    508000   0.049744306   -0.14969773     0.034339503   -0.040746586    0.0009863176 
    509000   0.050166842   -0.14990168     0.034770434   -0.03988584     0.0020746545 
    510000   0.050026136   -0.14988199     0.03533806    -0.039509567    0.0007691926 
    511000   0.05025122    -0.15046568     0.034483835   -0.040609875    0.0012339219 
    512000   0.049741053   -0.15055903     0.034527152   -0.041425111    0.0012746403 
    513000   0.050264062   -0.15108245     0.035148389   -0.040542833    0.0013056635 
    514000   0.049773683   -0.15148856     0.035217112   -0.041615741    0.00050759271
    515000   0.049945764   -0.15172937     0.034626763   -0.042188791    0.0016555455 
    516000   0.049914208   -0.15215684     0.035402905   -0.041887447    9.4144512e-05
    517000   0.050254476   -0.15225855     0.034990121   -0.041891575    0.0015252663 
    518000   0.049925881   -0.15258701     0.035232958   -0.042470064    0.00065540839
    519000   0.049776815   -0.15269406     0.034927195   -0.043106458    0.00062326335
    520000   0.049773123   -0.15316974     0.034731797   -0.043783079   -7.0571189e-05
    521000   0.04944458    -0.15333914     0.034950909   -0.044226144    0.0013345597 
    522000   0.050360643   -0.15326674     0.034199381   -0.043531266    0.0016132714 
    523000   0.049909276   -0.15343794     0.035301595   -0.043277263    0.0014218977 
    524000   0.050481257   -0.15372804     0.034873837   -0.043137204    0.00063896702
    525000   0.050848616   -0.1544946      0.035686343   -0.042540249    0.00071152866
    526000   0.050058271   -0.15467761     0.034987125   -0.044607927    0.00090709022
    527000   0.050107704   -0.15513367     0.034775199   -0.045201768    0.0010387881 
    528000   0.050418795   -0.15528981     0.035300129   -0.044366372    0.00064014426
    529000   0.050164756   -0.15541839     0.03542249    -0.044753616    0.00078173244
    530000   0.050210196   -0.15567357     0.034873545   -0.045489586    0.00061683501
    531000   0.050137439   -0.15626874     0.035238089   -0.045829343    0.0015961291 
    532000   0.050865881   -0.15647647     0.034940737   -0.045241837    0.0011439107 
    533000   0.050348912   -0.15636142     0.035462058   -0.045380864    0.0010620185 
    534000   0.050088084   -0.15721244     0.034258414   -0.047826747    0.001484053  
    535000   0.049262205   -0.15728394     0.034742817   -0.048652579    0.0007787619 
    536000   0.0497295     -0.15746461     0.034909101   -0.047966074    0.00084254317
    537000   0.050810208   -0.15770485     0.034574461   -0.046919996    0.0013492778 
    538000   0.049581081   -0.15799232     0.034853338   -0.04877216     0.00031828057
    539000   0.049553926   -0.15835623     0.034854373   -0.049175766    0.00048723326
    540000   0.050213647   -0.15837138     0.034958809   -0.048096963    0.0017893807 
    541000   0.050478716   -0.1583241      0.035286209   -0.047324701    0.00098071666
    542000   0.050200645   -0.15879764     0.035130452   -0.048371078    0.00046903336
    543000   0.050146936   -0.15884306     0.034482588   -0.049144915    0.0013559295 
    544000   0.050443236   -0.15903449     0.034585223   -0.048789296    0.0017387789 
    545000   0.050642628   -0.15916934     0.034811363   -0.048398931    0.0012976616 
    546000   0.050538306   -0.15910644     0.034625656   -0.048678212    0.0013693068 
    547000   0.049604598   -0.15926872     0.034885362   -0.049981257    0.00047762064
    548000   0.050433483   -0.15956237     0.03429217    -0.049624853    0.0002758969 
    549000   0.050084778   -0.15985509     0.034723377   -0.050009392    0.0019232394 
    550000   0.050177928   -0.15985447     0.035157913   -0.049434521    0.00082513311
    551000   0.049274476   -0.16052714     0.035209053   -0.051411137    0.00064254425
    552000   0.0504        -0.16084683     0.034150302   -0.051101404    0.0013923413 
    553000   0.049656225   -0.16100507     0.034990162   -0.051535377    0.00091289639
    554000   0.050611837   -0.16113758     0.034899908   -0.05032481     0.0010152072 
    555000   0.0501987     -0.16125734     0.034789997   -0.05117415     0.0014372507 
    556000   0.05004887    -0.16166918     0.034260574   -0.052340148    0.00081845639
    557000   0.050006741   -0.16147194     0.035116573   -0.051350099    0.0011801452 
    558000   0.049612926   -0.16171893     0.035022933   -0.052281405    0.0015408785 
    559000   0.050194174   -0.16185858     0.035601603   -0.050970577    0.00062120232
    560000   0.050578223   -0.16235228     0.034846058   -0.051643783    0.0013313289 
    561000   0.049912136   -0.16241803     0.035172415   -0.052382241    0.0012924688 
    562000   0.050014664   -0.16249982     0.035384926   -0.052097738    0.0013880435 
    563000   0.051382038   -0.16318148     0.034943015   -0.051170378    0.00072733986
    564000   0.050555716   -0.16365168     0.034946871   -0.052876125    0.0012593756 
    565000   0.049945751   -0.16364016     0.035031055   -0.053695312    0.00125816   
    566000   0.050324485   -0.16399135     0.034586956   -0.053922534    0.0013830928 
    567000   0.050039084   -0.16412235     0.034719156   -0.054349411    0.00075262643
    568000   0.049439467   -0.16412032     0.035401114   -0.054564788    0.0011340223 
    569000   0.049919674   -0.16460481     0.035104594   -0.054625537    0.0015601161 
    570000   0.049893784   -0.16460569     0.034959883   -0.054809957    0.00097470085
    571000   0.049575983   -0.16469802     0.035360346   -0.054978501    0.0012080678 
    572000   0.049774883   -0.16536774     0.034967016   -0.05574322     0.0001600673 
    573000   0.049905345   -0.16535987     0.035470351   -0.05503633     0.00063862452
    574000   0.050561788   -0.16550594     0.034257941   -0.05541021     0.001423273  
    575000   0.050407187   -0.16546483     0.03474062    -0.055118307    0.00078112389
    576000   0.050486454   -0.16583827     0.034748037   -0.055365439    0.00085565062
    577000   0.049746323   -0.16613034     0.035212225   -0.056303446    0.00096463684
    578000   0.049431991   -0.16634148     0.034965998   -0.057232282    0.001079076  
    579000   0.050066623   -0.16675942     0.034989232   -0.056675097    0.00098907698
    580000   0.049650882   -0.16704555     0.035389244   -0.05718479     0.00061317687
    581000   0.049955643   -0.16712603     0.035243042   -0.056954356    0.0010746644 
    582000   0.049843177   -0.16744984     0.034631054   -0.058058847    0.00055955333
    583000   0.04984734    -0.16722497     0.034702458   -0.057756327    0.0016073944 
    584000   0.050107195   -0.16784423     0.035518453   -0.057169833    0.00099723988
    585000   0.049854032   -0.16780509     0.03492846    -0.058100405    0.0011104913 
    586000   0.051047651   -0.16755641     0.035077625   -0.055912248    0.0010540409 
    587000   0.05039615    -0.16832005     0.035053941   -0.057676757    0.00079191559
    588000   0.050491606   -0.16855358     0.034737465   -0.058083592    0.0011075671 
    589000   0.050462074   -0.16875178     0.035139099   -0.057924452    0.00140527   
    590000   0.050071535   -0.16887008     0.03483021    -0.058937415    0.00095723693
    591000   0.050219311   -0.16925435     0.034680825   -0.059249421    0.0016975071 
    592000   0.049963818   -0.16930795     0.034929062   -0.059437992    0.0010367713 
    593000   0.050256843   -0.16982259     0.034803729   -0.059638457    0.0015602416 
    594000   0.049926145   -0.17004143     0.034688764   -0.060468275    0.00084363837
    595000   0.049778198   -0.1704504      0.034749541   -0.061038381    0.0014727743 
    596000   0.050469644   -0.17072863     0.03493708    -0.060091973    0.0011320023 
    597000   0.050510706   -0.17077252     0.035255669   -0.059755677    0.00082567665
    598000   0.050435492   -0.17107166     0.035154423   -0.060268878    0.0011795718 
    599000   0.050433265   -0.17114049     0.034817341   -0.060678127    0.00082493195
    600000   0.049900725   -0.17076817     0.034219      -0.061702913    0.0015638657 
    601000   0.050244112   -0.1709403      0.034941333   -0.060637659    0.00099518393
    602000   0.050186445   -0.1715822      0.035327286   -0.060980105    0.00057820179
    603000   0.049940922   -0.17158081     0.034688253   -0.061986009    0.0009482076 
    604000   0.049853337   -0.17190044     0.034681274   -0.062443984    0.00086601219
    605000   0.050218173   -0.17200812     0.034826628   -0.061859093    0.00088117196
    606000   0.049767955   -0.17172088     0.034866419   -0.062207345    0.0011019656 
    607000   0.049428431   -0.17188989     0.035281449   -0.062470581    0.0013578205 
    608000   0.049740808   -0.17210436     0.035350207   -0.062147754    0.0011662779 
    609000   0.049217637   -0.17230468     0.035031984   -0.063451006    0.00063013031
    610000   0.049479429   -0.17224233     0.034719954   -0.063308018    0.0015381605 
    611000   0.050258229   -0.17259538     0.034750075   -0.062462828    0.00051889108
    612000   0.049788116   -0.17259586     0.03524224    -0.062676267    0.0020766651 
    613000   0.050599216   -0.17262034     0.035044083   -0.061682327    0.00053843561
    614000   0.050202694   -0.17321516     0.034695291   -0.063220688    0.00042681145
    615000   0.050238787   -0.17299195     0.034252929   -0.063385699    0.001983179  
    616000   0.050052144   -0.17332648     0.034787409   -0.063465699    0.00090171372
    617000   0.049894717   -0.17329993     0.035026789   -0.063435898    8.1407355e-05
    618000   0.049673859   -0.17384773     0.035484449   -0.063857301    0.0009911747 
    619000   0.049883217   -0.17377595     0.03474083    -0.064215121    0.0012790666 
    620000   0.049959653   -0.17420048     0.035143664   -0.064122167    0.0010334815 
    621000   0.049822531   -0.17449907     0.034740352   -0.065029741    0.00091978109
    622000   0.049648888   -0.17469017     0.034548881   -0.065672764    0.00042980296
    623000   0.049547363   -0.1747469      0.034868456   -0.06556219     0.00028243647
    624000   0.050428995   -0.17507216     0.034963409   -0.064470138    0.0012957279 
    625000   0.050436707   -0.17522808     0.034871219   -0.064706681    0.00063481898
    626000   0.049892439   -0.17561283     0.03536137    -0.065417634    0.00032927835
    627000   0.050186512   -0.17575415     0.034928797   -0.065550442    0.0010040218 
    628000   0.050238127   -0.17556719     0.034856671   -0.065358195    0.0014506254 
    629000   0.049478273   -0.17599747     0.035037969   -0.066746881    0.00079129689
    630000   0.050269631   -0.17646253     0.034947372   -0.066115577    0.00098226061
    631000   0.050128382   -0.17642356     0.034779234   -0.0664566     -6.6066143e-05
    632000   0.050337702   -0.17647398     0.035421914   -0.065550382    0.0018284478 
    633000   0.050568934   -0.17637696     0.034629874   -0.065898582    0.00020737367
    634000   0.050189562   -0.17647973     0.035311878   -0.065888369    0.0015239208 
    635000   0.049628741   -0.17707973     0.034532783   -0.068108643    0.00023774056
    636000   0.050143016   -0.17673266     0.034481758   -0.067041232    0.0011151362 
    637000   0.050046681   -0.17732369     0.034689511   -0.067569005    0.0006364562 
    638000   0.049900648   -0.17726237     0.034432535   -0.067983693    0.001345069  
    639000   0.049839411   -0.17727338     0.035549196   -0.066969889    0.0005513677 
    640000   0.050513045   -0.17749959     0.035499241   -0.066235675    0.00059206837
    641000   0.05019022    -0.17809216     0.035454291   -0.067357401    0.00010461954
    642000   0.050555011   -0.17846527     0.034485204   -0.068152446    0.0016025991 
    643000   0.050576889   -0.17878161     0.035103844   -0.067817323    0.00035529951
    644000   0.050371837   -0.17894862     0.035206511   -0.068189231    0.001606963  
    645000   0.050642107   -0.17903493     0.03470657    -0.068370099    0.001619246  
    646000   0.050420179   -0.1795274      0.034368297   -0.069533711    0.00048307984
    647000   0.049968423   -0.17998656     0.03540343    -0.069635335    0.0012745531 
    648000   0.050567786   -0.1800298      0.034425566   -0.069757445    0.0011601959 
    649000   0.050493376   -0.18039773     0.034448322   -0.070214226    0.0013755584 
    650000   0.049940857   -0.18021134     0.035590475   -0.069714416    0.00064236898
    651000   0.050437548   -0.18060776     0.035324043   -0.069632276    0.0011864343 
    652000   0.050385782   -0.18075305     0.034830891   -0.070348358    0.00074619724
    653000   0.050130016   -0.18076839     0.035119069   -0.070459144    0.0012809603 
    654000   0.050614018   -0.18067291     0.034806219   -0.06995056     0.00094613046
    655000   0.050481323   -0.18124746     0.034730841   -0.070799521    0.0011891482 
    656000   0.04984868    -0.18111321     0.034565021   -0.071779995    0.00094386147
    657000   0.049881566   -0.18132256     0.034899131   -0.071605907    0.0017320725 
    658000   0.049964678   -0.18107774     0.034842874   -0.071292681    0.00076248381
    659000   0.050132911   -0.1818529      0.034844803   -0.071813585    0.00089791208
    660000   0.049899517   -0.18161733     0.034798707   -0.071974176    0.00097282927
    661000   0.049866649   -0.18193566     0.034963278   -0.072177237    0.00147453   
    662000   0.049661478   -0.18223889     0.035124615   -0.072626863    0.00082280584
    663000   0.050113769   -0.18234018     0.034848439   -0.072325938    0.0012084066 
    664000   0.050139929   -0.18264891     0.034886119   -0.072557753    0.00020533808
    665000   0.049783513   -0.18234474     0.035088123   -0.072586162    0.00077909991
    666000   0.050281095   -0.18245041     0.034844561   -0.072189068    0.00077074547
    667000   0.049791377   -0.18285168     0.034126316   -0.074043114    6.7540467e-05
    668000   0.05025339    -0.18250881     0.034364101   -0.072769487    0.0021860828 
    669000   0.049498065   -0.18320751     0.034822404   -0.074142798    0.00011172745
    670000   0.049700428   -0.18345466     0.034229495   -0.074679329    0.001034044  
    671000   0.049616187   -0.183489       0.034596538   -0.074472983    0.0018700585 
    672000   0.049796065   -0.18357649     0.035064813   -0.073822401    0.00052872036
    673000   0.049706454   -0.18396936     0.034339101   -0.075075383    0.00082474424
    674000   0.050269356   -0.18406904     0.035265084   -0.073404788    0.0014265548 
    675000   0.050305137   -0.18422166     0.035262975   -0.073505851    0.00087583157
    676000   0.050454674   -0.18445632     0.03580335    -0.072975841    0.00116146   
    677000   0.050733729   -0.18474998     0.035226062   -0.073428238    0.0013844689 
    678000   0.050173972   -0.18466512     0.035280984   -0.07412803     0.00094522188
    679000   0.050546984   -0.18540071     0.035192218   -0.074392905    0.00099218526
    680000   0.050395026   -0.18533593     0.034873076   -0.074875187    0.00089593508
    681000   0.050191696   -0.18502115     0.034562617   -0.075175852    0.00060464821
    682000   0.049864927   -0.18571131     0.034711619   -0.076207129    0.00023947234
    683000   0.050043607   -0.18605948     0.034994504   -0.076004406    0.00085899874
    684000   0.049926508   -0.18611378     0.034904406   -0.07632444     0.0015281046 
    685000   0.05028993    -0.18629784     0.034862368   -0.076005441    0.00090987537
    686000   0.050237794   -0.18641436     0.035002943   -0.076059587    0.0012861092 
    687000   0.049938948   -0.18647776     0.035054421   -0.076519752    0.0016192746 
    688000   0.050491032   -0.18688732     0.034895448   -0.076260205    0.0012977277 
    689000   0.04988899    -0.18696526     0.034961394   -0.077175209    0.00032238923
    690000   0.050023046   -0.18736405     0.035125901   -0.077208423    0.00073615403
    691000   0.050426808   -0.18718815     0.034966434   -0.076586384    0.0012352808 
    692000   0.049749098   -0.18760833     0.034998612   -0.077990888    0.00057393935
    693000   0.049950123   -0.18749063     0.034885998   -0.077684285   -0.00012503256
    694000   0.049678077   -0.18737214     0.034382819   -0.078477016    0.0006653689 
    695000   0.050100664   -0.18785736     0.034422126   -0.07828909     0.0010242733 
    696000   0.050228193   -0.18787054     0.035185358   -0.077347755    0.00066964447
    697000   0.05009247    -0.18820868     0.035243775   -0.077831047   -0.00020774363
    698000   0.050292326   -0.18824706     0.034887189   -0.077926245    0.001603882  
    699000   0.05087655    -0.1885551      0.035123711   -0.07712149     0.00078699887
    700000   0.050734103   -0.18863551     0.035848196   -0.076691071    0.0011929    
    701000   0.050466742   -0.18868774     0.035732466   -0.077260048    0.00060585135
    702000   0.050269663   -0.1888642      0.035230861   -0.078233711    0.0011022486 
    703000   0.050970787   -0.1889247      0.034964379   -0.07750907     0.00089792705
    704000   0.049993466   -0.1890901      0.035013657   -0.079091083    0.00039168394
    705000   0.050059883   -0.18954        0.03532227    -0.079132746    0.00041814845
    706000   0.050235747   -0.18957797     0.035237355   -0.078991854    0.00096847349
    707000   0.050714292   -0.18918852     0.035322821   -0.077799169    0.00086213751
    708000   0.050162465   -0.18968993     0.035025517   -0.07942557     0.00063912815
    709000   0.050348838   -0.18989881     0.034932603   -0.079447824    0.00037607549
    710000   0.049999616   -0.1900627      0.035333018   -0.079735095    0.00097506374
    711000   0.050123406   -0.19019875     0.034850984   -0.080167509    0.0011960474 
    712000   0.050005682   -0.19028714     0.034469258   -0.080814198    0.0011683468 
    713000   0.049843145   -0.19059168     0.035161151   -0.080670637    0.0008622047 
    714000   0.050548186   -0.190396       0.034914013   -0.079664598    0.00095097547
    715000   0.050299283   -0.19079267     0.035202404   -0.080146208    0.0012897749 
    716000   0.04991443    -0.19072687     0.035297177   -0.080562882    0.00058381703
    717000   0.049714681   -0.19135406     0.0353177     -0.081469147    0.0005890351 
    718000   0.049787275   -0.19136738     0.035099385   -0.081591901    0.0011806908 
    719000   0.049941512   -0.19169252     0.034984222   -0.081800863   -0.00015388173
    720000   0.04999105    -0.19117024     0.034956174   -0.081232326    0.00042701591
    721000   0.049470809   -0.19131561     0.035217385   -0.081896802    0.0012338148 
    722000   0.050029284   -0.19170795     0.034809133   -0.081859736    0.00099323618
    723000   0.050262094   -0.19207508     0.035091535   -0.081595265    0.00045137133
    724000   0.050168879   -0.19235546     0.035043976   -0.082063017    0.0010161757 
    725000   0.049872797   -0.19205111     0.034480733   -0.082766006    0.00098476031
    726000   0.049853625   -0.19241327     0.034516668   -0.08312099     0.00059210041
    727000   0.049922868   -0.19279096     0.034837543   -0.083073942    0.0012069448 
    728000   0.050102251   -0.19264302     0.034609209   -0.082885284   -3.7841396e-05
    729000   0.050408695   -0.1927784      0.034651329   -0.08251891     0.0011975248 
    730000   0.049735849   -0.19322836     0.034477956   -0.084151448    0.00032423881
    731000   0.049703393   -0.19337391     0.035104343   -0.08371929     0.0003538505 
    732000   0.049826579   -0.1936224      0.034814139   -0.084073212    0.0004261237 
    733000   0.049585592   -0.1940777      0.034763329   -0.084940786    0.00080267487
    734000   0.04956942    -0.19406659     0.034745408   -0.084971845    0.00072655822
    735000   0.049932241   -0.19463887     0.034978695   -0.084766641    0.00088699499
    736000   0.050067827   -0.19439312     0.035227937   -0.084068287    0.0011007236 
    737000   0.050258106   -0.194279       0.034794999   -0.084101705    0.0014413952 
    738000   0.049779492   -0.19439615     0.035167158   -0.084564568    0.0011320397 
    739000   0.050239605   -0.19496062     0.035265278   -0.084340793    0.00063728821
    740000   0.04948016    -0.19524419     0.035244485   -0.085784251    0.00050323264
    741000   0.04990766    -0.19573838     0.034746838   -0.086134882    0.00066409017
    742000   0.049499561   -0.19542403     0.034759468   -0.08642001     0.0012310008 
    743000   0.050189368   -0.19572105     0.035175603   -0.085266252    0.0010215194 
    744000   0.050031153   -0.19628612     0.035572803   -0.085671428    0.00057931734
    745000   0.050422918   -0.1963         0.035369899   -0.085300607    0.0015105906 
    746000   0.050307462   -0.19625065     0.035426735   -0.085367594    0.00064912188
    747000   0.049698971   -0.19655649     0.035458831   -0.086554011    0.00034554334
    748000   0.050187305   -0.19657815     0.034696228   -0.086605825    0.00033596895
    749000   0.049953539   -0.19681123     0.034545329   -0.087340431    0.0016836298 
    750000   0.050054127   -0.19709484     0.035005271   -0.08701322     0.00084741662
    751000   0.050220114   -0.19720869     0.034779475   -0.087103909    0.00087535179
    752000   0.050131642   -0.19694218     0.034951385   -0.086798186    0.0011608063 
    753000   0.049477658   -0.19743508     0.035070462   -0.088152921    4.991181e-05 
    754000   0.050810929   -0.19746737     0.034902      -0.086353896    0.00096418326
    755000   0.049702833   -0.19766787     0.034899958   -0.08821847     0.00082535531
    756000   0.049580697   -0.19777959     0.035468254   -0.087945087    0.00053830075
    757000   0.049759815   -0.19748174     0.035075202   -0.08777163     0.0011815227 
    758000   0.049817466   -0.19792521     0.035474644   -0.087729189    0.00083315947
    759000   0.049896727   -0.19762199     0.034824851   -0.087956882    0.00077187775
    760000   0.050473993   -0.19812887     0.035284906   -0.087137859    0.00065222777
    761000   0.049833917   -0.19816372     0.034622721   -0.088794951    0.00088172514
    762000   0.049509497   -0.19862947     0.035523493   -0.08884652     0.00028446657
    763000   0.050417292   -0.19838416     0.034663546   -0.088099556    0.00094284467
    764000   0.050342917   -0.19871489     0.034722087   -0.088483297    0.0011248856 
    765000   0.050065232   -0.19861306     0.034923348   -0.088596705    0.0007326748 
    766000   0.050129677   -0.19860119     0.035217672   -0.088193858    0.0008857848 
    767000   0.050431039   -0.19848188     0.035013655   -0.087826548    0.001000966  
    768000   0.050701093   -0.19901507     0.035224821   -0.087743518    0.00059446961
    769000   0.049866476   -0.19907302     0.035675708   -0.088602426    0.0010305822 
    770000   0.049917841   -0.19937934     0.035641539   -0.088865866    0.001223079  
    771000   0.049951023   -0.19974446     0.035125624   -0.089697138    0.00069832499
    772000   0.049253001   -0.19970702     0.034830395   -0.091001889   -0.00012994272
    773000   0.049775012   -0.19966014     0.034730516   -0.090271919    0.00073423689
    774000   0.049590136   -0.19974476     0.03511209    -0.090252261    0.00099098612
    775000   0.050267197   -0.19999697     0.034825467   -0.089775576    0.00052159202
    776000   0.049596253   -0.2001249      0.035267867   -0.090467451    0.00046547651
    777000   0.049676605   -0.19993372     0.034992804   -0.090430815    0.00031585002
    778000   0.049699395   -0.20043857     0.03535961    -0.090534674    0.00061892001
    779000   0.050077909   -0.20031599     0.035376744   -0.089827234    0.00072701343
    780000   0.050064174   -0.20017442     0.034932166   -0.090150842    0.0010660038 
    781000   0.049806024   -0.20032719     0.034241425   -0.091381546    7.0633003e-05
    782000   0.050172363   -0.20085432     0.035241272   -0.090359357    0.00050589286
    783000   0.049851914   -0.20086306     0.035139755   -0.090950255    0.00040048041
    784000   0.050455962   -0.20067701     0.035300868   -0.089697085    0.0016867607 
    785000   0.050225722   -0.2012376      0.03529709    -0.090606791    0.00075290817
    786000   0.049995999   -0.20149994     0.036180192   -0.09033059     0.00035463849
    787000   0.050717396   -0.201441       0.035876196   -0.08949362     0.00057187438
    788000   0.050236143   -0.20134933     0.035528117   -0.090471857    0.0011461301 
    789000   0.050229629   -0.20173337     0.035362832   -0.091030952   -0.00027256577
    790000   0.049878223   -0.20226038     0.035595517   -0.091852354    0.0009263582 
    791000   0.050078016   -0.20224584     0.034990317   -0.092143346    0.0012142154 
    792000   0.049831524   -0.20270298     0.035428526   -0.092531993   -0.00032746747
    793000   0.050265807   -0.20276525     0.035177813   -0.092193586    0.00086545212
    794000   0.05033739    -0.20292002     0.034822171   -0.09259663     0.0016043854 
    795000   0.05005342    -0.20311169     0.035248182   -0.092788223    0.00065591969
    796000   0.05024394    -0.20299319     0.035248913   -0.09238323     0.00085332599
    797000   0.049812008   -0.20371785     0.035312957   -0.093691706    0.0010020254 
    798000   0.05043973    -0.20373833     0.03480397    -0.093279646    0.0010773043 
    799000   0.05001964    -0.20383493     0.035222996   -0.093587312    0.00040629716
    800000   0.050143308   -0.20425756     0.035046383   -0.094001066    0.0010179371 
    801000   0.049433725   -0.20392427     0.035249152   -0.094529319   -0.00025556075
    802000   0.050085004   -0.20385286     0.034956573   -0.093773632   -0.00018325571
    803000   0.050071244   -0.20375674     0.034514206   -0.094140509    0.00114567   
    804000   0.04987936    -0.20427051     0.035190175   -0.094266119    0.00020893401
    805000   0.050127199   -0.20480439     0.035132014   -0.094486425    0.0003327012 
    806000   0.050083813   -0.20480987     0.035719824   -0.09396917     0.00039957707
    807000   0.050105155   -0.20474364     0.035474818   -0.094115937    0.00023247058
    808000   0.050230643   -0.20498921     0.03581268    -0.093835425    0.0010322428 
    809000   0.049678075   -0.20489708     0.035326551   -0.095058228    0.0013711201 
    810000   0.04974531    -0.20468128     0.035008161   -0.095059966    0.00099651935
    811000   0.05026764    -0.20513602     0.035047337   -0.094692092    0.00026990585
    812000   0.049997297   -0.20529479     0.034840499   -0.095463183   -0.0002948678 
    813000   0.049716624   -0.20554221     0.035314414   -0.095657667    0.0011193434 
    814000   0.04993379    -0.20613042     0.035360422   -0.095874141    0.00052912108
    815000   0.05020082    -0.2059731      0.034536954   -0.096139779    0.00082552258
    816000   0.049337912   -0.20607324     0.034962979   -0.097108171    0.00077806435
    817000   0.049891911   -0.20660656     0.034876706   -0.096896814    0.0010271479 
    818000   0.049926899   -0.20616867     0.035033058   -0.096250099    0.00081322435
    819000   0.049932909   -0.20672824     0.034945329   -0.096888377    0.00074617331
    820000   0.050630429   -0.20665288     0.035219609   -0.095492527    0.00041272178
    821000   0.049841981   -0.20704021     0.035212734   -0.09706933     0.0006706886 
    822000   0.050550729   -0.20728894     0.035762201   -0.095705534    0.00066224611
    823000   0.050263422   -0.20713734     0.03529199    -0.096455082    0.00044740022
    824000   0.050000064   -0.20687915     0.035500177   -0.096383713    0.00043916749
    825000   0.050269888   -0.20707614     0.035183443   -0.09649273     0.00097000265
    826000   0.050101282   -0.2078526      0.035325879   -0.09737965    -0.00016831839
    827000   0.050287546   -0.20734832     0.034502889   -0.097418973    0.00070088692
    828000   0.050147121   -0.20747779     0.035084834   -0.09717713     0.0012773669 
    829000   0.050159808   -0.20762202     0.034968435   -0.097418727    0.0010829173 
    830000   0.050379775   -0.20805392     0.034955871   -0.097533261    0.00058915497
    831000   0.049980852   -0.207792       0.035355374   -0.097470189    0.00089043178
    832000   0.050142779   -0.20834587     0.034859641   -0.098276916    0.00041445667
    833000   0.049932283   -0.2082355      0.035775062   -0.097566847    0.0010410309 
    834000   0.049966739   -0.20815777     0.034981153   -0.098231346    0.0010201779 
    835000   0.049885111   -0.20841065     0.035586278   -0.098001537    0.00022513121
    836000   0.04990074    -0.20844445     0.034403861   -0.099194307    0.00056296987
    837000   0.04961164    -0.20861412     0.03510746    -0.099094       0.00027200506
    838000   0.049537457   -0.20852573     0.034761832   -0.099462508    0.00094020619
    839000   0.049847723   -0.20893558     0.03515772    -0.099011101    0.00097907855
    840000   0.049988303   -0.20908649     0.034701958   -0.099406918    0.0015873895 
    841000   0.050711274   -0.20922807     0.035060559   -0.098105509    0.0011164042 
    842000   0.050216666   -0.20938464     0.035364574   -0.098699923    0.00016414158
    843000   0.049842432   -0.20964048     0.035291121   -0.099590531   -0.00023420807
    844000   0.049814775   -0.20922807     0.035187513   -0.09932322     0.001416819  
    845000   0.049960277   -0.20945667     0.035112019   -0.099409072    0.00066904348
    846000   0.049627397   -0.20965831     0.035145784   -0.10007623     0.00053035203
    847000   0.049864927   -0.20976211     0.035386016   -0.099583531    0.00028769088
    848000   0.049581184   -0.21004547     0.035441262   -0.10023724     0.0012756581 
    849000   0.050290828   -0.2099471      0.035590594   -0.098925133    0.0010121636 
    850000   0.049934478   -0.21049655     0.035163748   -0.10043592     0.00087980612
    851000   0.049489844   -0.21005666     0.034939276   -0.10088741     0.0012100968 
    852000   0.049913185   -0.21057999     0.035469875   -0.10024516     0.00069610987
    853000   0.050188744   -0.21049952     0.034916658   -0.1003046      0.0003942752 
    854000   0.04986483    -0.21069563     0.035550373   -0.10035283     0.00095931535
    855000   0.0502992     -0.21061567     0.034899382   -0.10027235     0.0012022127 
    856000   0.049976031   -0.21083253     0.035015187   -0.10085813    -0.00037564387
    857000   0.050036822   -0.21108111     0.034384105   -0.10164662     0.0013140872 
    858000   0.050469318   -0.21088976     0.034956564   -0.10023411     0.001697087  
    859000   0.049623078   -0.21066668     0.034625375   -0.10161149     0.00037512832
    860000   0.050370685   -0.21094348     0.035278239   -0.10011409     0.00037874265
    861000   0.050115406   -0.21109621     0.035307316   -0.10062064     0.00088970135
    862000   0.050142899   -0.2114109      0.035029774   -0.10117163     0.00044982631
    863000   0.049592557   -0.21137101     0.035497542   -0.10148943     0.0003648056 
    864000   0.050281318   -0.21158144     0.035020142   -0.10114418     0.0012719159 
    865000   0.049597783   -0.2115213      0.03530582    -0.10182361     0.00035499229
    866000   0.049569976   -0.21182801     0.034933713   -0.10254413     0.0015033368 
    867000   0.049872341   -0.21202317     0.035094712   -0.10212477     0.00086099235
    868000   0.050547724   -0.21170832     0.034832126   -0.1010595      0.00042196058
    869000   0.049701329   -0.2118505      0.034709688   -0.10259363     0.00067968966
    870000   0.050210878   -0.21202408     0.03540824    -0.10130439     0.00085961379
    871000   0.050030458   -0.2121001      0.035050121   -0.10200913     0.00063187474
    872000   0.050209545   -0.21218375     0.034456788   -0.10241751     0.00095922375
    873000   0.049494622   -0.21266929     0.035024536   -0.10340761     0.00082199836
    874000   0.049820735   -0.21267974     0.034843463   -0.10310999     0.00079482271
    875000   0.049706958   -0.21277511     0.035375975   -0.1028435      0.00078563139
    876000   0.050036006   -0.21276836     0.035385055   -0.10233414     0.0009959505 
    877000   0.050716456   -0.21285824     0.034781643   -0.10200682     0.00033155455
    878000   0.049921656   -0.21277635     0.035148946   -0.10274975    -0.00055826049
    879000   0.049683867   -0.21280066     0.034919024   -0.10336064     0.0010314884 
    880000   0.050059106   -0.21323531     0.035655069   -0.10249643     0.0005108539 
    881000   0.050777359   -0.21359334     0.035028691   -0.10240353     0.0013171167 
    882000   0.04974869    -0.21367079     0.034785464   -0.10426711     5.9118728e-05
    883000   0.049572379   -0.21397486     0.035434035   -0.10418706    -0.00039392952
    884000   0.050340423   -0.21420784     0.035105604   -0.10359647     0.00063110719
    885000   0.049650764   -0.21376505     0.03518992    -0.10410379     0.00079488069
    886000   0.050129793   -0.21405268     0.035178331   -0.10368451     0.0014625817 
    887000   0.050317971   -0.21401677     0.034718541   -0.10382614     0.00013429919
    888000   0.05019493    -0.21428817     0.034900251   -0.10410038     0.0017373422 
    889000   0.050022763   -0.21412816     0.034998609   -0.10410025     0.00092778532
    890000   0.049465373   -0.21435077     0.034786111   -0.10537138     0.00016978866
    891000   0.050450847   -0.21405088     0.03470663    -0.10367286     0.00086168589
    892000   0.050271506   -0.21462043     0.034870298   -0.10434773     0.0012138993 
    893000   0.050022338   -0.21459733     0.035679369   -0.10388929     0.0010362487 
    894000   0.050112768   -0.21445015     0.03524652    -0.10403933     0.00033273701
    895000   0.050306805   -0.21482136     0.035285726   -0.10408029     0.00095319698
    896000   0.050443722   -0.21517159     0.035117765   -0.10439312     0.0007944864 
    897000   0.049552389   -0.21467465     0.035102119   -0.10524874     0.00036725202
    898000   0.050046484   -0.21538627     0.034806558   -0.10551483     0.0012857713 
    899000   0.050375455   -0.21530955     0.035169744   -0.1045815      0.00050340432
    900000   0.050161169   -0.21530071     0.035053921   -0.10500989     0.00083692154
    901000   0.050047458   -0.21533951     0.034998698   -0.10527447     0.00084773854
    902000   0.049953283   -0.21537319     0.034240239   -0.10620786     0.00041739745
    903000   0.049885707   -0.21549691     0.035107618   -0.10556556     0.00027828232
    904000   0.049785818   -0.21531661     0.034839166   -0.10580353     0.00060428796
    905000   0.049969021   -0.21584941     0.034668607   -0.10623211     0.0010472077 
    906000   0.050417798   -0.21591056     0.035121845   -0.10516689     0.00075404011
    907000   0.050451214   -0.21576125     0.035031446   -0.10505786     0.0011690432 
    908000   0.050238536   -0.21612347     0.034874709   -0.10589582     0.00088411412
    909000   0.050038026   -0.21609503     0.034878491   -0.10616434     0.0012611521 
    910000   0.049743102   -0.2165597      0.0350147     -0.10693516     0.00019326838
    911000   0.050361682   -0.21633242     0.034741165   -0.10605361     0.00067861406
    912000   0.050075084   -0.21635584     0.035108889   -0.10613917     0.0002920263 
    913000   0.050399307   -0.21645777     0.035316466   -0.10554722     0.00085072391
    914000   0.050397191   -0.21655807     0.035204934   -0.10576223     0.0003085808 
    915000   0.049896439   -0.21692881     0.035352223   -0.10673676     0.0010666294 
    916000   0.050109397   -0.21680408     0.035727354   -0.10591748     0.00067873108
    917000   0.050029141   -0.2169107      0.03505711    -0.10681472     0.00063203351
    918000   0.050295183   -0.21720435     0.035824487   -0.10594195    -0.00058578634
    919000   0.049688534   -0.21713807     0.035886488   -0.10672359     0.00030248587
    920000   0.050274723   -0.2174978      0.035205601   -0.10688498     0.00046637849
    921000   0.049792954   -0.2173911      0.035629151   -0.10707734     0.00096013772
    922000   0.049824854   -0.21779288     0.035337003   -0.10772342     0.0014591846 
    923000   0.049737774   -0.21761358     0.034932644   -0.10807909     0.00095482338
    924000   0.049954111   -0.21821765     0.034736481   -0.10855483     0.00029615793
    925000   0.050453676   -0.21797588     0.034925055   -0.1073752      0.00049013049
    926000   0.04993481    -0.2180785      0.034691995   -0.10848913     0.0010440905 
    927000   0.050197036   -0.21815943     0.034699698   -0.10816904     0.0017642603 
    928000   0.050176264   -0.21836006     0.035089081   -0.10801144     0.00055073712
    929000   0.049960016   -0.21883466     0.035636221   -0.10826325    -0.00010753756
    930000   0.050373732   -0.21892628     0.03534294    -0.10802761     0.0011389917 
    931000   0.049656153   -0.21889458     0.035270433   -0.10914472     0.00055296475
    932000   0.050311633   -0.21907914     0.035009265   -0.1086073      0.00075679142
    933000   0.049598497   -0.21921953     0.035006213   -0.10982037     0.00083496115
    934000   0.050176812   -0.21912059     0.035293279   -0.10856694     0.00064801581
    935000   0.050365874   -0.21938839     0.035022208   -0.10882225    -0.00039140341
    936000   0.049764907   -0.21952889     0.034879144   -0.1100072      0.0012890766 
    937000   0.049471937   -0.21937401     0.035020461   -0.11015044     0.00061697987
    938000   0.050012154   -0.21952198     0.035558381   -0.10895021     0.0006802432 
    939000   0.049581596   -0.21953914     0.035420554   -0.10975099     0.001407321  
    940000   0.04956852    -0.21981539     0.035650691   -0.10981672     6.3142606e-05
    941000   0.050208424   -0.21976549     0.034679676   -0.10977803     0.00066952392
    942000   0.050458369   -0.21997566     0.034794035   -0.10949895     0.0014122962 
    943000   0.049728391   -0.21998727     0.035506653   -0.10989285     0.00084443825
    944000   0.050207947   -0.22068412     0.035187989   -0.11018907     4.8899738e-05
    945000   0.049753171   -0.22014571     0.035109853   -0.11041092     0.00050895462
    946000   0.049547571   -0.22027557     0.035461917   -0.11049709     0.00038192952
    947000   0.050271663   -0.22006161     0.035300902   -0.10935808     0.00095059291
    948000   0.04993238    -0.22001275     0.034954014   -0.110165       0.00071900289
    949000   0.049624951   -0.22053745     0.035310964   -0.11079387     0.00037032022
    950000   0.051306873   -0.22071999     0.034872165   -0.10889248     0.0016781301 
    951000   0.050006785   -0.22072659     0.035637746   -0.11008351     5.3933881e-05
    952000   0.050247382   -0.220477       0.035630225   -0.10948056     0.00075702345
    953000   0.049785813   -0.2207983      0.034354094   -0.1117703      8.0224411e-05
    954000   0.050028221   -0.22071568     0.034684613   -0.11099357     0.0011652842 
    955000   0.04977168    -0.22094264     0.035657644   -0.1106323      0.00097455925
    956000   0.050155469   -0.22077662     0.035100185   -0.11044808     0.00059380229
    957000   0.049813275   -0.2209457      0.034875841   -0.11135477     0.0010341567 
    958000   0.049824273   -0.22067287     0.035179768   -0.11076152     0.00068876142
    959000   0.050040589   -0.2209407      0.03570063    -0.11018403     0.00085849346
    960000   0.049873961   -0.22106224     0.035049516   -0.11120661     0.00023403991
    961000   0.049951989   -0.22118522     0.034753847   -0.11150822     0.0012726678 
    962000   0.050274192   -0.22161712     0.034594285   -0.11161642     0.00059793811
    963000   0.050058109   -0.22148688     0.034982372   -0.11142218     0.00067789013
    964000   0.050386686   -0.22147446     0.03503476    -0.11086454     0.001091661  
    965000   0.049715468   -0.22146271     0.035457645   -0.11143667     0.00054535885
    966000   0.050815308   -0.22153225     0.034600836   -0.11071337     0.001208648  
    967000   0.050202614   -0.22113981     0.035090997   -0.11074975     0.00068247903
    968000   0.05042594    -0.22164398     0.035232023   -0.11077792     0.00080883442
    969000   0.04995636    -0.22174542     0.035251612   -0.1115641      0.00073272463
    970000   0.050436683   -0.22206527     0.035214557   -0.11120057     0.00040267477
    971000   0.049518889   -0.22182365     0.035108217   -0.11244189     0.00079673809
    972000   0.049796117   -0.22180397     0.034857692   -0.11225692     0.00091373668
    973000   0.050011746   -0.22239358     0.034875027   -0.11250578     0.00058076891
    974000   0.049545679   -0.22253861     0.035221292   -0.11300359     0.00080452797
    975000   0.049825569   -0.22259296     0.035603268   -0.11225616     0.0009810724 
    976000   0.05034438    -0.22283863     0.034498639   -0.11282829     0.00082461131
    977000   0.049931322   -0.22251419     0.035382883   -0.11223916    -9.5535825e-07
    978000   0.050223385   -0.22252182     0.034942385   -0.11224922     0.00084892115
    979000   0.049894457   -0.22312835     0.035161027   -0.11313046     0.00086408268
    980000   0.049794152   -0.2228617      0.035219093   -0.1129562      0.00048855556
    981000   0.04965508    -0.22298816     0.034980006   -0.11353034     7.4301857e-05
    982000   0.050018262   -0.22316883     0.035046587   -0.11309969     0.0005042284 
    983000   0.049967312   -0.22291335     0.035156852   -0.11281036     0.0016042041 
    984000   0.050082146   -0.22350998     0.035078986   -0.11331262     0.0005946107 
    985000   0.050106847   -0.22351873     0.035337541   -0.11302577     0.00063856916
    986000   0.049798396   -0.22395956     0.035025653   -0.11424113     0.00052934374
    987000   0.050042965   -0.22406418     0.035468436   -0.11353614     0.00023917677
    988000   0.049982175   -0.22406558     0.035141575   -0.11395558     0.00087791407
    989000   0.049482007   -0.22403359     0.035143234   -0.11467213     0.00096554836
    990000   0.049749331   -0.22407921     0.035035258   -0.11442477    -0.00016468224
    991000   0.05045663    -0.22401579     0.034390361   -0.11394536     0.00019931919
    992000   0.050004478   -0.22485312     0.03543733    -0.11441391    -2.3935291e-05
    993000   0.05063392    -0.22472476     0.035707423   -0.11307136    -0.00024917284
    994000   0.049838142   -0.22483463     0.03566553    -0.11441671     0.00061241127
    995000   0.049899665   -0.22473001     0.035340921   -0.11454442     0.00080683901
    996000   0.049616671   -0.22470024     0.034557519   -0.11572251     0.0010845121 
    997000   0.050100672   -0.22501344     0.035281265   -0.11458601     0.00035490908
    998000   0.050243853   -0.22527958     0.035166258   -0.11475241     0.00030080854
    999000   0.050494879   -0.2251298      0.035288443   -0.11410392     0.00098931989
   1000000   0.050020861   -0.22524163     0.035255405   -0.11495978     0.00078157688
   1001000   0.050195416   -0.22532188     0.035020086   -0.11501353     0.00022199023
   1002000   0.049689471   -0.22575728     0.035335259   -0.11589262     0.00052517344
   1003000   0.050305923   -0.22578678     0.035386554   -0.11494621     0.00034993933
   1004000   0.049700652   -0.22559516     0.035326896   -0.11572209     0.0011922911 
   1005000   0.049722201   -0.22570198     0.034655025   -0.11646846     0.0005657103 
   1006000   0.049690059   -0.22572698     0.034503009   -0.11669369     0.00074411871
   1007000   0.049417477   -0.22560322     0.03513904    -0.11634275     0.00032695203
   1008000   0.049864169   -0.22592323     0.035071576   -0.11606022     4.5557843e-05
   1009000   0.049786682   -0.22580112     0.035124152   -0.11600176     0.00015063049
   1010000   0.050244138   -0.22575178     0.035230548   -0.11515989     0.00054946194
   1011000   0.050526642   -0.22622847     0.035600394   -0.11484301     0.00031092073
   1012000   0.050318266   -0.22632269     0.035573635   -0.11527653    -0.00016782282
   1013000   0.049848577   -0.22618231     0.034391362   -0.1170229      0.00092475688
   1014000   0.049942548   -0.22626866     0.034628228   -0.11673145     0.0016756505 
   1015000   0.049868377   -0.22652159     0.035628497   -0.11609536    -0.00042549688
   1016000   0.049730503   -0.22641323     0.035018232   -0.11680405     0.00029299989
   1017000   0.049998463   -0.22659711     0.035731944   -0.11587231     0.0001004893 
   1018000   0.050722108   -0.22655073     0.035340519   -0.11513196     0.00074698161
   1019000   0.050419532   -0.22671632     0.03518763    -0.11590427     0.0010600695 
   1020000   0.049967934   -0.22678726     0.035064848   -0.11677535     0.00060237699
   1021000   0.050093683   -0.22670917     0.034653423   -0.11692007     0.0012381544 
   1022000   0.050195324   -0.2269206      0.03568341    -0.11594906     1.3216395e-05
   1023000   0.04992109    -0.22663782     0.034816336   -0.11694468     0.00080983927
   1024000   0.050671402   -0.22694864     0.034991208   -0.11595524     0.00068155661
   1025000   0.049726628   -0.22733802     0.035357606   -0.11739529     0.00070466626
   1026000   0.050004299   -0.22760358     0.035270074   -0.1173319      0.00069273822
   1027000   0.050090605   -0.22782419     0.035745023   -0.1169481      0.00088804492
   1028000   0.049642937   -0.22792204     0.035108001   -0.11835443     0.0002513569 
   1029000   0.049430161   -0.22779848     0.035329823   -0.1183282      0.00049512405
   1030000   0.050154906   -0.22780727     0.034973525   -0.11760624     0.0010931935 
   1031000   0.049506258   -0.2282126      0.035274314   -0.11868369    -0.00017175175
   1032000   0.050180498   -0.22833778     0.035219331   -0.11785256     0.00029918532
   1033000   0.050290588   -0.22833261     0.035409517   -0.11749208     0.00070729599
   1034000   0.050062651   -0.22880135     0.034817183   -0.11889504     0.0010934285 
   1035000   0.050193554   -0.22896083     0.03545902    -0.11821633     0.00053369271
   1036000   0.049337379   -0.22885297     0.035280345   -0.11957133     0.00090336885
   1037000   0.04973625    -0.2284395      0.034876796   -0.11896314     0.00044063663
   1038000   0.050336753   -0.22868092     0.035123209   -0.11805746     0.00047725822
   1039000   0.050363087   -0.22887632     0.035264507   -0.11807206     0.00010906122
   1040000   0.050391107   -0.22889674     0.034840649   -0.11847431     0.0012782146 
   1041000   0.050510892   -0.22896897     0.034959792   -0.11824772     0.0011740861 
   1042000   0.049696137   -0.22921229     0.035734264   -0.11893863     0.00094450132
   1043000   0.050327955   -0.22941197     0.035671598   -0.11825331     0.00058580307
   1044000   0.049840567   -0.2296135      0.03490387    -0.1199536      0.0011259022 
   1045000   0.050262425   -0.22940164     0.035018249   -0.11899462     0.00089390662
   1046000   0.049964669   -0.22915938     0.035572555   -0.11864466    -0.00010057939
   1047000   0.049737246   -0.22947409     0.035101158   -0.11977188     0.00090830438
   1048000   0.049930271   -0.22953192     0.034874092   -0.11976725     0.0010871665 
   1049000   0.04939293    -0.23003177     0.035271136   -0.12067602     0.00067154702
   1050000   0.049842066   -0.22965592     0.034906388   -0.11999125     0.00058428848
   1051000   0.050136734   -0.22932124     0.035473066   -0.11864793     0.00060681266
   1052000   0.050039976   -0.23012962     0.035652935   -0.11942157     0.00019357661
   1053000   0.049917275   -0.2296207      0.035856365   -0.11889325     0.00053094822
   1054000   0.050231143   -0.23002826     0.034949614   -0.11973679     0.00098402536
   1055000   0.049706684   -0.22983036     0.035465232   -0.11980991     0.0010266666 
   1056000   0.049906363   -0.23030907     0.035583246   -0.11987111     0.00057060248
   1057000   0.050152405   -0.23026488     0.035204366   -0.11983676     0.0012886736 
   1058000   0.049948151   -0.23055793     0.035603336   -0.1200372      0.00036745106
   1059000   0.050034451   -0.22988415     0.034750703   -0.12008661     0.0011669716 
   1060000   0.050953919   -0.23008719     0.035193828   -0.11846741     0.00045436342
   1061000   0.050822755   -0.23011921     0.03598363    -0.11790637     6.9414605e-05
   1062000   0.05053578    -0.23077873     0.03551649    -0.11946346     0.0012084    
   1063000   0.050640431   -0.2306693      0.035086404   -0.11962715     0.00097479548
   1064000   0.050711302   -0.23088        0.035750015   -0.11906794     0.00027102655
   1065000   0.050784213   -0.23076825     0.035339203   -0.11925764     0.00061310159
   1066000   0.050123669   -0.23098554     0.035386223   -0.12041867     0.00058881605
   1067000   0.050385693   -0.23119292     0.035141052   -0.12047821     0.0011684651 
   1068000   0.050405514   -0.23162949     0.035015846   -0.12101025     0.0001415074 
   1069000   0.050577634   -0.23137457     0.035209247   -0.12030377    -0.00013235664
   1070000   0.049883762   -0.23125944     0.0355395     -0.12089912    -0.00027924042
   1071000   0.05018938    -0.23157514     0.034992279   -0.12130365     0.0013294488 
   1072000   0.05022021    -0.23188417     0.035940261   -0.12061845     1.4062412e-05
   1073000   0.050329417   -0.23158188     0.035165928   -0.1209267      0.0012356168 
   1074000   0.049879213   -0.23182673     0.034883215   -0.12212952     0.00071896156
   1075000   0.049349486   -0.23139418     0.035181184   -0.12219354     0.0016718105 
   1076000   0.049836083   -0.23158909     0.035209001   -0.12163079     0.00013252977
   1077000   0.050430388   -0.23170201     0.035485309   -0.120576       0.00040362519
   1078000   0.05014531    -0.23236696     0.035310868   -0.12184298     0.00041249536
   1079000   0.050404864   -0.2321868      0.035204618   -0.12137977     0.00032139898
   1080000   0.049921887   -0.23242808     0.035277322   -0.12227276     0.00012966476
   1081000   0.050481787   -0.23262118     0.035155401   -0.12174798     0.00079748054
   1082000   0.050369987   -0.23229031     0.036154258   -0.12058594     0.00046778211
   1083000   0.050253757   -0.23240607     0.034962461   -0.12206784     0.00063751843
   1084000   0.050304436   -0.23225125     0.035570716   -0.12122875     0.0013762768 
   1085000   0.050174181   -0.23247754     0.035831182   -0.12138995     0.0011357277 
   1086000   0.049639547   -0.23267413     0.035188438   -0.12303118     0.00046088195
   1087000   0.04979403    -0.23265289     0.035140959   -0.1228257      0.00042017988
   1088000   0.049901387   -0.2328328      0.035481622   -0.12250392     0.00045634319
   1089000   0.049724788   -0.23258107     0.035524153   -0.12247454     0.00049803782
   1090000   0.050079828   -0.23233791     0.034897898   -0.12232511     0.00090592827
   1091000   0.050211961   -0.23255786     0.035904584   -0.1213402      0.00012216463
   1092000   0.050463753   -0.23306419     0.034780661   -0.12259279     0.0007396598 
   1093000   0.049946329   -0.23288122     0.035230112   -0.12273644     2.3483643e-06
   1094000   0.050386117   -0.23289167     0.034944787   -0.12237259    -0.00017584008
   1095000   0.049664794   -0.23248794     0.03456526    -0.12343029     0.0017237632 
   1096000   0.049627626   -0.23298577     0.035795585   -0.12275355     0.0014609293 
   1097000   0.049885104   -0.23328577     0.034774586   -0.12368835     8.0948961e-05
   1098000   0.049844404   -0.23307519     0.035153326   -0.12316008     0.00095140856
   1099000   0.050317973   -0.23310473     0.035080463   -0.12255218     0.00044339175
   1100000   0.050127528   -0.23308945     0.034943168   -0.12295984     0.0010746123 
   1101000   0.050474436   -0.23406228     0.034996877   -0.12335864    -0.0003476215 
   1102000   0.050186154   -0.23361803     0.035210255   -0.1231334      0.0005941658 
   1103000   0.050112135   -0.2334321      0.034710552   -0.12355819     0.00080734214
   1104000   0.050066059   -0.23358663     0.035509378   -0.12298301    -0.000456538  
   1105000   0.050146631   -0.23399171     0.035594469   -0.12318215     0.0003297475 
   1106000   0.049890609   -0.2342292      0.035949794   -0.12344832     0.0010022437 
   1107000   0.049674595   -0.2341875      0.035205159   -0.12447526     0.0011344374 
   1108000   0.049922234   -0.23442843     0.035514595   -0.12403531    -0.00030565312
   1109000   0.050025479   -0.23429464     0.035950681   -0.12331058     0.00076490647
   1110000   0.049626394   -0.23423426     0.035347494   -0.12445198     0.00061142271
   1111000   0.049331537   -0.23432483     0.035245068   -0.12508723     0.00076821577
   1112000   0.049724658   -0.23431727     0.035328282   -0.12440681     0.00036290372
   1113000   0.050170643   -0.2347565      0.035221723   -0.12428367     0.00050273449
   1114000   0.049611527   -0.23481176     0.035436122   -0.12496315     0.00046949879
   1115000   0.050163614   -0.23506591     0.035024899   -0.12480044     0.00044679972
   1116000   0.049997352   -0.2348048      0.03500525    -0.12480836     0.0010265054 
   1117000   0.050198968   -0.23478283     0.034878291   -0.12461095     0.0009654064 
   1118000   0.050155972   -0.23500922     0.034636363   -0.12514376     0.00099348855
   1119000   0.050125885   -0.23476671     0.035291157   -0.12429158     0.00025435577
   1120000   0.050023605   -0.23496247     0.034624288   -0.12530762     0.0013791179 
   1121000   0.049426532   -0.23533225     0.035009753   -0.12618749     0.00021806506
   1122000   0.05001547    -0.23527248     0.035373069   -0.12488104     0.00043495975
   1123000   0.050292218   -0.23558017     0.03576549    -0.12438122     0.0011694766 
   1124000   0.050382928   -0.23565261     0.035474968   -0.12460813     0.00099125725
   1125000   0.049922621   -0.23514371     0.035358875   -0.12490573     0.00091714585
   1126000   0.050307195   -0.23572137     0.035344323   -0.12492112     0.0003335121 
   1127000   0.049909487   -0.23538897     0.035197266   -0.1253323      0.00051053431
   1128000   0.049833826   -0.23596065     0.03515518    -0.12605956     0.00086445854
   1129000   0.049911453   -0.23564824     0.034429619   -0.12635627     0.0015470461 
   1130000   0.050597644   -0.23617215     0.035297182   -0.1249834      0.00051859158
   1131000   0.050377071   -0.23619255     0.035248022   -0.1253838      0.00077282291
   1132000   0.049803568   -0.23640857     0.035513221   -0.12619482     0.00026918094
   1133000   0.049463504   -0.2361277      0.035307359   -0.12662987     0.0015987044 
   1134000   0.050255468   -0.236577       0.03477828    -0.12642038     0.00067573479
   1135000   0.049848301   -0.23679622     0.035080263   -0.12694833     0.00085593121
   1136000   0.049925077   -0.23651036     0.035358361   -0.12626921     0.0007546412 
   1137000   0.049777656   -0.23700992     0.0355658     -0.12678245    -0.00019732276
   1138000   0.050652819   -0.23645918     0.035186154   -0.1252987      0.00035352712
   1139000   0.050615715   -0.23689131     0.035177766   -0.12579487     0.00019461899
   1140000   0.049958111   -0.23667485     0.034916067   -0.12682645     0.00095621466
   1141000   0.050086305   -0.23670358     0.035105157   -0.12647382    -0.00015756461
   1142000   0.049931005   -0.23667841     0.035047917   -0.12673882     0.00078374724
   1143000   0.050397564   -0.23690117     0.035249671   -0.12606003    -0.00022398552
   1144000   0.050158024   -0.23687128     0.034432995   -0.12720611     0.00053537912
   1145000   0.04992579    -0.23745597     0.034870609   -0.1277015     -0.00016239384
   1146000   0.04953964    -0.23709426     0.035023161   -0.12776644     0.0015162973 
   1147000   0.050223409   -0.23737032     0.034993302   -0.12704677     0.00071279062
   1148000   0.049436116   -0.23756625     0.035222874   -0.12819398     9.3184308e-05
   1149000   0.050046892   -0.23781348     0.035653888   -0.12709409     0.00033931759
   1150000   0.050018563   -0.23736974     0.035763124   -0.12658361    -0.00018893597
   1151000   0.050210026   -0.23770874     0.035101017   -0.12729754     0.0001939022 
   1152000   0.049650845   -0.23771075     0.035416525   -0.12782276     0.0011349308 
   1153000   0.049794848   -0.23792512     0.035142213   -0.12809546     9.1543021e-05
   1154000   0.04962696    -0.238294       0.035590214   -0.12826815     7.0232229e-05
   1155000   0.049460741   -0.23829976     0.035074013   -0.12903943     0.00075869326
   1156000   0.050482935   -0.23852178     0.034996485   -0.12780577     0.00043671244
   1157000   0.049887971   -0.23852673     0.035686106   -0.1280135      0.00060030542
   1158000   0.050095265   -0.23881837     0.035573808   -0.12810651    -0.00018901744
   1159000   0.050051379   -0.23855596     0.035199679   -0.12828406     0.0014411756 
   1160000   0.050226297   -0.2385334      0.034918465   -0.12828035     0.00072723367
   1161000   0.049938949   -0.23865535     0.03502486    -0.1287269      0.00049513763
   1162000   0.050231351   -0.23864372     0.034627997   -0.12867356     0.00033132024
   1163000   0.049856108   -0.23876783     0.035203677   -0.12878482     0.00041416412
   1164000   0.050091812   -0.23873009     0.034604561   -0.12899266     0.0010633303 
   1165000   0.049731898   -0.23879869     0.034603136   -0.12960252     0.00082418717
   1166000   0.049819976   -0.23906594     0.03525267    -0.12908813     0.0010632272 
   1167000   0.050349248   -0.23924762     0.035514673   -0.12821395     0.00054215824
   1168000   0.049836614   -0.23910015     0.035244864   -0.12910519     0.00033199676
   1169000   0.049828297   -0.23930914     0.035097183   -0.12947434     0.001381994  
   1170000   0.050527438   -0.23950466     0.035327802   -0.1283906      0.00093722058
   1171000   0.050432045   -0.23922898     0.034945571   -0.12864022     0.0010694242 
   1172000   0.049899012   -0.23929465     0.035158      -0.12929296    -0.00035652993
   1173000   0.049492872   -0.23944815     0.035604046   -0.12960959     0.00069713258
   1174000   0.049903924   -0.23961723     0.035268245   -0.12949793     0.0012864208 
   1175000   0.049719824   -0.23960218     0.034706371   -0.13032088     0.00032643697
   1176000   0.050368889   -0.23985827     0.034690973   -0.12961884     0.0010653132 
   1177000   0.049805075   -0.23975762     0.035309377   -0.12974545     0.00086424565
   1178000   0.049872485   -0.23990191     0.034740378   -0.13035763     0.00099216184
   1179000   0.049737536   -0.23947061     0.035720442   -0.12914868     0.00084726563
   1180000   0.050117074   -0.23973265     0.035116067   -0.12944582     0.0009815258 
   1181000   0.050395384   -0.24015779     0.034755922   -0.12981367     0.00078738086
   1182000   0.050291871   -0.2403118      0.035562688   -0.12931617    -0.0001355703 
   1183000   0.049919688   -0.24025001     0.03544364    -0.12993167     0.0011512985 
   1184000   0.050333149   -0.24051082     0.03545244    -0.12956353    -1.045827e-05 
   1185000   0.050067694   -0.24094067     0.035885794   -0.12995818    -9.1448659e-05
   1186000   0.050006615   -0.24063325     0.035619853   -0.13000831     0.00045048743
   1187000   0.050382116   -0.24019453     0.034778489   -0.12984774     0.00091025217
   1188000   0.050513808   -0.24079474     0.035760436   -0.12926848     0.00030296651
   1189000   0.050313164   -0.24080665     0.035384656   -0.12995712     0.00040097602
   1190000   0.049961939   -0.24099196     0.034774949   -0.13127894     0.00011906418
   1191000   0.04972751    -0.24096344     0.034776915   -0.13160007     0.00045306987
   1192000   0.049247981   -0.24105594     0.035646818   -0.13154191     3.4748922e-05
   1193000   0.050070196   -0.24126225     0.034743161   -0.13141864     0.001064295  
   1194000   0.049676101   -0.24097017     0.035116131   -0.1313447      0.00077188923
   1195000   0.049661223   -0.24166447     0.03589263    -0.13128481     0.00026761771
   1196000   0.050391772   -0.24117203     0.034699723   -0.13088952     0.0011321075 
   1197000   0.05037047    -0.24142329     0.035175467   -0.13069699     0.0010241369 
   1198000   0.049682943   -0.24134967     0.035149279   -0.13168079     0.00083338229
   1199000   0.049885829   -0.24164625     0.035198215   -0.13162412     0.00043933383
   1200000   0.04999628    -0.24169574     0.035242955   -0.13146321     0.0011116296 
   1201000   0.050808204   -0.2413663      0.035081123   -0.13007779     0.00061550499
   1202000   0.050513826   -0.24189926     0.035035015   -0.13109839    -0.00049681981
   1203000   0.049440628   -0.24133778     0.035068717   -0.13211291     0.0011533773 
   1204000   0.050054073   -0.24159196     0.034966386   -0.1315493      0.00050659318
   1205000   0.049754341   -0.24160291     0.035290654   -0.13168556     0.0001073147 
   1206000   0.049952548   -0.24198628     0.035141193   -0.1319211      0.00028527334
   1207000   0.049797219   -0.24231613     0.035249365   -0.13237576     0.00019108407
   1208000   0.049361793   -0.24247468     0.035289769   -0.133147       0.0003503657 
   1209000   0.049599751   -0.24224225     0.034974187   -0.13287324     0.00041601509
   1210000   0.050639455   -0.24222296     0.034602227   -0.13166645     0.00042820003
   1211000   0.049731435   -0.242378       0.034916858   -0.1328688     -3.4664155e-05
   1212000   0.049607525   -0.24228241     0.035150596   -0.13272533     0.00044414473
   1213000   0.049864254   -0.24219356     0.034997688   -0.13240432     0.00069810843
   1214000   0.05036083    -0.24257108     0.035041466   -0.13199324     0.00080019685
   1215000   0.049811872   -0.24241993     0.035766547   -0.1319404      0.001313381  
   1216000   0.049579411   -0.24208626     0.035479024   -0.13224292     0.0012943825 
   1217000   0.050046552   -0.24270765     0.034859331   -0.13278334     9.3001058e-05
   1218000   0.0500216     -0.24295561     0.035821874   -0.13210617    -7.5378723e-05
   1219000   0.05033744    -0.24252696     0.034836831   -0.13218884     0.0010476757 
   1220000   0.050157466   -0.24267652     0.03548996    -0.13195522    -0.00018748995
   1221000   0.050423165   -0.24303029     0.035589722   -0.1318107      0.0008316559 
   1222000   0.049985263   -0.24309664     0.034331456   -0.13379213     0.0011847926 
   1223000   0.050133508   -0.24275194     0.035203472   -0.13235306     0.00068062288
   1224000   0.050767992   -0.24342694     0.035476488   -0.13180338     0.00020541252
   1225000   0.050785846   -0.24314072     0.035198544   -0.13176832     0.00022715727
   1226000   0.050142031   -0.24303771     0.035307521   -0.13252199     0.0003183172 
   1227000   0.049846769   -0.24310618     0.034801387   -0.13353946    -1.5419322e-05
   1228000   0.050278073   -0.24370281     0.034813808   -0.13347675     0.00083528607
   1229000   0.050346074   -0.24369726     0.035554986   -0.13262803     0.00062552342
   1230000   0.049945213   -0.24355168     0.035436629   -0.13320206     9.61095e-05  
   1231000   0.050064464   -0.24374436     0.035581124   -0.13307138     0.0002468533 
   1232000   0.049355763   -0.24339797     0.034641545   -0.13472756     0.0002533705 
   1233000   0.049600425   -0.243679       0.035349298   -0.13393386     0.00015443838
   1234000   0.049387072   -0.24351928     0.035051526   -0.13439192     0.00078367871
   1235000   0.049666776   -0.24373178     0.035285727   -0.13395069     0.00075229404
   1236000   0.050002638   -0.24376866     0.034663351   -0.13410619     0.00025494878
   1237000   0.050133662   -0.2436611      0.035173249   -0.13329221     0.00063882054
   1238000   0.049778186   -0.2438314      0.034943553   -0.13422538     0.00079417858
   1239000   0.0498402     -0.24439874     0.035825333   -0.13381793    -0.00013852422
   1240000   0.049888844   -0.24423054     0.03571618    -0.13368593     0.0010153973 
   1241000   0.050215107   -0.24431848     0.035489185   -0.13351149     0.00053156242
   1242000   0.049791541   -0.2446434      0.0356527     -0.13430821     0.00087179739
   1243000   0.050574324   -0.24468635     0.035463015   -0.13336674    -0.00016131713
   1244000   0.050436122   -0.24448843     0.034979377   -0.13385975     0.00096691201
   1245000   0.050568716   -0.24465901     0.035169141   -0.13364169     0.00012611755
   1246000   0.049782092   -0.24436931     0.035106531   -0.13459446     0.00025777149
   1247000   0.049956169   -0.24447857     0.034426389   -0.13512276     0.00018149931
   1248000   0.049762572   -0.24461878     0.034925887   -0.13505385     0.0003944552 
   1249000   0.049821513   -0.24465252     0.03508404    -0.13484103     0.00049033842
   1250000   0.050362155   -0.244928       0.035562314   -0.13382733     0.00035309627
   1251000   0.050185925   -0.24463481     0.03561033    -0.13375045     0.0015904669 
   1252000   0.050213951   -0.24486176     0.03527121    -0.13427448     0.00019860172
   1253000   0.049858899   -0.24508332     0.035541123   -0.13475868     0.00088006438
   1254000   0.049788397   -0.24481584     0.034929844   -0.13520822     0.00078614156
   1255000   0.04933776    -0.24494985     0.035763563   -0.13518442     0.00023420512
   1256000   0.050407435   -0.24541241     0.034771436   -0.1350347      0.001031072  
   1257000   0.050030197   -0.24506346     0.034911754   -0.13511125     0.00053598932
   1258000   0.050367462   -0.24536755     0.035361006   -0.13446022     3.4277824e-06
   1259000   0.050088048   -0.24500533     0.03541216    -0.13446595     1.225281e-05 
   1260000   0.050108462   -0.24574897     0.035471892   -0.13511923     0.00018996713
   1261000   0.050119459   -0.24535378     0.034477324   -0.13570212     0.00093442966
   1262000   0.050245176   -0.24578062     0.035176197   -0.13524152     0.00059007879
   1263000   0.050176882   -0.24599494     0.035430372   -0.1353041     -0.00018206339
   1264000   0.049994317   -0.24588206     0.034964646   -0.13593077     0.00063157151
   1265000   0.050493296   -0.24585071     0.035338692   -0.13477696     0.00048872987
   1266000   0.049670952   -0.2457814      0.035523144   -0.13575663    -0.00033211948
   1267000   0.049820505   -0.24607369     0.035097925   -0.13624983     0.00080313808
   1268000   0.04975444    -0.24604178     0.035165004   -0.13624993     0.00037188364
   1269000   0.050095814   -0.24642349     0.034493559   -0.13679105     0.00070613935
   1270000   0.049281022   -0.24624305     0.034839181   -0.1374871      2.2132628e-05
   1271000   0.049911063   -0.24621201     0.035078394   -0.13627185     0.0011227386 
   1272000   0.050031212   -0.24644249     0.035089075   -0.13631143     0.00060817028
   1273000   0.049416562   -0.2460322      0.035291721   -0.13662042     0.0003235776 
   1274000   0.049571956   -0.24634063     0.034944394   -0.1370431      0.0010603486 
   1275000   0.049829696   -0.24639126     0.034843723   -0.13680782     0.00044058852
   1276000   0.049888268   -0.24616898     0.035182546   -0.13615886    -0.00018854375
   1277000   0.050297847   -0.24658149     0.034990944   -0.13614865     0.00061035012
   1278000   0.04998586    -0.24654735     0.03526838    -0.13630502     0.00048148653
   1279000   0.050032124   -0.24648149     0.034607483   -0.13683067     0.0013514526 
   1280000   0.049821362   -0.24667799     0.035653727   -0.13629705    -0.00059967088
   1281000   0.049964377   -0.24674504     0.034880896   -0.13692241     0.00030874134
   1282000   0.049911488   -0.246847       0.03507055    -0.13691405     0.00026816487
   1283000   0.050056434   -0.24707591     0.034886032   -0.13711007     0.00035046933
   1284000   0.049728466   -0.24698494     0.035613762   -0.13678329     0.0010632989 
   1285000   0.050470946   -0.24718457     0.035582771   -0.13590026     0.00077195509
   1286000   0.050519918   -0.2466744      0.035690297   -0.13520912     0.00093805564
   1287000   0.049801321   -0.24674998     0.035288625   -0.13676419     0.00064490534
   1288000   0.049999205   -0.24724404     0.035514421   -0.13673565     0.0003697163 
   1289000   0.049805974   -0.24721505     0.035226206   -0.13728471     0.00037177137
   1290000   0.049972392   -0.24708317     0.03553331    -0.13659611     0.00059993117
   1291000   0.049656511   -0.24710838     0.035277178   -0.13735124     0.00053898651
   1292000   0.049362075   -0.24726198     0.035168742   -0.1380549      0.00064063138
   1293000   0.049839604   -0.24772025     0.034947435   -0.13801823     0.00049962109
   1294000   0.04999432    -0.24767245     0.035370686   -0.13731512     0.000219745  
   1295000   0.049664441   -0.24789355     0.034883799   -0.1385179      0.0011396852 
   1296000   0.050086533   -0.24774391     0.03537835    -0.13724061     0.00098058809
   1297000   0.049781484   -0.24757366     0.035597535   -0.13730872     0.00069536844
   1298000   0.05093204    -0.24836226     0.034943769   -0.13702536     0.0010542964 
   1299000   0.049703113   -0.24801568     0.035360308   -0.13810551     0.00045386944
   1300000   0.04967431    -0.24819089     0.03467744    -0.13900679     0.00018227888
   1301000   0.049586315   -0.24816567     0.035406336   -0.13838466     0.00054625016
   1302000   0.05025338    -0.24823816     0.035250005   -0.13761295     0.00073701354
   1303000   0.050026342   -0.24797905     0.036056708   -0.13688767     0.0014682976 
   1304000   0.050010162   -0.24825354     0.035254853   -0.13798829     0.00084038992
   1305000   0.049896563   -0.24845131     0.035845434   -0.13776586     4.0391982e-05
   1306000   0.049851415   -0.24813774     0.034710041   -0.1386554      0.0013555424 
   1307000   0.049726174   -0.24876504     0.035699962   -0.13848063    -0.00052704149
   1308000   0.049538266   -0.24867249     0.035211804   -0.13915808     0.00026142522
   1309000   0.049949473   -0.24856753     0.035616799   -0.13803135    -0.00027900716
   1310000   0.049411496   -0.24882415     0.035258644   -0.13945305    -0.00053522223
   1311000   0.049824664   -0.24922563     0.035453732   -0.13903972     0.00035954725
   1312000   0.049595463   -0.24903836     0.035063798   -0.13958616     0.00050160325
   1313000   0.049748558   -0.24951298     0.035338905   -0.13955605     0.00049354692
   1314000   0.048943724   -0.24966505     0.035374682   -0.14087951     0.00027904914
   1315000   0.049696659   -0.24965103     0.034725337   -0.14038552     0.0010050505 
   1316000   0.049594597   -0.24905542     0.035367562   -0.13930076     0.00092406065
   1317000   0.049806361   -0.24965418     0.035307042   -0.13964242    -1.611103e-05 
   1318000   0.049815732   -0.24973235     0.03470721    -0.14030636     0.0012485003 
   1319000   0.049572998   -0.24983761     0.034912354   -0.14057056    -0.00034518346
   1320000   0.049471839   -0.25006257     0.035302168   -0.14055743     0.0008245295 
   1321000   0.050089096   -0.24981059     0.035210647   -0.13947115     0.0012327359 
   1322000   0.049988533   -0.24961203     0.035725427   -0.13890864     0.00076162869
   1323000   0.050514802   -0.24996271     0.035368022   -0.13882738     0.00075626224
   1324000   0.050344197   -0.25007502     0.035142788   -0.13942081     0.00054195106
   1325000   0.050104123   -0.24980715     0.035110091   -0.13954573     0.00031795519
   1326000   0.049936924   -0.25019627     0.035011451   -0.14028426     0.001187813  
   1327000   0.050491782   -0.2502754      0.035055429   -0.13948719     0.00090573818
   1328000   0.050737514   -0.24997492     0.035515087   -0.13835847     0.00045883005
   1329000   0.049994499   -0.25024168     0.035562433   -0.13969233     0.00094395745
   1330000   0.050074557   -0.25028853     0.034992389   -0.14018915     6.3792134e-05
   1331000   0.049979518   -0.25013801     0.03495873    -0.14021484     0.00076405696
   1332000   0.05006519    -0.25020922     0.034802311   -0.14031397     0.001453283  
   1333000   0.050303426   -0.24992018     0.035243663   -0.13922625     0.0015164267 
   1334000   0.05012408    -0.2502216      0.035754432   -0.1392859      0.00030536486
   1335000   0.049924055   -0.2499985      0.0353927     -0.13972455     0.00044514632
   1336000   0.049618687   -0.24977722     0.035437658   -0.13991634     0.00042036521
   1337000   0.050303731   -0.25041611     0.035315701   -0.13964968     0.0012625725 
   1338000   0.049126437   -0.25046961     0.035419195   -0.14136552    -0.00037739323
   1339000   0.050635449   -0.25021724     0.034881911   -0.13938705     0.00037186615
   1340000   0.050036906   -0.2499748      0.03497801    -0.13994627     0.0010017705 
   1341000   0.0500992     -0.25024275     0.035405965   -0.13969283     0.00072565552
   1342000   0.050094389   -0.25031918     0.034584038   -0.1405984      0.0014028238 
   1343000   0.050168306   -0.25038949     0.035841002   -0.13930088    -0.00035663298
   1344000   0.049819897   -0.25048537     0.035682455   -0.14007789     0.00012965618
   1345000   0.05021234    -0.25044131     0.035346573   -0.13978109    -3.5587626e-05
   1346000   0.049238618   -0.25037988     0.035458513   -0.1410682     -1.2956396e-05
   1347000   0.049344786   -0.25054256     0.035647475   -0.14088268    -0.00015580589
   1348000   0.05044231    -0.25045934     0.034740849   -0.1400599      0.0012015362 
   1349000   0.04950371    -0.25047772     0.035754652   -0.14047229     0.0013756025 
   1350000   0.049872684   -0.25070506     0.035668796   -0.14023207    -0.00017930489
   1351000   0.050600117   -0.25119069     0.03500718    -0.14028823     0.00069692468
   1352000   0.050123242   -0.25097979     0.035484932   -0.14031485     0.0001602547 
   1353000   0.049442315   -0.25101225     0.034886179   -0.14196739     0.00050593188
   1354000   0.050164229   -0.25139009     0.034988965   -0.14115964     0.00063729771
   1355000   0.049823354   -0.25079578     0.035195313   -0.14087026    -0.00015271013
   1356000   0.050288976   -0.25120866     0.035401025   -0.14037904     0.0015876632 
   1357000   0.050064273   -0.25136002     0.035440139   -0.14082832     0.00067755714
   1358000   0.049664366   -0.25119148     0.035593456   -0.14110629     0.00017996624
   1359000   0.050263871   -0.2511882      0.035932473   -0.13986479    -0.00051372939
   1360000   0.049608068   -0.25125872     0.035626384   -0.14122504     0.00049330448
   1361000   0.049723605   -0.25071615     0.035468456   -0.1406671     -8.4989664e-05
   1362000   0.0505588     -0.25128884     0.035033901   -0.14042163     0.00052597948
   1363000   0.049720496   -0.25145078     0.035554788   -0.14132006     0.0015391916 
   1364000   0.050291933   -0.2512703      0.035822012   -0.14001526     0.00016791894
   1365000   0.049950531   -0.25134539     0.035400202   -0.14102422     0.00043485668
   1366000   0.049770097   -0.25161124     0.034803164   -0.14215774     0.00060290471
   1367000   0.050516101   -0.2518895      0.035536937   -0.1405833      0.00017337456
   1368000   0.050070509   -0.25206542     0.035494439   -0.14147006     0.0012705428 
   1369000   0.050084303   -0.25170353     0.035384637   -0.14119728     0.00052454701
   1370000   0.050023873   -0.251971       0.035640705   -0.14129932     0.00054962138
   1371000   0.049997762   -0.25175069     0.035525404   -0.14123348     0.00048411509
   1372000   0.049936449   -0.25187526     0.03551281    -0.14146261     0.00014660593
   1373000   0.049922053   -0.2519053      0.035678061   -0.14134899     0.00030881071
   1374000   0.050156524   -0.25122185     0.0355058     -0.14048612    -0.00010425522
   1375000   0.049707318   -0.25220887     0.035768196   -0.14188451     0.00065297177
   1376000   0.049618422   -0.25195852     0.036226405   -0.14130928    -0.00015211419
   1377000   0.050509021   -0.2525175      0.035584894   -0.14117396     0.0006632918 
   1378000   0.050631243   -0.25189654     0.035355832   -0.14059875     0.00011892089
   1379000   0.049455178   -0.25204692     0.036138215   -0.14173073     0.00034397973
   1380000   0.049853894   -0.25219137     0.034871041   -0.14254432     0.00019145301
   1381000   0.050014966   -0.2521807      0.035290305   -0.14187279    -0.00018586283
   1382000   0.050150221   -0.25275554     0.035768994   -0.14176607     0.00067747543
   1383000   0.049818857   -0.25238677     0.034820627   -0.14284268     0.00028305527
   1384000   0.050191762   -0.25228171     0.035472881   -0.14152605     0.00032786859
   1385000   0.050097784   -0.25267935     0.035046598   -0.14249093     0.001254694  
   1386000   0.049714203   -0.25275512     0.036261424   -0.1419272      0.00011961113
   1387000   0.050345491   -0.25261297     0.035392963   -0.14170664    -0.00026751202
   1388000   0.050521148   -0.25253361     0.03546825    -0.14128852     1.5027115e-05
   1389000   0.04985717    -0.25266079     0.03533528    -0.14254458     0.00010839381
   1390000   0.050218915   -0.25325186     0.035744163   -0.14218419     0.00014003266
   1391000   0.050658679   -0.25290813     0.03529818    -0.14162683     0.0013464028 
   1392000   0.050150163   -0.25292695     0.035035521   -0.14267103     4.0420103e-06
   1393000   0.050185843   -0.25317759     0.036006523   -0.14189716     0.00046479722
   1394000   0.049887413   -0.25290684     0.03568702    -0.14239353     0.0006409838 
   1395000   0.049828544   -0.25268899     0.03528108    -0.14266991     0.00040859972
   1396000   0.049763438   -0.25343314     0.035648987   -0.14314382     0.0002471288 
   1397000   0.04963656    -0.25295674     0.035307618   -0.14319908     0.00030182009
   1398000   0.049877801   -0.25317825     0.034922096   -0.14344427     0.0012906656 
   1399000   0.050249324   -0.25313077     0.03532765    -0.142434       0.0013550898 
   1400000   0.050082618   -0.25300983     0.036124457   -0.1417663      0.0011243358 
   1401000   0.049847981   -0.25316473     0.035416011   -0.14298157    -0.00059610996
   1402000   0.049496735   -0.25338882     0.035735178   -0.14341333     0.00035961821
   1403000   0.050405114   -0.25337061     0.034847411   -0.14292041     0.0018807005 
   1404000   0.049620416   -0.25324353     0.034977729   -0.14383998     0.00064810295
   1405000   0.050215571   -0.25350943     0.035381546   -0.14280939    -0.00035613059
   1406000   0.050376699   -0.25378223     0.035347261   -0.1428748      0.00014149703
   1407000   0.049945669   -0.2535698      0.035433393   -0.14322274     2.5998615e-05
   1408000   0.050511608   -0.25322989     0.035145737   -0.14232163     0.00017261689
   1409000   0.049795179   -0.25383987     0.035189461   -0.14396246     3.0687812e-05
   1410000   0.049894963   -0.25353119     0.03520415    -0.14348942     0.00086325996
   1411000   0.050137664   -0.25353782     0.034626158   -0.14371001     0.0006391254 
   1412000   0.050004725   -0.25386287     0.035090243   -0.14377038    -0.00019105484
   1413000   0.050255866   -0.25399898     0.035342153   -0.14327789    -2.2984553e-05
   1414000   0.049627541   -0.25392921     0.035186373   -0.14430632     0.00090398149
   1415000   0.049787747   -0.25397011     0.035222988   -0.14407032     0.0010329916 
   1416000   0.050143917   -0.25438184     0.035266866   -0.14390395     0.00024586034
   1417000   0.049873932   -0.25423709     0.03477637    -0.14465465     0.00066100871
   1418000   0.050507936   -0.25438751     0.035224605   -0.14340589    -6.7900324e-05
   1419000   0.050216482   -0.25438335     0.035076417   -0.14398707     0.00043882831
   1420000   0.049940728   -0.25412654     0.035674669   -0.14354562     0.00023223178
   1421000   0.049966072   -0.25407185     0.035293532   -0.14383405     0.00075142547
   1422000   0.050630923   -0.25419434     0.035340575   -0.14291228    -0.00063059245
   1423000   0.049938868   -0.25438219     0.035558593   -0.14392013     0.00057653743
   1424000   0.049568965   -0.25383754     0.035448594   -0.1440403      0.0009147663 
   1425000   0.050471028   -0.25419724     0.034507405   -0.14398817     0.00031027506
   1426000   0.049681796   -0.25403336     0.035172645   -0.14434282     0.00039477963
   1427000   0.049987892   -0.25430606     0.034994146   -0.14433492     0.0018857395 
   1428000   0.049632852   -0.25454528     0.035318037   -0.14478277     0.00071182153
   1429000   0.049647479   -0.25451212     0.035515848   -0.14452985    -0.00017348475
   1430000   0.04976746    -0.25421528     0.035671041   -0.14389786     0.0010025989 
   1431000   0.050388526   -0.25443875     0.035604273   -0.14325656    -9.4585971e-05
   1432000   0.050460183   -0.25447589     0.035468344   -0.14332215     0.00033426446
   1433000   0.04971366    -0.25477252     0.035404054   -0.14480278    -0.00016991197
   1434000   0.050346477   -0.25468383     0.035264316   -0.14390467    -0.00014515021
   1435000   0.050723189   -0.25446303     0.035377854   -0.1430053      0.00073475454
   1436000   0.050019355   -0.25446288     0.035315926   -0.14412276     0.00081548862
   1437000   0.050835939   -0.25435487     0.035138573   -0.14296731    -0.00010347105
   1438000   0.050320913   -0.25458036     0.035275296   -0.14382856    -0.00038971603
   1439000   0.049969581   -0.25482151     0.035074146   -0.14479783     0.000361341  
   1440000   0.050233656   -0.25462862     0.035071529   -0.14421147    -0.00078477784
   1441000   0.050107641   -0.25478087     0.035082135   -0.14454212     0.0011126534 
   1442000   0.050246073   -0.25476347     0.035034586   -0.14436463     0.00043694901
   1443000   0.050141099   -0.25478937     0.035507986   -0.14407458     0.0011210291 
   1444000   0.050472021   -0.25481576     0.034839738   -0.14427288     0.00051767965
   1445000   0.049974669   -0.25482968     0.035450961   -0.14442155     0.00069488978
   1446000   0.050324512   -0.25494426     0.035100462   -0.14436189     0.00055977018
   1447000   0.049576972   -0.25500821     0.035632571   -0.14501498    -0.00025052802
   1448000   0.04975048    -0.25479453     0.035179792   -0.14499383     0.00028119918
   1449000   0.050031503   -0.25519023     0.034958882   -0.14518893     0.0014093229 
   1450000   0.049993396   -0.25520263     0.035727779   -0.14448959     0.0008786765 
   1451000   0.050054576   -0.25497864     0.035683561   -0.14421806     0.00037959916
   1452000   0.050056619   -0.25512538     0.035256893   -0.1447884      0.0012886065 
   1453000   0.049921859   -0.25530036     0.035231177   -0.14519123     0.00057923554
   1454000   0.048988678   -0.25509494     0.035247475   -0.14636919     0.00097892454
   1455000   0.049796506   -0.25510772     0.035281815   -0.14513597     0.00063837489
   1456000   0.049266708   -0.25512313     0.035013366   -0.14621447    -0.00038876139
   1457000   0.050158861   -0.25513291     0.034647973   -0.1452515      0.00032833177
   1458000   0.050066812   -0.25564572     0.035497305   -0.14505304     0.00091697323
   1459000   0.049883539   -0.2557888      0.035534459   -0.14543386    -1.4416805e-05
   1460000   0.05002051    -0.25537895     0.035081376   -0.14527164     0.0012848092 
   1461000   0.049860243   -0.25557905     0.035799616   -0.14499389     0.00042950534
   1462000   0.050438063   -0.2559005      0.035408506   -0.14483978    -8.3466567e-05
   1463000   0.050046887   -0.25600958     0.03515117    -0.14579292     0.0013062236 
   1464000   0.050234231   -0.25569717     0.034419802   -0.14593088     0.00068310356
   1465000   0.049980137   -0.25579352     0.035403772   -0.14542438     0.00041818134
   1466000   0.050554858   -0.25578663     0.035186725   -0.14477251     0.00068705759
   1467000   0.049863173   -0.25568789     0.035140344   -0.14575761     0.00021464867
   1468000   0.050482335   -0.2561363      0.03485065    -0.14556703     0.00023565545
   1469000   0.050221376   -0.25580011     0.035379603   -0.1450933      0.00096111359
   1470000   0.050547659   -0.2559709      0.035149853   -0.14500445     0.00013034172
   1471000   0.049788874   -0.25592022     0.035482319   -0.14575941     0.0014232365 
   1472000   0.050347804   -0.25609299     0.03448021    -0.14609594     0.0012460425 
   1473000   0.049378124   -0.25607422     0.03541418    -0.14659763     0.00056953298
   1474000   0.050208934   -0.25655656     0.035103365   -0.14614465     0.0006625154 
   1475000   0.04971228    -0.25678137     0.035495125   -0.14672264     0.00068893777
   1476000   0.049711333   -0.25684233     0.035186311   -0.14709383    -9.6457878e-05
   1477000   0.049538316   -0.2569125      0.035358259   -0.14725156     0.00021484415
   1478000   0.049789952   -0.2568686      0.035238338   -0.14695015     0.00066164182
   1479000   0.04983927    -0.256824       0.035625431   -0.14644448     0.00076540224
   1480000   0.050244683   -0.25667427     0.035003253   -0.14630886     0.0010169912 
   1481000   0.049745581   -0.25671755     0.035593968   -0.14651003     0.00040484985
   1482000   0.04974651    -0.25703677     0.035801064   -0.14662076    -0.00074306635
   1483000   0.049551595   -0.25696464     0.035880689   -0.14676136     0.00026592727
   1484000   0.049975313   -0.25708263     0.03519014    -0.14693436     0.00025303776
   1485000   0.050356164   -0.25692417     0.035205373   -0.14618943     0.00065161157
   1486000   0.050201037   -0.25694879     0.035597575   -0.14605452     0.00052412666
   1487000   0.05013498    -0.25693793     0.035555299   -0.14618502    -0.000281251  
   1488000   0.050288513   -0.25720216     0.035336459   -0.14643779    -0.0004288566 
   1489000   0.050113959   -0.25753497     0.035714002   -0.14665488     0.00059162261
   1490000   0.04996909    -0.25714198     0.035310172   -0.14688301     0.00051623495
   1491000   0.049765461   -0.25714452     0.035282319   -0.14721883     0.0002368914 
   1492000   0.050259171   -0.25750007     0.035174892   -0.14694129     0.00011251554
   1493000   0.049482593   -0.25774411     0.03530072    -0.14822429     0.00065280774
   1494000   0.049672622   -0.25767363     0.034252018   -0.14891749     0.00076551206
   1495000   0.05037725    -0.25777919     0.03529798    -0.14692021     0.00077918274
   1496000   0.049806374   -0.25808633     0.035177777   -0.14820381     0.00061318842
   1497000   0.049872063   -0.25778847     0.035094555   -0.14789065     0.00013205237
   1498000   0.049573044   -0.25789934     0.03589949    -0.14764508     0.00030318234
   1499000   0.049940419   -0.25808803     0.035360082   -0.14782215    -4.0256311e-05
   1500000   0.050442939   -0.25768748     0.035001782   -0.14702617     8.3918992e-05
   1501000   0.050452657   -0.25776382     0.034972102   -0.14711761     0.0009941855 
   1502000   0.050146462   -0.25808449     0.03556442    -0.14730523    -0.00015395949
   1503000   0.049899905   -0.25818935     0.035754212   -0.14759011     0.0010332459 
   1504000   0.049994653   -0.25854535     0.035796658   -0.14776155    -0.00010128945
   1505000   0.049807625   -0.25830359     0.035386952   -0.14821002     0.00028685926
   1506000   0.049733684   -0.25875711     0.035147835   -0.14901356     0.00068812605
   1507000   0.050003676   -0.258428       0.034669614   -0.14875771    -4.8119724e-05
   1508000   0.049979641   -0.25829781     0.035583326   -0.14774986     0.00093299549
   1509000   0.050477056   -0.25851281     0.034965842   -0.14783627     0.00041275088
   1510000   0.050263146   -0.25906059     0.035427471   -0.14824326    -0.0002133429 
   1511000   0.049828602   -0.2585091      0.035499573   -0.14827145     0.00026930151
   1512000   0.050149411   -0.25908406     0.035783602   -0.14808119    -0.00011838224
   1513000   0.050243509   -0.25865482     0.035398553   -0.14789587     0.00041039695
   1514000   0.050251405   -0.25890346     0.034808623   -0.1487226      0.00098650092
   1515000   0.050131038   -0.25883265     0.034648421   -0.14899252     0.0013774069 
   1516000   0.048866992   -0.25908002     0.035575804   -0.15020846    -0.0001722229 
   1517000   0.049539449   -0.25905268     0.034910086   -0.14983821     0.0014271082 
   1518000   0.04995119    -0.25909185     0.035335755   -0.14883415     0.00069895856
   1519000   0.049371189   -0.25933575     0.035628732   -0.14965501    -0.00022659733
   1520000   0.050258494   -0.25882316     0.03548325    -0.14795703     0.0011631909 
   1521000   0.050011176   -0.25912559     0.035443164   -0.1486705      0.00088602931
   1522000   0.050382262   -0.25914019     0.035164338   -0.14840734     0.0012089845 
   1523000   0.050065468   -0.25946994     0.035533595   -0.14884298     1.2151005e-05
   1524000   0.050114495   -0.25901979     0.035465694   -0.1483872      0.00043884751
   1525000   0.050141995   -0.25948673     0.035953283   -0.1483253      3.5452371e-07
   1526000   0.049899872   -0.25953861     0.035441653   -0.14925198     0.00085279211
   1527000   0.049859218   -0.25965262     0.035248842   -0.14961978     0.00050286717
   1528000   0.049393519   -0.25935411     0.035542635   -0.14972598     0.00073457508
   1529000   0.050107449   -0.2593056      0.035542958   -0.14860631    -0.00025457352
   1530000   0.049982139   -0.25946943     0.035948715   -0.14855235     0.00071834138
   1531000   0.050749876   -0.25986435     0.035533626   -0.14821082     0.00036586977
   1532000   0.049921975   -0.25953358     0.03544293    -0.14921252     0.0012985125 
   1533000   0.049793566   -0.25973776     0.035415914   -0.14963632     0.00072930142
   1534000   0.050359011   -0.25936662     0.036058189   -0.14777479     0.00018142084
   1535000   0.050441471   -0.25942827     0.034864691   -0.14890626     0.00052639034
   1536000   0.0498029     -0.25968252     0.035822664   -0.14916033     0.00029343201
   1537000   0.049903761   -0.25956244     0.03513619    -0.14957543     0.00071391901
   1538000   0.050083268   -0.25974495     0.035436609   -0.14918828     0.00046776003
   1539000   0.050563738   -0.25974086     0.035853529   -0.14804662    -0.00044478212
   1540000   0.049591835   -0.25998971     0.035057855   -0.15054891     0.00019314696
   1541000   0.049706591   -0.25958811     0.035211661   -0.14982137     0.00095830166
   1542000   0.050117595   -0.25982545     0.035274306   -0.1493796     -0.00039260941
   1543000   0.050273993   -0.25993503     0.035850046   -0.14867886     0.00029451384
   1544000   0.050147667   -0.25964029     0.034940767   -0.14948287     0.00046536183
   1545000   0.049415321   -0.26002307     0.034954612   -0.15095026     0.0002203596 
   1546000   0.049453584   -0.25977979     0.03560955    -0.14999465     0.0003081914 
   1547000   0.049926736   -0.25991719     0.034890592   -0.15014133     0.00044628229
   1548000   0.049650728   -0.26000454     0.034883905   -0.15064935     0.00020084171
   1549000   0.049548297   -0.26007789     0.035570865   -0.15018937     0.00012281844
   1550000   0.049948259   -0.25988602     0.035423012   -0.14954546     0.00033651528
   1551000   0.050273868   -0.26015361     0.034661068   -0.1500866      0.00021619804
   1552000   0.04958651    -0.25999954     0.035947301   -0.14967727    -1.5871569e-05
   1553000   0.050228871   -0.25999709     0.035183764   -0.14947488     0.00021433878
   1554000   0.049814334   -0.26030367     0.035961959   -0.14962503     0.00035120927
   1555000   0.049919378   -0.26048496     0.03530438    -0.15030634     0.0011007533 
   1556000   0.050545955   -0.26027051     0.035021416   -0.14943505     0.0005228037 
   1557000   0.050092265   -0.2601202      0.035252773   -0.14973388     0.00072372343
   1558000   0.050333277   -0.26035688     0.035248953   -0.14961288     0.00032697053
   1559000   0.050236693   -0.26020549     0.035923007   -0.14893231     0.00016391251
   1560000   0.049763115   -0.26033409     0.035523234   -0.150171       0.0012627845 
   1561000   0.050184804   -0.26062067     0.035621109   -0.14972722     0.00016224768
   1562000   0.049931751   -0.26032055     0.03527699    -0.15015077     0.0012059112 
   1563000   0.050196502   -0.26031657     0.035178085   -0.14984859     0.00086987167
   1564000   0.05000613    -0.26056309     0.035322224   -0.15023651    -3.8356761e-05
   1565000   0.049755129   -0.26024031     0.035009517   -0.15060291     0.00086557334
   1566000   0.050049246   -0.26090386     0.035310805   -0.15052403     2.3373627e-05
   1567000   0.049747267   -0.26094293     0.035537362   -0.15078948     0.00027606974
   1568000   0.049573988   -0.26071704     0.03493574    -0.15142511    -0.00036446587
   1569000   0.050084405   -0.26055259     0.035503153   -0.14992768     0.0010965063 
   1570000   0.049896249   -0.26075145     0.03487659    -0.15103531     0.00073434086
   1571000   0.050106471   -0.26104765     0.036099676   -0.14979312     0.00086858151
   1572000   0.049831471   -0.2606063      0.035867359   -0.14999656     0.00019723588
   1573000   0.050460013   -0.26096282     0.03552999    -0.1497477      0.0011542689 
   1574000   0.050399144   -0.26054912     0.035882683   -0.1490726      0.00053120802
   1575000   0.050414058   -0.26105184     0.035720181   -0.14971545     9.7287153e-05
   1576000   0.049983873   -0.26123498     0.035246048   -0.15101796     0.0013429339 
   1577000   0.049518965   -0.26113878     0.035492027   -0.1513731      0.00016998509
   1578000   0.049792414   -0.2610291      0.035145104   -0.1512002      0.00020775804
   1579000   0.050975995   -0.26158887     0.035080882   -0.15004893     0.0011022675 
   1580000   0.049535112   -0.26130996     0.035118864   -0.15189322    -0.00036926557
   1581000   0.049955352   -0.26096039     0.035838535   -0.15019366     0.00050065614
   1582000   0.049849332   -0.26118745     0.035122907   -0.15129537     0.0003777031 
   1583000   0.050393371   -0.26141018     0.035568022   -0.15025698     0.00038161015
   1584000   0.05038889    -0.26159831     0.034836682   -0.15118317     0.0006196612 
   1585000   0.050630936   -0.26157678     0.035305853   -0.15032943     0.00025491294
   1586000   0.049931618   -0.26146439     0.035466787   -0.15110501     0.00035177461
   1587000   0.050049524   -0.26124887     0.035193277   -0.15098615     0.00044797765
   1588000   0.050172034   -0.26164417     0.035339264   -0.15105171     4.6287964e-05
   1589000   0.049914646   -0.26159001     0.034886211   -0.15183666     0.00041637214
   1590000   0.050300448   -0.26147497     0.035265041   -0.15076413     0.00097438924
   1591000   0.050042066   -0.2617446      0.035283697   -0.15140264     0.0006631955 
   1592000   0.049727277   -0.26120783     0.035517493   -0.15110424     0.00048252133
   1593000   0.050014931   -0.26182024     0.034850565   -0.15195211     0.00058964174
   1594000   0.050122203   -0.26174857     0.035337862   -0.15123226    -0.00025748031
   1595000   0.049832876   -0.26151983     0.035628455   -0.15114688     6.9792356e-05
   1596000   0.050159278   -0.26183194     0.035215124   -0.15138275     0.00029259138
   1597000   0.050041811   -0.26171959     0.035435563   -0.15122615     0.00070178512
   1598000   0.050161367   -0.26157551     0.035231105   -0.1511072      0.0004233662 
   1599000   0.050163297   -0.26172447     0.03562584    -0.15085854    -0.00050515141
   1600000   0.049872112   -0.26223813     0.034946061   -0.15248872     0.00050276655
   1601000   0.049814215   -0.2615543      0.034888861   -0.15194894     0.001182957  
   1602000   0.050127283   -0.26195595     0.035429574   -0.1513403      0.00025020088
   1603000   0.049855362   -0.26162495     0.035038955   -0.15180778    -0.00012447266
   1604000   0.05057882    -0.26145598     0.035427398   -0.15016524     0.00074407597
   1605000   0.05021184    -0.26153118     0.035365943   -0.15085233     0.00061878838
   1606000   0.050096497   -0.26182314     0.035519551   -0.15116369     0.00074147581
   1607000   0.049803198   -0.26218121     0.035293833   -0.1521874      0.00025404879
   1608000   0.05020218    -0.26216801     0.035168645   -0.15170095     0.00013825986
   1609000   0.049523529   -0.2622546      0.035034839   -0.15293926     0.00086459266
   1610000   0.050061839   -0.26235917     0.035651199   -0.15162005     0.00097285083
   1611000   0.049842559   -0.26231316     0.035263178   -0.15229096     0.00055119351
   1612000   0.050061342   -0.26229365     0.035324361   -0.15188212     0.00047268529
   1613000   0.050406975   -0.26212874     0.035607897   -0.15091526    -0.0001069066 
   1614000   0.049830342   -0.26241208     0.035460506   -0.15221089     0.00044452305
   1615000   0.050401358   -0.26232552     0.034732372   -0.15199598     0.0012563805 
   1616000   0.05034837    -0.26223536     0.035192925   -0.15152475     0.0012175864 
   1617000   0.050176267   -0.2622998      0.035110766   -0.15192949     0.00089194491
   1618000   0.050061308   -0.26252902     0.035423388   -0.15201852     0.00044600883
   1619000   0.049979315   -0.26266035     0.035956435   -0.15173978     2.0169461e-05
   1620000   0.049918753   -0.26271953     0.035455436   -0.15239079     0.00048709725
   1621000   0.050072207   -0.26241941     0.034854322   -0.15246163     0.0012025092 
   1622000   0.050210757   -0.26232865     0.035167715   -0.15184966     0.00024338709
   1623000   0.049578092   -0.26246034     0.035247772   -0.15285023     0.00054485284
   1624000   0.049888729   -0.26277032     0.035218873   -0.15272318     0.00025421344
   1625000   0.049540309   -0.2625233      0.035323301   -0.15289433     0.00042259853
   1626000   0.049632078   -0.26251016     0.035044007   -0.15302284     0.00066588349
   1627000   0.049849738   -0.26280397     0.035078253   -0.15295594     0.00088009889
   1628000   0.050050403   -0.2624641      0.034776974   -0.15261637     0.00011370702
   1629000   0.049394567   -0.2627136      0.035542459   -0.15308408     0.00015592583
   1630000   0.050550551   -0.26326134     0.035700069   -0.15174034     0.0011515722 
   1631000   0.049589012   -0.26295968     0.035388088   -0.15319287     0.00026377611
   1632000   0.050006718   -0.2630084      0.0355214     -0.15248176     0.00039973226
   1633000   0.050234171   -0.26294526     0.035604978   -0.15199389     0.00053414815
   1634000   0.050224995   -0.26286589     0.035299576   -0.15223368     0.00099529169
   1635000   0.049664212   -0.26286823     0.03502004    -0.15335668    -0.00028109268
   1636000   0.049707016   -0.26267893     0.035679512   -0.15244371     0.0014567045 
   1637000   0.0505304     -0.26278139     0.035334655   -0.15165603    -0.00018123961
   1638000   0.050650561   -0.26308505     0.035565777   -0.15154833     0.00058360779
   1639000   0.050429547   -0.26288661     0.035896707   -0.15135046     0.00068773175
   1640000   0.049806956   -0.2633121      0.035231646   -0.15337484     1.6779461e-06
   1641000   0.049737011   -0.26289831     0.035058517   -0.15323909     0.00056097817
   1642000   0.049607991   -0.26333854     0.035041628   -0.15388973     0.00081409536
   1643000   0.049639713   -0.26365473     0.035330281   -0.15386968     0.00020669289
   1644000   0.04971351    -0.26320097     0.034965533   -0.15366999     0.0011531613 
   1645000   0.04967122    -0.26342816     0.035664956   -0.15326118     0.00061864745
   1646000   0.049758566   -0.26342107     0.035705779   -0.15308226     0.00054914049
   1647000   0.050394652   -0.26355382     0.03530679    -0.15265993     0.00015471021
   1648000   0.049845484   -0.26313068     0.035617629   -0.15274965     0.00048687195
   1649000   0.05040749    -0.26373221     0.035031096   -0.15309476     0.00040813897
   1650000   0.049874075   -0.26351146     0.035671338   -0.15303383     0.00019081825
   1651000   0.049867333   -0.2633738      0.035305914   -0.15327171     0.001191668  
   1652000   0.049917248   -0.26390135     0.035287931   -0.15374237     0.00085202597
   1653000   0.04989211    -0.26380052     0.035303903   -0.15366328     0.00031848567
   1654000   0.049850476   -0.26395259     0.035913255   -0.15326845     0.00071075376
   1655000   0.050621408   -0.26387597     0.035340313   -0.15260844     0.00018554184
   1656000   0.05034931    -0.2637677      0.035213936   -0.15303467     0.00028741107
   1657000   0.049689422   -0.26382299     0.034942899   -0.15435076     0.00067178484
   1658000   0.049975562   -0.26388045     0.035109056   -0.15381289     0.00022694072
   1659000   0.049902658   -0.26383901     0.035330288   -0.15365957     0.00071375613
   1660000   0.049758415   -0.26387444     0.035561416   -0.15368022     0.00056953992
   1661000   0.049639681   -0.26396513     0.035545965   -0.15396445     0.00056004233
   1662000   0.049769688   -0.26394344     0.035469382   -0.15382434     0.00047138059
   1663000   0.050393875   -0.26399008     0.034753185   -0.15365096     0.001104792  
   1664000   0.050551798   -0.26400234     0.035309103   -0.15287043    -0.00011268525
   1665000   0.0502965     -0.2638833      0.035256349   -0.15318707     0.0013321973 
   1666000   0.050240236   -0.2643065      0.035756002   -0.153195       6.1776662e-06
   1667000   0.050397581   -0.26446754     0.035371259   -0.15350479    -1.3593742e-05
   1668000   0.049831042   -0.26430746     0.035571133   -0.15399459     0.0003912533 
   1669000   0.050211262   -0.26388798     0.03632849    -0.15224746     0.00040975164
   1670000   0.050145298   -0.26410464     0.035195076   -0.15369647     0.001198544  
   1671000   0.04959145    -0.26423226     0.035527292   -0.15432259     0.00071340271
   1672000   0.050232668   -0.26465351     0.035475822   -0.15383355    -0.00030684981
   1673000   0.050440983   -0.26451081     0.035351341   -0.15350288     0.00089012624
   1674000   0.049924993   -0.26407575     0.035803331   -0.15338976    -0.00060548668
   1675000   0.050057232   -0.2642354      0.035859041   -0.15329535     5.236452e-05 
   1676000   0.050157098   -0.26444444     0.035085069   -0.15412857     0.00042010269
   1677000   0.049689115   -0.26438721     0.035504912   -0.15435343     0.00039149036
   1678000   0.050051252   -0.26425396     0.035088102   -0.15409382     0.00089437654
   1679000   0.049426624   -0.2646144      0.035154125   -0.15532512     0.00013306787
   1680000   0.049505651   -0.26435294     0.035222376   -0.15487688    -5.8118354e-05
   1681000   0.050178215   -0.26437588     0.035488898   -0.15362451     0.00019189311
   1682000   0.049235175   -0.26441557     0.035401468   -0.1551661     -0.00037532625
   1683000   0.049625178   -0.26414133     0.035338399   -0.15436997     0.00010211197
   1684000   0.050121678   -0.26435079     0.035331039   -0.15384209     7.5962783e-05
   1685000   0.050211891   -0.26479576     0.035463123   -0.15401966    -0.00097692018
   1686000   0.050396801   -0.26442547     0.035050387   -0.15378475     0.00059000948
   1687000   0.049789406   -0.26442145     0.035650872   -0.15409128     0.00066831851
   1688000   0.050024378   -0.26458115     0.035008829   -0.1545406      0.00065664661
   1689000   0.050261917   -0.26464891     0.035718849   -0.15354205     0.00070804492
   1690000   0.05022128    -0.26466753     0.035739367   -0.1536011      0.00015417441
   1691000   0.050248394   -0.26446478     0.03558791    -0.15350914     0.00051141656
   1692000   0.05048021    -0.26465569     0.035526138   -0.15341412     0.00079406756
   1693000   0.050171251   -0.26480489     0.035034577   -0.15451829     0.0006424161 
   1694000   0.049991942   -0.26503864     0.035936374   -0.15411919    -0.0003153713 
   1695000   0.049911199   -0.26488955     0.035914565   -0.15411301     0.00015590205
   1696000   0.050233891   -0.26513906     0.035266104   -0.15452698     0.00088931146
   1697000   0.050202439   -0.2648829      0.034975411   -0.15460869     0.00052878437
   1698000   0.049666295   -0.26513361     0.035636945   -0.15500203     0.00045205905
   1699000   0.050785028   -0.26509599     0.035374766   -0.1535486      0.0011700575 
   1700000   0.050106823   -0.26488488     0.035764254   -0.15396524     0.0010323924 
   1701000   0.049844305   -0.26497827     0.035258764   -0.15495787     0.00043624951
   1702000   0.049800484   -0.26531503     0.035106197   -0.15551292     2.8801097e-05
   1703000   0.0494517     -0.26515437     0.034800597   -0.15618101     0.00013390243
   1704000   0.049597158   -0.2652893      0.035475425   -0.15542294    -0.00013167558
   1705000   0.049810664   -0.2653488      0.035902029   -0.1547356     -0.00028120917
   1706000   0.049473187   -0.26533195     0.035553149   -0.15557381     0.00044558953
   1707000   0.049876116   -0.26596737     0.035056317   -0.1561017      0.00030872809
   1708000   0.04993583    -0.26544715     0.035211227   -0.15533701     0.0005968485 
   1709000   0.049977895   -0.26523794     0.035227493   -0.15504845     0.0012021596 
   1710000   0.050179524   -0.26535478     0.035481257   -0.15460909    -0.00019597711
   1711000   0.050365722   -0.26497955     0.035609083   -0.15382675     3.0798302e-05
   1712000   0.049824121   -0.26556632     0.035915041   -0.15491992     0.00017865715
   1713000   0.050268653   -0.26528003     0.035741211   -0.15414071     0.00063032874
   1714000   0.04984677    -0.26516944     0.035193051   -0.15521106     0.0003706938 
   1715000   0.049627501   -0.26552058     0.035369823   -0.15571431    -0.00083942499
   1716000   0.049940396   -0.26571705     0.035411674   -0.15539962     0.00048668092
   1717000   0.049966164   -0.26536155     0.035805478   -0.15461166     0.00062559109
   1718000   0.05006516    -0.26594006     0.035435642   -0.15541152     0.0010073521 
   1719000   0.049781186   -0.26557737     0.035501509   -0.1554089      0.00029354047
   1720000   0.050306117   -0.26553685     0.035622375   -0.15446017     0.00058745757
   1721000   0.050176213   -0.26604289     0.035010628   -0.15577279     0.0015291319 
   1722000   0.050036686   -0.26594106     0.035169206   -0.15572167     0.0015870063 
   1723000   0.050137088   -0.2661103      0.035153322   -0.15575619     0.00036335188
   1724000   0.049905172   -0.2657269      0.035735964   -0.155138       0.00023435611
   1725000   0.0496846     -0.26613171     0.035193634   -0.15641599     0.00052399465
   1726000   0.049530879   -0.26611826     0.035063634   -0.1567631      0.00044581579
   1727000   0.049197698   -0.26560001     0.035238467   -0.15656975     0.00046081083
   1728000   0.04897802    -0.26592686     0.034693419   -0.15777115     0.001244136  
   1729000   0.04956988    -0.2660828      0.035226974   -0.1565058     -0.00047876123
   1730000   0.049983541   -0.26570281     0.035050594   -0.15568175     0.0013732634 
   1731000   0.050057629   -0.26579065     0.03601765    -0.15469141    -0.0011216635 
   1732000   0.050212778   -0.26641011     0.035449233   -0.15564656     0.00064964653
   1733000   0.049781891   -0.26655716     0.035177712   -0.15671143    -0.00024406646
   1734000   0.04988324    -0.26632056     0.035521982   -0.15597854     0.00039856772
   1735000   0.049442406   -0.26622123     0.035731953   -0.15633045    -0.00036368563
   1736000   0.04993698    -0.26663823     0.035525134   -0.15621246     0.00046016074
   1737000   0.049999369   -0.26637757     0.035076518   -0.15630684     0.00044147462
   1738000   0.050605101   -0.26649408     0.035543596   -0.15504773     0.00022908386
   1739000   0.049963462   -0.26648745     0.035972737   -0.15557436    -0.00081382022
   1740000   0.04991815    -0.2663399      0.036054776   -0.15541273     0.00048231205
   1741000   0.050220509   -0.26657675     0.036198844   -0.155052      -0.00030426789
   1742000   0.050169015   -0.26667023     0.036004701   -0.15541686     3.2485206e-05
   1743000   0.049463142   -0.26661898     0.035459618   -0.15696944     0.00040941406
   1744000   0.049461928   -0.26626968     0.035650838   -0.15643074     0.00070157445
   1745000   0.049911139   -0.26635268     0.035044919   -0.15644588    -0.0003460297 
   1746000   0.049269524   -0.26690399     0.034915026   -0.15808945    -3.1714537e-05
   1747000   0.049973853   -0.26648357     0.034902471   -0.15662515     0.00091592739
   1748000   0.049724501   -0.2665538      0.035327514   -0.15664435     4.1833426e-05
   1749000   0.049721347   -0.26668759     0.035600468   -0.15650992     0.0004444304 
   1750000   0.050412061   -0.26683417     0.035404881   -0.15581608     0.00036310211
   1751000   0.050206529   -0.26692804     0.035524652   -0.15609845     0.00065778336
   1752000   0.049560167   -0.26666713     0.035760889   -0.15657078     7.0008712e-05
   1753000   0.04977883    -0.26707758     0.035449461   -0.15696469    -0.00081218336
   1754000   0.049458902   -0.26685002     0.034715277   -0.15795118     0.0010219216 
   1755000   0.049544669   -0.26715376     0.03593127    -0.15691029    -0.00052863118
   1756000   0.049751784   -0.26709195     0.035330567   -0.15713853     0.00076707745
   1757000   0.050210131   -0.26681125     0.035246955   -0.15625396     0.00038209092
   1758000   0.050243858   -0.26692289     0.035635573   -0.1559264      0.00036044569
   1759000   0.050734001   -0.26704178     0.035273518   -0.15567217     0.00039166574
   1760000   0.050157698   -0.26686128     0.035822644   -0.15580694     4.4747543e-05
   1761000   0.049675129   -0.26664887     0.035463255   -0.15667773     0.00041086459
   1762000   0.050210322   -0.26709997     0.03492448    -0.15686486    -0.00034788106
   1763000   0.049678038   -0.26678971     0.034609183   -0.15766828     0.00060307355
   1764000   0.049718729   -0.26688293     0.035432626   -0.15687702    -0.00037810243
   1765000   0.050326147   -0.26706042     0.035444477   -0.15613159     0.00090948955
   1766000   0.050350942   -0.26726639     0.035916661   -0.15582819     0.00024653382
   1767000   0.050513455   -0.26693687     0.035765341   -0.15540624     0.00097393546
   1768000   0.050155519   -0.26720773     0.035222425   -0.15675688     0.00095043143
   1769000   0.049938266   -0.26706273     0.035173897   -0.15698626     0.00081819854
   1770000   0.050605659   -0.2672232      0.035001048   -0.15631856     0.00035398625
   1771000   0.050398459   -0.26730541     0.035455008   -0.15625759    -0.00053879664
   1772000   0.050572931   -0.26755326     0.035073016   -0.15662574     0.00050697645
   1773000   0.050394416   -0.2672819      0.03587851    -0.15581665     0.00025434116
   1774000   0.050190035   -0.26715686     0.034806438   -0.15707023    -1.6019069e-05
   1775000   0.050022401   -0.26732272     0.034970836   -0.15732312     0.00098206674
   1776000   0.049985766   -0.26778478     0.035533685   -0.15727729     0.0004279544 
   1777000   0.049599876   -0.26758073     0.035440208   -0.1577455      0.00056132012
   1778000   0.049822396   -0.26767178     0.035824572   -0.15711844    -0.00065275326
   1779000   0.050535744   -0.26731342     0.035104046   -0.15641065     0.0006653995 
   1780000   0.050605922   -0.26791343     0.035653027   -0.15635642     0.00060918375
   1781000   0.050386473   -0.26777412     0.035723168   -0.15647612     0.0005205636 
   1782000   0.050465779   -0.26768364     0.035053425   -0.15693643     1.5523589e-05
   1783000   0.05000236    -0.26797873     0.035623023   -0.157357      -0.0001287087 
   1784000   0.05052544    -0.2679065      0.035196362   -0.15692687     6.9533175e-05
   1785000   0.050070797   -0.26777602     0.035897693   -0.15677697     0.00088010281
   1786000   0.049825348   -0.26820502     0.035797323   -0.1576745     -0.00033720817
   1787000   0.050228486   -0.26797711     0.035341312   -0.15729793     0.00025817211
   1788000   0.049884882   -0.26742905     0.035500821   -0.15710573     0.00063583746
   1789000   0.049461345   -0.26801706     0.035912941   -0.15791689    -0.00047848522
   1790000   0.050220735   -0.2677862      0.036082994   -0.15637696     0.00016342841
   1791000   0.050055626   -0.26778607     0.036000755   -0.15670672    -0.00028774448
   1792000   0.050027771   -0.26832448     0.035589765   -0.1576979      2.2344882e-05
   1793000   0.050472421   -0.26802664     0.035862457   -0.15646044    -0.0001719265 
   1794000   0.050426594   -0.26790729     0.035602406   -0.15666987     0.00043300045
   1795000   0.050422628   -0.26782961     0.035403199   -0.15679735     0.00053212882
   1796000   0.050295439   -0.26789365     0.035210079   -0.15724528    -5.3430345e-05
   1797000   0.049533996   -0.26793806     0.03531691    -0.15832495     0.00048089046
   1798000   0.050143805   -0.26771724     0.035356862   -0.15714953     0.00057386995
   1799000   0.050324116   -0.26813253     0.035793855   -0.15685737     0.00043368335
   1800000   0.049766451   -0.26819281     0.035579785   -0.15796817     4.2608365e-05
   1801000   0.050882906   -0.26822369     0.035541249   -0.15636301    -0.00046935141
   1802000   0.049879828   -0.26817635     0.035413876   -0.15794756     0.00057747071
   1803000   0.050033871   -0.26825981     0.035492579   -0.15772127     4.4098516e-05
   1804000   0.049878998   -0.26806215     0.03604372    -0.15720476     0.00018675111
   1805000   0.050566892   -0.26791376     0.03563886    -0.15642945    -0.00021826228
   1806000   0.050349541   -0.26843372     0.035802499   -0.15711178    -0.00059421419
   1807000   0.0503934     -0.26810361     0.035580575   -0.15693782     0.00079443248
   1808000   0.049865284   -0.26814668     0.035117643   -0.15823593     0.00023347788
   1809000   0.049776344   -0.26810453     0.035227578   -0.15821725     0.00031827023
   1810000   0.050339986   -0.26854677     0.035360643   -0.15768102     0.0004594346 
   1811000   0.049959969   -0.2683266      0.035496766   -0.15789472     0.00048259852
   1812000   0.050295577   -0.26837602     0.035653235   -0.15728429     0.00061981319
   1813000   0.050432919   -0.2686271      0.035636999   -0.1573456     -0.00031504235
   1814000   0.050459048   -0.26859845     0.035805216   -0.15710955     0.00023485217
   1815000   0.050354024   -0.26852938     0.035438044   -0.15756517     0.00055290234
   1816000   0.050616347   -0.26863748     0.035911982   -0.15680587     0.00055724582
   1817000   0.050148317   -0.26861955     0.0351677     -0.15823423     0.00056768072
   1818000   0.0501347     -0.268575       0.035737107   -0.15764069     0.00089793368
   1819000   0.04997235    -0.26875168     0.03531756    -0.15848043     0.00018324715
   1820000   0.05019747    -0.26912287     0.035529515   -0.15830201     0.0012949019 
   1821000   0.050227038   -0.26875978     0.035026876   -0.15839721     0.00050428164
   1822000   0.050145077   -0.26880305     0.035604785   -0.1579855      0.00068846731
   1823000   0.050041214   -0.2689841      0.035675587   -0.15825154     0.00035763173
   1824000   0.050497919   -0.26922491     0.035501271   -0.15798165     0.00026661784
   1825000   0.049852649   -0.26922041     0.035616553   -0.15882971     0.00057092969
   1826000   0.050418233   -0.26899289     0.035761719   -0.1576087      0.0010404588 
   1827000   0.050695224   -0.26922309     0.035589952   -0.15759521     0.000875764  
   1828000   0.050852949   -0.2692599      0.035932203   -0.15705319     0.00068804829
   1829000   0.050297522   -0.26913128     0.03623032    -0.15745954     0.00064562345
   1830000   0.050496846   -0.26909264     0.035089002   -0.15826326     0.00077804727
   1831000   0.049487368   -0.26947389     0.035992214   -0.15925542     0.00026660006
   1832000   0.049858734   -0.26983314     0.035251908   -0.15979796     0.00026826398
   1833000   0.049648538   -0.26954285     0.035107295   -0.15996756     0.00089591492
   1834000   0.04976063    -0.26918807     0.035085101   -0.15946684    -2.3986326e-06
   1835000   0.049683424   -0.26937149     0.035183254   -0.15966791     0.0011866801 
   1836000   0.050002728   -0.26921494     0.03542555    -0.15879013    -0.00011133438
   1837000   0.050296374   -0.26932563     0.035429951   -0.15845599     0.00079117961
   1838000   0.049557682   -0.26956305     0.035385671   -0.15984566     0.0013395389 
   1839000   0.049452005   -0.26981355     0.035729018   -0.15991131    -0.00040073631
   1840000   0.050001507   -0.27006577     0.035581964   -0.15948639    -0.00054017927
   1841000   0.050052816   -0.26977347     0.035531897   -0.15916719     0.00077141595
   1842000   0.050405488   -0.2700235      0.035662694   -0.15875745    -0.00019291266
   1843000   0.050228153   -0.26978191     0.035501044   -0.1589435      0.0010021436 
   1844000   0.049686855   -0.27049325     0.035214697   -0.16075308    -0.0009686266 
   1845000   0.049728955   -0.27003052     0.035232512   -0.16020939     0.00045767759
   1846000   0.049772192   -0.27014902     0.035149827   -0.16034572     5.4015751e-06
   1847000   0.049439533   -0.27005647     0.034980712   -0.16092124     0.00085232071
   1848000   0.050314754   -0.26995619     0.034909994   -0.15957893     8.5512899e-05
   1849000   0.049251482   -0.27044604     0.03554807    -0.16102551    -0.00017264239
   1850000   0.05014318    -0.27028972     0.035357779   -0.15972203    -0.0002231102 
   1851000   0.049988837   -0.2703946      0.035347014   -0.16006917     0.001144088  
   1852000   0.050136756   -0.27033742     0.035204102   -0.15993304     0.00043816402
   1853000   0.050207222   -0.27028434     0.03639139    -0.15858697     0.00017035171
   1854000   0.04989474    -0.27063561     0.03635885    -0.15943948    -0.00034055409
   1855000   0.050498319   -0.2706595      0.035088479   -0.15982843     0.00095443039
   1856000   0.050103257   -0.27081827     0.035994141   -0.15967409     0.0010409415 
   1857000   0.050210279   -0.27067444     0.035130705   -0.16023317     0.0010098255 
   1858000   0.050195454   -0.27083836     0.035458366   -0.16009167     0.00026284838
   1859000   0.050960809   -0.27086702     0.035872314   -0.15855842     0.00016787154
   1860000   0.05009036    -0.2705457      0.035605897   -0.15980911     0.00093869304
   1861000   0.050086635   -0.27078113     0.034912692   -0.16074334     0.00026425262
   1862000   0.049610747   -0.27068458     0.035092737   -0.16118053    -2.5604233e-05
   1863000   0.049541026   -0.27067546     0.035691353   -0.16067736    -0.00022110396
   1864000   0.049743911   -0.27084369     0.035432695   -0.16079995     0.00048177835
   1865000   0.050559375   -0.27088203     0.035022091   -0.16002577     0.0011114533 
   1866000   0.049972617   -0.27108044     0.035564299   -0.16056205     0.00014939742
   1867000   0.050423417   -0.27062288     0.035380812   -0.15961182     0.00068426978
   1868000   0.050292634   -0.2709283      0.035388123   -0.16010609     0.00060573309
   1869000   0.050050083   -0.27105031     0.03598834    -0.15999169    -0.00024955632
   1870000   0.050283435   -0.27120058     0.036215492   -0.1595648      0.00061764491
   1871000   0.049832023   -0.27146885     0.035707502   -0.16101813    -3.2237024e-05
   1872000   0.049908299   -0.27135046     0.035235844   -0.16125699     0.0014526831 
   1873000   0.050262743   -0.27120007     0.035261874   -0.16054894     0.0006217741 
   1874000   0.049964458   -0.27087221     0.034535012   -0.16139535     0.0011306315 
   1875000   0.049716513   -0.27103345     0.035311822   -0.16115167     2.0473524e-05
   1876000   0.049734825   -0.27131823     0.03575843    -0.16096238     0.0013944539 
   1877000   0.050354361   -0.27119022     0.036015478   -0.15964807     0.00017501272
   1878000   0.05026113    -0.27130567     0.036461134   -0.1594577     -0.00025775098
   1879000   0.049777152   -0.27098741     0.035052206   -0.16127429     0.00045548609
   1880000   0.049790494   -0.27125346     0.035449676   -0.16112286     8.4724802e-05
   1881000   0.04999889    -0.27116417     0.035448701   -0.16072197     0.00040082389
   1882000   0.049186373   -0.27159269     0.035718961   -0.16209893     0.0007466683 
   1883000   0.049689864   -0.27150357     0.035592745   -0.16138084     0.00050366525
   1884000   0.050043038   -0.27141567     0.035719489   -0.16063647     0.00017750004
   1885000   0.050245043   -0.27104034     0.035011437   -0.1606662      0.00020757251
   1886000   0.050057859   -0.27148688     0.035826991   -0.16057794    -0.00087960637
   1887000   0.050523742   -0.27144099     0.035643984   -0.16001628     0.0012084801 
   1888000   0.049676368   -0.27103922     0.035755329   -0.16077415     0.00054007497
   1889000   0.049958543   -0.27074979     0.035902574   -0.15991424    -0.00099358919
   1890000   0.050177096   -0.27126815     0.035270444   -0.16073692    -0.00020055434
   1891000   0.049779895   -0.271701       0.035712859   -0.16132312    -0.00045106412
   1892000   0.050297737   -0.27140868     0.035921911   -0.16004503    -0.00015794697
   1893000   0.050251365   -0.27162318     0.03562901    -0.16062198     0.0015177994 
   1894000   0.049567163   -0.27140617     0.035040977   -0.16201925     0.00032507735
   1895000   0.050787091   -0.27152542     0.035311277   -0.16003842     0.00083324351
   1896000   0.049988711   -0.27152126     0.036038377   -0.16050466     0.00021207366
   1897000   0.050722339   -0.27160133     0.035234623   -0.16028811     0.00047875939
   1898000   0.04991338    -0.27170728     0.035188985   -0.16165305     0.00083113588
   1899000   0.049563654   -0.27176546     0.035501832   -0.16192295    -0.00052045133
   1900000   0.050295626   -0.27163977     0.034605663   -0.16159554     0.00042852456
   1901000   0.049870857   -0.27195728     0.035346016   -0.1618098      0.00059498349
   1902000   0.049613078   -0.27154052     0.035646936   -0.16147877     0.0008816273 
   1903000   0.049651941   -0.27223446     0.035461033   -0.16230032    -5.9406422e-05
   1904000   0.050173292   -0.27185379     0.035532073   -0.16106663    -0.00086008845
   1905000   0.050054725   -0.27190825     0.035438707   -0.1613923      0.00025927149
   1906000   0.049983834   -0.27209404     0.03543626    -0.16168686    -0.00018645493
   1907000   0.050003859   -0.27195339     0.035497964   -0.16145447     0.00013362001
   1908000   0.049637136   -0.27215196     0.035969965   -0.1617311     -0.00063221833
   1909000   0.050207491   -0.27222395     0.035799519   -0.16111806     0.00029775645
   1910000   0.050401779   -0.27182805     0.035538777   -0.16069148    -0.00018409   
   1911000   0.049827807   -0.27189969     0.035074355   -0.16208844     0.0015232388 
   1912000   0.049910538   -0.27192718     0.035474982   -0.16159122     0.0006649836 
   1913000   0.049575345   -0.27185599     0.035571025   -0.16192674     0.00071425668
   1914000   0.049835557   -0.27214644     0.035486427   -0.1619115      0.000444558  
   1915000   0.049465221   -0.27174309     0.035419501   -0.16213054     0.00073708288
   1916000   0.05001832    -0.27197976     0.035161548   -0.16179557     0.00040884564
   1917000   0.050098225   -0.27228637     0.035497883   -0.161646       0.00035203478
   1918000   0.050197373   -0.27239395     0.035522848   -0.1615799     -5.3471834e-06
   1919000   0.049881017   -0.27203701     0.035638592   -0.16158172     0.00048638626
   1920000   0.050433604   -0.27217023     0.035278956   -0.16124575     0.00013551288
   1921000   0.050082892   -0.27212108     0.034776154   -0.16222544     0.00091249447
   1922000   0.049957284   -0.27213313     0.035975094   -0.16122695    -0.00037638886
   1923000   0.049677279   -0.27222449     0.035597789   -0.16211559     0.00059555755
   1924000   0.049935972   -0.27224263     0.034966749   -0.16237675     0.00019369015
   1925000   0.050163753   -0.27198456     0.035752318   -0.16099147     0.00076833466
   1926000   0.049654601   -0.27216142     0.035231322   -0.162453       6.1931933e-05
   1927000   0.049549315   -0.27241393     0.035208175   -0.16288658     0.00033820957
   1928000   0.04988227    -0.27195433     0.035122516   -0.16201323     0.00039881994
   1929000   0.049731986   -0.27181301     0.035202055   -0.16201779     0.0016419199 
   1930000   0.050127577   -0.27242642     0.035109723   -0.16213018     3.0146269e-05
   1931000   0.050245578   -0.27265031     0.035221166   -0.16206563     0.0004957336 
   1932000   0.049691992   -0.27210691     0.035272928   -0.1623008      0.00073905152
   1933000   0.049709652   -0.27230382     0.035976834   -0.16176732    -8.5533613e-05
   1934000   0.050159573   -0.27261343     0.035352826   -0.16202609     0.00044322586
   1935000   0.049723789   -0.27247147     0.035244479   -0.16264612     0.00060476659
   1936000   0.049544848   -0.27252893     0.035991487   -0.16222497     6.6553877e-05
   1937000   0.04988284    -0.27243548     0.035843584   -0.16177246     0.00024859736
   1938000   0.050532059   -0.27237529     0.035755251   -0.16082684     0.00063568194
   1939000   0.049989939   -0.27235734     0.035625515   -0.16175176     0.00094131215
   1940000   0.049803503   -0.27240097     0.035774663   -0.16192588    -0.00030315522
   1941000   0.04988509    -0.27240775     0.035551977   -0.16203296     0.0019748211 
   1942000   0.049983319   -0.27282587     0.035290193   -0.16256554    -0.0006414061 
   1943000   0.049996631   -0.27331251     0.035295493   -0.16302691     0.00063881549
   1944000   0.05037188    -0.27278199     0.03570544    -0.1615236      0.00031566159
   1945000   0.050116981   -0.27286067     0.035311995   -0.16237806    -0.00026004451
   1946000   0.049929788   -0.27295607     0.035420403   -0.16264582     0.00043155648
   1947000   0.049871691   -0.27284969     0.036030059   -0.16201692     0.0010941636 
   1948000   0.04949334    -0.27345054     0.035867376   -0.16334795     1.1402692e-05
   1949000   0.050410709   -0.27334041     0.035649759   -0.16207946     8.0662856e-05
   1950000   0.050146747   -0.27327318     0.03532225    -0.16273567     0.00060824763
   1951000   0.050031234   -0.27304187     0.035177661   -0.1628222      0.0013716568 
   1952000   0.050014759   -0.27335695     0.035738687   -0.16260096     0.00014720862
   1953000   0.050118346   -0.2731492      0.035393035   -0.1625835      0.00086809979
   1954000   0.05014801    -0.27318468     0.036269416   -0.1616981     -0.00060254206
   1955000   0.050488272   -0.2732551      0.035236763   -0.16229082     0.0015025353 
   1956000   0.04964119    -0.27365376     0.0351334     -0.16406338     5.4932581e-05
   1957000   0.04974235    -0.27355837     0.036051549   -0.16289811     0.00067193662
   1958000   0.050010292   -0.27357762     0.035929231   -0.16263779     0.00038476352
   1959000   0.050308789   -0.27368912     0.035234823   -0.16299598    -0.00042460711
   1960000   0.050856142   -0.27397039     0.036006025   -0.16168507     4.2328949e-05
   1961000   0.050401966   -0.27344807     0.035296045   -0.16255396     0.00074628621
   1962000   0.049744634   -0.27407871     0.036208002   -0.16325857    -9.5115422e-05
   1963000   0.049670272   -0.27332055     0.035957924   -0.16286202     0.001198956  
   1964000   0.049687623   -0.27350426     0.035580553   -0.16339709    -0.00027069827
   1965000   0.05008794    -0.27369027     0.035398739   -0.16316447     0.00094487214
   1966000   0.050398036   -0.27314812     0.035494772   -0.16206117     0.0011085424 
   1967000   0.049766357   -0.27358277     0.03546977    -0.16346828     0.00031880173
   1968000   0.050060928   -0.27384627     0.03578411    -0.16297561    -6.7650915e-06
   1969000   0.050107867   -0.27373391     0.035043054   -0.1635339      0.00034585505
   1970000   0.050208728   -0.27362537     0.03535363    -0.16296351     0.0010855119 
   1971000   0.049793881   -0.27345892     0.035488035   -0.16328489     0.00088678961
   1972000   0.049418721   -0.27392735     0.035523343   -0.16428071    -0.00016706771
   1973000   0.049616406   -0.27388706     0.035720149   -0.16374711     0.00044310154
   1974000   0.050417135   -0.27387409     0.035656935   -0.16259633     0.00026189109
   1975000   0.050051518   -0.27379444     0.035684382   -0.16303762     0.00010896899
   1976000   0.050174007   -0.27422645     0.03522819    -0.16374211     0.0012886781 
   1977000   0.050308405   -0.2741088      0.035621328   -0.16302973     0.00027625843
   1978000   0.049697437   -0.27389645     0.035524401   -0.1638307      0.0012210828 
   1979000   0.05032823    -0.27390646     0.035394804   -0.16302418     0.00013635995
   1980000   0.050333887   -0.27364556     0.035354091   -0.16279551    -0.00012975718
   1981000   0.050285723   -0.27383719     0.035530628   -0.16288284     0.00040340518
   1982000   0.049780502   -0.27372135     0.035547058   -0.16350835     0.00044902264
   1983000   0.050609759   -0.27373929     0.035306991   -0.16252256     0.00090712383
   1984000   0.05030869    -0.27385148     0.035574534   -0.16281878     0.00033297323
   1985000   0.050067536   -0.27383322     0.035069856   -0.16366691    -1.8743205e-05
   1986000   0.049742758   -0.27381102     0.035245204   -0.16395649     0.0014647165 
   1987000   0.049457268   -0.27425466     0.035483474   -0.16459007     0.00041427329
   1988000   0.049618444   -0.2742559      0.035098631   -0.1647344      0.00026364297
   1989000   0.04943135    -0.27399594     0.035197894   -0.1646558      0.00090726495
   1990000   0.04984826    -0.27416166     0.035172514   -0.16422158     0.00021327869
   1991000   0.049697907   -0.27409658     0.036061315   -0.16349322    -0.00017922807
   1992000   0.05050048    -0.27414944     0.035492196   -0.16291141    -0.00018954876
   1993000   0.049802498   -0.27465033     0.035793172   -0.16415823     4.0867037e-05
   1994000   0.04981249    -0.27432894     0.035392908   -0.16422212     1.9498096e-05
   1995000   0.050352169   -0.27421906     0.035172655   -0.16352302     0.00062849696
   1996000   0.050301607   -0.27425878     0.036156441   -0.1626548     -8.7975313e-06
   1997000   0.049688859   -0.27421756     0.035624535   -0.16406454     0.0003761204 
   1998000   0.049749824   -0.27464844     0.035650221   -0.1643783      0.00063396188
   1999000   0.049610847   -0.27432272     0.035511286   -0.16439997     0.0014099151 
   2000000   0.050040474   -0.27405914     0.035704717   -0.16329855    -0.00081858071
   2001000   0.050540462   -0.27438014     0.03568576    -0.16288858     0.00018002722
   2002000   0.049944075   -0.27437297     0.036000288   -0.16346141     0.0001568646 
   2003000   0.050486736   -0.27479701     0.035817219   -0.16325458    -8.3615601e-05
   2004000   0.050530753   -0.27455471     0.035242378   -0.1635211      0.00019190091
   2005000   0.04924013    -0.27510316     0.03554347    -0.16570426     0.00039107722
   2006000   0.04999917    -0.27518763     0.035537434   -0.16465628     0.00029670255
   2007000   0.050093591   -0.27465651     0.03555805    -0.16396292     0.00014334271
   2008000   0.050131593   -0.27516164     0.034706036   -0.16526306    -0.0002022621 
   2009000   0.049785002   -0.27448843     0.035040731   -0.16477502     0.00076024806
   2010000   0.049819636   -0.27471299     0.035476405   -0.16451196     0.00056111957
   2011000   0.050028527   -0.27470894     0.035603613   -0.16406738     0.00011281487
   2012000   0.05000407    -0.27470877     0.035400035   -0.16430747     0.0011031908 
   2013000   0.049828915   -0.27474581     0.035302423   -0.16470484    -0.00069674877
   2014000   0.049993736   -0.27481291     0.035569541   -0.16425761    -0.00022558958
   2015000   0.049904668   -0.27421477     0.035451515   -0.16391108     0.0012180232 
   2016000   0.050279726   -0.27443509     0.035256382   -0.16376399     7.9256747e-05
   2017000   0.050494296   -0.27462737     0.035393497   -0.16349731     0.00087020373
   2018000   0.049389288   -0.27457993     0.03553841    -0.16496237    -6.3785884e-05
   2019000   0.050022188   -0.27477856     0.035391435   -0.16435869     0.00012318883
   2020000   0.049554315   -0.27469954     0.035248452   -0.16512441     0.00060735953
   2021000   0.04961876    -0.27487888     0.034583977   -0.16587157     0.00051608029
   2022000   0.049412107   -0.27475147     0.034600881   -0.16603721     0.00093508801
   2023000   0.049952087   -0.2751266      0.035803324   -0.16439997     0.00037472454
   2024000   0.050008534   -0.2747327      0.035095811   -0.16462892     0.00051871831
   2025000   0.049976478   -0.27452133     0.03565369    -0.16390776     0.00057748341
   2026000   0.050086187   -0.27478335     0.035233891   -0.16442502     0.00013156245
   2027000   0.05004456    -0.27512613     0.035233916   -0.16483022     0.00028903007
   2028000   0.049940552   -0.27487511     0.034927534   -0.16504158     0.00056688693
   2029000   0.049751917   -0.27484009     0.0350018     -0.16521523    -0.00039082826
   2030000   0.04982626    -0.27504647     0.035264623   -0.16504728     0.00065114237
   2031000   0.049943328   -0.27536649     0.0355947     -0.16486163    -0.00032029483
   2032000   0.049849424   -0.27507102     0.035640815   -0.16466089     0.001288734  
   2033000   0.050551042   -0.27452457     0.035337861   -0.16336504     0.00010091865
   2034000   0.049403549   -0.27531262     0.035649608   -0.16556247     0.0006580486 
   2035000   0.049180319   -0.27502035     0.03510398    -0.16615066     0.00071097885
   2036000   0.049967672   -0.27534911     0.035514879   -0.16488756     0.00057139554
   2037000   0.050062964   -0.27560895     0.035544908   -0.16497444     0.00014732217
   2038000   0.050100391   -0.2754026      0.035587836   -0.16466903    -0.00076453182
   2039000   0.049877695   -0.27513418     0.035352451   -0.16497001     0.00040258501
   2040000   0.050530507   -0.27519379     0.035580211   -0.16382271     0.00089828367
   2041000   0.050023122   -0.27561758     0.035457822   -0.16512991     0.00027425244
   2042000   0.050377287   -0.27513032     0.034846855   -0.16472241     0.00099854123
   2043000   0.050467172   -0.27556213     0.03499464    -0.16487162    -9.8928237e-05
   2044000   0.050193021   -0.27522017     0.03542321    -0.16451229    -0.00046212326
   2045000   0.050546173   -0.27544228     0.035762382   -0.16386553     0.00042285319
   2046000   0.049995608   -0.27560804     0.035253017   -0.16536645     0.00012981282
   2047000   0.049969227   -0.27560018     0.034482316   -0.16616886     0.00084910236
   2048000   0.050100334   -0.27554651     0.035842521   -0.16455833    -0.00021521276
   2049000   0.050054682   -0.27550037     0.035104881   -0.16531831     0.00097998821
   2050000   0.049530628   -0.27568577     0.035570433   -0.16582418    -0.00085443   
   2051000   0.050497837   -0.2759275      0.035657023   -0.16452861     0.0014916511 
   2052000   0.049952804   -0.27556527     0.036060415   -0.16458049     0.00029930366
   2053000   0.050531839   -0.27560924     0.035458484   -0.16435788    -0.00013143953
   2054000   0.050142336   -0.27583318     0.035530074   -0.16509445     0.00043571344
   2055000   0.049601053   -0.27558131     0.03533473    -0.1658498      0.00046329082
   2056000   0.049806605   -0.2756192      0.035378701   -0.16553541     0.00038340108
   2057000   0.049966245   -0.27559391     0.035702211   -0.16494717     0.00029202531
   2058000   0.049978757   -0.27578176     0.035897605   -0.16492085     2.69347e-05  
   2059000   0.050214047   -0.27618325     0.034942718   -0.16592432     0.000624721  
   2060000   0.050463296   -0.27572769     0.035533366   -0.16450426    -0.00033072272
   2061000   0.050560414   -0.2760396      0.035208335   -0.16499553     0.00075824119
   2062000   0.049996661   -0.27579152     0.035845737   -0.16495563    -0.0007739576 
   2063000   0.050065517   -0.27593334     0.035221994   -0.16561792     0.00015660017
   2064000   0.050156654   -0.27579055     0.034849448   -0.16571098     0.00086156655
   2065000   0.049844757   -0.27598863     0.035051893   -0.16617443     0.00027216453
   2066000   0.049337116   -0.27593        0.035570523   -0.16635857     0.00011757154
   2067000   0.049811541   -0.27631791     0.035402437   -0.16620299     0.00059551192
   2068000   0.049659924   -0.27630298     0.035356909   -0.16646099     0.00015513031
   2069000   0.049796688   -0.27627196     0.03538599    -0.16619576     0.00018221814
   2070000   0.05054708    -0.27608491     0.034679417   -0.16558976     0.0013713717 
   2071000   0.050213561   -0.27586752     0.035005978   -0.16554606     0.00059066508
   2072000   0.050312504   -0.27606092     0.035603375   -0.16499365    -0.00022622411
   2073000   0.049997521   -0.27616169     0.035789009   -0.16538124     0.00038894281
   2074000   0.049999626   -0.27561184     0.035633488   -0.16498375     0.00027233709
   2075000   0.050483803   -0.27605681     0.035289714   -0.16504628     0.0011509605 
   2076000   0.049751861   -0.27610249     0.035442098   -0.16603742    -0.00016731177
   2077000   0.050086309   -0.2763344      0.035673282   -0.1655365      0.00047727439
   2078000   0.04993638    -0.27620264     0.036376438   -0.16492647     5.2226442e-05
   2079000   0.050452214   -0.27670385     0.035478203   -0.16555221     0.00082638387
   2080000   0.050019842   -0.2765918      0.035412749   -0.16615413     0.00051837533
   2081000   0.049594719   -0.27642382     0.035869941   -0.1661666      5.4071296e-05
   2082000   0.050297094   -0.27627575     0.035283613   -0.16555137     0.00092859956
   2083000   0.049658447   -0.27649442     0.036094837   -0.16591671     0.00042362521
   2084000   0.050932121   -0.27650969     0.035275292   -0.16484115    -0.00033864485
   2085000   0.049955966   -0.27654433     0.035035732   -0.16657949     0.00027431202
   2086000   0.049369655   -0.2763085      0.035618945   -0.16663985    -0.00011078095
   2087000   0.05021152    -0.27647008     0.035601095   -0.16555656     3.9582162e-06
   2088000   0.050444046   -0.27659078     0.03578907    -0.16514052     8.8534564e-05
   2089000   0.049742197   -0.2762666      0.035543656   -0.16611447     0.0007860291 
   2090000   0.049950346   -0.27670602     0.034936198   -0.16684913     0.0011556519 
   2091000   0.050089048   -0.27663942     0.034892759   -0.16661794     0.00028436542
   2092000   0.049842897   -0.27665056     0.035921366   -0.16596968    -0.00012607691
   2093000   0.049635875   -0.27670562     0.035308372   -0.16694824     0.00046416958
   2094000   0.049814872   -0.2765892      0.035529154   -0.16634256     0.00060648025
   2095000   0.050046264   -0.27664058     0.035824085   -0.16575195     0.00048794098
   2096000   0.049880394   -0.2765143      0.035389209   -0.16630933     0.00042620565
   2097000   0.049027867   -0.27698772     0.035401464   -0.1680492     -0.00048983106
   2098000   0.050200278   -0.27642243     0.035211273   -0.16591559     0.00084597884
   2099000   0.049878647   -0.27664302     0.035152367   -0.16667751     0.00099603225
   2100000   0.050230095   -0.27686846     0.03594403    -0.16558414     0.00017575111
   2101000   0.050110155   -0.27683085     0.035222804   -0.16644766     0.0011926064 
   2102000   0.049804053   -0.27670174     0.035375858   -0.16662463     0.001436071  
   2103000   0.05038423    -0.2765285      0.034548909   -0.16640812     0.00062028118
   2104000   0.049877689   -0.27641555     0.035553849   -0.16605        0.00015895463
   2105000   0.05031226    -0.27702436     0.035193252   -0.16636759     0.00022422653
   2106000   0.049426888   -0.27651296     0.035479576   -0.16689783     0.00086317604
   2107000   0.050178297   -0.27664378     0.03550285    -0.16587834     0.0007940875 
   2108000   0.049819823   -0.27688581     0.034956585   -0.16720431     0.0012177229 
   2109000   0.049534605   -0.27715053     0.035719475   -0.16713394    -0.00044013139
   2110000   0.049913664   -0.27739676     0.035237672   -0.16729342     0.00079627883
   2111000   0.049738313   -0.27700823     0.035186211   -0.16721937     5.1915635e-05
   2112000   0.049829308   -0.27673739     0.034516189   -0.16748206     0.00042639041
   2113000   0.050232865   -0.27689097     0.035128466   -0.16641807     0.00080954755
   2114000   0.049797685   -0.2768237      0.034885806   -0.16724618     0.00054180742
   2115000   0.050076825   -0.27699667     0.035485272   -0.16640101     0.00050981615
   2116000   0.050060171   -0.27702856     0.035584028   -0.16635912    -5.6385585e-06
   2117000   0.05016711    -0.2768675      0.035444525   -0.16617717     0.0015945855 
   2118000   0.050061795   -0.27697484     0.035013858   -0.16687314     6.6445595e-05
   2119000   0.050222278   -0.27721024     0.035042563   -0.16683912     9.087419e-05 
   2120000   0.050290719   -0.27755383     0.035652617   -0.16647       -2.7477736e-05
   2121000   0.049609429   -0.27749005     0.035456454   -0.16762426     0.00045836707
   2122000   0.049594153   -0.27733153     0.03571663    -0.16722847     0.00073490378
   2123000   0.050093597   -0.27728868     0.035335653   -0.16681748    -5.8293897e-05
   2124000   0.049993574   -0.27731971     0.035547937   -0.16678625     0.00062708989
   2125000   0.049804359   -0.27750717     0.035866513   -0.16693894    -0.00017678354
   2126000   0.049813617   -0.27747236     0.034897012   -0.16785974     0.00086230374
   2127000   0.049643316   -0.27733991     0.035786851   -0.16709289    -0.0010153405 
   2128000   0.049583382   -0.27798987     0.034851369   -0.16876823     0.00097477058
   2129000   0.050215329   -0.27767068     0.035444199   -0.16690834     4.4483625e-05
   2130000   0.04972581    -0.27780322     0.035880375   -0.16733895    -0.00032041373
   2131000   0.049863258   -0.27763253     0.035553935   -0.16728853     0.0012178161 
   2132000   0.050394667   -0.27787516     0.035584408   -0.16670363    -0.00031182169
   2133000   0.049286729   -0.27779672     0.035549157   -0.16832224     0.0001107796 
   2134000   0.050075388   -0.27804305     0.035839953   -0.16709486     0.00021737569
   2135000   0.049758778   -0.27759008     0.035604407   -0.16735232    -8.4029578e-05
   2136000   0.050453201   -0.27768799     0.03537193    -0.16664114     0.00050064885
   2137000   0.04993322    -0.27755824     0.035738022   -0.16692523     0.00059323448
   2138000   0.050070416   -0.27793918     0.035444107   -0.1673943     -0.0010185517 
   2139000   0.049643866   -0.27758138     0.035571062   -0.16754932     0.00055257993
   2140000   0.049636024   -0.27801163     0.035879354   -0.16768304     3.0466265e-05
   2141000   0.049569286   -0.27789217     0.035018991   -0.16852405     4.940262e-05 
   2142000   0.049621357   -0.27781208     0.035054516   -0.16833033     3.1679186e-05
   2143000   0.050311978   -0.27762853     0.035462554   -0.16670287    -7.7204886e-05
   2144000   0.049977174   -0.27780814     0.035075355   -0.16777187     0.00062185763
   2145000   0.050559598   -0.27792211     0.035455734   -0.16663188     0.00048890457
   2146000   0.049958476   -0.27775753     0.035891606   -0.16693305     0.0010753856 
   2147000   0.049942415   -0.27838656     0.035309007   -0.16816876    -0.00014306942
   2148000   0.049837187   -0.2778442      0.035463388   -0.16762985     0.00086667697
   2149000   0.049650671   -0.27757625     0.03555788    -0.16754717     2.3936153e-05
   2150000   0.050325608   -0.27843704     0.034874786   -0.16807871     0.00034856973
   2151000   0.049738582   -0.27817083     0.035880901   -0.16768687    -9.2434268e-07
   2152000   0.050207571   -0.27796288     0.035002082   -0.1676543      0.001978654  
   2153000   0.04995955    -0.27826184     0.035357526   -0.16796983    -0.00033184592
   2154000   0.049937059   -0.27800843     0.034883878   -0.16822379     0.0010251532 
   2155000   0.049412088   -0.27810907     0.03511839    -0.16887733     0.00053669304
   2156000   0.050037116   -0.27796527     0.035012531   -0.1679019      0.00058947734
   2157000   0.050204891   -0.27839922     0.035204597   -0.16789215     0.00085657064
   2158000   0.049682879   -0.27840662     0.035351205   -0.16853591     0.00038248189
   2159000   0.04971112    -0.27850594     0.035475022   -0.16846905     0.00028675653
   2160000   0.049603565   -0.27842955     0.035075221   -0.16895378    -0.00042530293
   2161000   0.049157248   -0.27835901     0.035026992   -0.1696009     -0.00018403048
   2162000   0.049410781   -0.2785597      0.035468235   -0.16898007     0.00041251943
   2163000   0.049713054   -0.27830759     0.034954424   -0.16878839    -0.00037337599
   2164000   0.050240353   -0.27845456     0.035102555   -0.16799634     2.4468325e-05
   2165000   0.050176995   -0.27841599     0.035456272   -0.16769908    -9.885277e-05 
   2166000   0.050331316   -0.27842305     0.036103126   -0.16682782     0.00018599202
   2167000   0.050379372   -0.27849639     0.035644741   -0.16728747     0.00013356676
   2168000   0.050414859   -0.27849552     0.035343853   -0.16753426     0.00046252538
   2169000   0.049751104   -0.27819095     0.035465628   -0.16810348     0.00071332856
   2170000   0.05025001    -0.27804142     0.035210134   -0.16746113     0.00020471526
   2171000   0.050540688   -0.27851206     0.035999415   -0.1667065     -0.00022166988
   2172000   0.049910543   -0.27871305     0.035137716   -0.16871435    -6.3094121e-05
   2173000   0.04975433    -0.27889482     0.034676525   -0.16959162     0.00060629371
   2174000   0.049522494   -0.27820407     0.035377529   -0.16854759    -0.00031999985
   2175000   0.049654558   -0.27846439     0.035392189   -0.16859517     0.00015472829
   2176000   0.050359665   -0.27830938     0.035267906   -0.16750685    -0.00023390032
   2177000   0.050084514   -0.27818742     0.035195476   -0.16787002     0.00058926856
   2178000   0.04926168    -0.27848537     0.035406594   -0.16919103    -0.00047920052
   2179000   0.049876515   -0.27869762     0.035578625   -0.16830905     0.00058634049
   2180000   0.05010034    -0.27832498     0.035975867   -0.16720345     0.00049447824
   2181000   0.050248469   -0.27887805     0.035307178   -0.16820304     0.00047765567
   2182000   0.050186375   -0.27907263     0.035599937   -0.16819799    -0.00014090546
   2183000   0.050490643   -0.27908163     0.035841964   -0.16750859    -0.0002017946 
   2184000   0.050198223   -0.27884169     0.035437511   -0.1681117      0.00067912816
   2185000   0.049870639   -0.27871696     0.035740899   -0.16817493     0.00038554811
   2186000   0.050307438   -0.27896335     0.03529339    -0.16821367     0.001010289  
   2187000   0.049724692   -0.27873523     0.035630317   -0.16852269     0.00043465558
   2188000   0.050332559   -0.27872325     0.035419795   -0.16780948     0.00045155766
   2189000   0.050299095   -0.27855838     0.035771462   -0.16734315     0.0006689914 
   2190000   0.049468792   -0.27882754     0.036065003   -0.16856413     0.00027160622
   2191000   0.050281364   -0.27898635     0.035812001   -0.16775717     0.00065934722
   2192000   0.04974524    -0.27901521     0.036057611   -0.16834455    -0.00012298793
   2193000   0.049803713   -0.27866185     0.035246545   -0.16871456     0.00016938034
   2194000   0.050010833   -0.27921097     0.035695713   -0.16850385    -0.00033014669
   2195000   0.050015528   -0.2788706      0.035756165   -0.16809598     0.00053316375
   2196000   0.049640767   -0.27922653     0.034942532   -0.16982766     0.00057345462
   2197000   0.050017867   -0.27882514     0.035661822   -0.16814136     0.00013368703
   2198000   0.049801137   -0.27902709     0.035112683   -0.16921752     0.0006209521 
   2199000   0.050107349   -0.27906189     0.035409027   -0.16849669    -0.00042609748
   2200000   0.050324367   -0.27890095     0.036268807   -0.16715047     0.00047750712
   2201000   0.049967955   -0.27898115     0.035072733   -0.16896132     0.00069346363
   2202000   0.050125209   -0.27898803     0.036024064   -0.167781       0.00023286627
   2203000   0.050389225   -0.27946886     0.035946498   -0.1679434      0.00021715623
   2204000   0.050103762   -0.27932549     0.035735668   -0.16843903     0.00011596181
   2205000   0.049844483   -0.27914942     0.035045333   -0.16934219     8.0609075e-05
   2206000   0.050283403   -0.27933119     0.035088454   -0.16882249     0.00030026482
   2207000   0.050007436   -0.2790105      0.035039571   -0.16896461     0.00049199107
   2208000   0.050118747   -0.27895114     0.035005183   -0.16877268     0.00014778256
   2209000   0.049302834   -0.27917882     0.035544934   -0.1696844      0.00084440287
   2210000   0.049752638   -0.27931571     0.035108333   -0.16958323     0.00013020878
   2211000   0.05014499    -0.27926984     0.035416148   -0.16864106     0.00043812067
   2212000   0.050013248   -0.27945798     0.035731838   -0.16871111    -0.00016649665
   2213000   0.050222536   -0.2792972      0.036019474   -0.16794878    -0.00016164245
   2214000   0.049940002   -0.2794598      0.03597677    -0.16857786    -9.3009567e-05
   2215000   0.050090603   -0.27964128     0.035286452   -0.16922377     0.0008840217 
   2216000   0.050548557   -0.27895338     0.035316133   -0.16781931     0.00067804993
   2217000   0.050132403   -0.27928137     0.035506266   -0.16858135     0.00070058111
   2218000   0.050235045   -0.27927714     0.03595658    -0.16797286     0.0013195059 
   2219000   0.049924749   -0.2795954      0.035707127   -0.16900598     3.5757434e-05
   2220000   0.049969029   -0.27944993     0.035515754   -0.16898546     0.00073495274
   2221000   0.049687642   -0.27961579     0.035576923   -0.16951221     0.00059829908
   2222000   0.049994549   -0.27952615     0.035255218   -0.16928395     0.00094770349
   2223000   0.049929936   -0.2798247      0.035004006   -0.16993062     5.8203037e-05
   2224000   0.050449895   -0.27984486     0.03517654    -0.16899836    -0.00091748878
   2225000   0.050199001   -0.27970246     0.035110543   -0.16929828     0.00059861594
   2226000   0.05017453    -0.27948275     0.035766711   -0.1684591      0.00055180927
   2227000   0.050452028   -0.27977935     0.035137248   -0.16896894     0.00053667466
   2228000   0.05004306    -0.27956468     0.03521728    -0.16928766     0.00032695933
   2229000   0.050057418   -0.27971351     0.035367418   -0.16926481     0.0011200839 
   2230000   0.049884175   -0.27987354     0.035166397   -0.16988571     0.00024172533
   2231000   0.050362583   -0.28016519     0.035511506   -0.16911468     0.00041023772
   2232000   0.050318116   -0.27980168     0.035433927   -0.16889545     0.00015904853
   2233000   0.050224409   -0.27972228     0.034901035   -0.16948949     0.00057093615
   2234000   0.050053586   -0.27990488     0.035147126   -0.16968222     0.00013119774
   2235000   0.050503807   -0.28013974     0.035097804   -0.16929111     0.00076767475
   2236000   0.050144725   -0.27993811     0.036164181   -0.16856169     0.00049681502
   2237000   0.050341291   -0.27980234     0.035189525   -0.16910575    -0.00070379259
   2238000   0.05031831    -0.2796801      0.035295227   -0.16891227     0.00053629504
   2239000   0.050377829   -0.27979125     0.034896466   -0.16933291     0.00034314541
   2240000   0.050288478   -0.27992648     0.035438791   -0.16905984    -0.00057726112
   2241000   0.04976044    -0.28007702     0.035298705   -0.17014248     0.00058080779
   2242000   0.049984418   -0.28032638     0.0357407     -0.16961389    -0.00039837112
   2243000   0.049939959   -0.27982312     0.035605627   -0.16931239     0.00033296597
   2244000   0.050334777   -0.2799788      0.035078664   -0.16940284     0.00022349951
   2245000   0.04973183    -0.28005674     0.035697387   -0.16976642     0.00037105323
   2246000   0.049705068   -0.28008554     0.035243715   -0.17028904     0.00015250442
   2247000   0.049964376   -0.28026488     0.035790807   -0.16953234     0.00024707264
   2248000   0.050048254   -0.2800875      0.035458557   -0.16956141    -0.00018598826
   2249000   0.050306161   -0.27995616     0.035745912   -0.16875588     0.00068808234
   2250000   0.049705968   -0.28003191     0.035588361   -0.1698894     -6.2905177e-05
   2251000   0.0507381     -0.28018954     0.034889243   -0.16919805     0.0014592997 
   2252000   0.050017484   -0.28008967     0.03601578    -0.1690525     -0.00012840723
   2253000   0.050439863   -0.28060554     0.035722247   -0.16922838     0.00043521523
   2254000   0.050148582   -0.28054549     0.035158321   -0.17016915     0.00045756615
   2255000   0.049787977   -0.2803616      0.035476297   -0.17020816     0.00094006028
   2256000   0.049670841   -0.28010356     0.036291668   -0.16931044     0.00077528345
   2257000   0.049888673   -0.28050162     0.035599094   -0.17007435     0.00035658198
   2258000   0.049858945   -0.28041835     0.035365865   -0.17026889     0.00041056612
   2259000   0.050280284   -0.28042887     0.035752528   -0.16926078     0.00027576585
   2260000   0.050126075   -0.28041947     0.035648687   -0.16958652    -0.00029802591
   2261000   0.050834775   -0.28041192     0.035862245   -0.16830243     0.00030776588
   2262000   0.050414128   -0.28039629     0.036086582   -0.1686934      0.00072312619
   2263000   0.050193891   -0.28044016     0.035275922   -0.16987826    -1.7056737e-05
   2264000   0.049831382   -0.28017214     0.035553541   -0.16987635     0.00022035896
   2265000   0.049999443   -0.28075292     0.035589709   -0.17016888     0.00048062623
   2266000   0.050184432   -0.28065596     0.035793358   -0.16959081     9.0170663e-05
   2267000   0.049735009   -0.28066602     0.036350959   -0.16971736    -0.0002964104 
   2268000   0.050291272   -0.28080012     0.035713381   -0.1696547     -0.00038152814
   2269000   0.050253732   -0.28051155     0.035596422   -0.16953939    -3.2684978e-05
   2270000   0.050279455   -0.28041589     0.03446855    -0.17053302     0.001201923  
   2271000   0.049602208   -0.28051881     0.035725513   -0.17039479     0.00063782814
   2272000   0.049978906   -0.28053909     0.035891891   -0.16968367     0.00049225605
   2273000   0.050450133   -0.28095692     0.035800859   -0.16948575     0.00060140446
   2274000   0.050211368   -0.28079511     0.035615274   -0.16986764     7.7993123e-06
   2275000   0.049742219   -0.2807971      0.035105443   -0.17108314     0.0010117469 
   2276000   0.049532961   -0.2803613      0.035320659   -0.17074599     0.00024736045
   2277000   0.050253183   -0.28063096     0.035040634   -0.17021541     0.0013725666 
   2278000   0.050502046   -0.2808265      0.035191895   -0.16988642    -7.4521569e-05
   2279000   0.049623209   -0.2808794      0.035169462   -0.17127993     0.00018910289
   2280000   0.049568013   -0.28107612     0.035130476   -0.17159842    -0.00020644545
   2281000   0.049639755   -0.28094992     0.035329363   -0.17116573     0.00035536902
   2282000   0.049741771   -0.28071082     0.034684522   -0.17141846     0.00044249451
   2283000   0.049722763   -0.28058357     0.034819237   -0.171185       0.0012080476 
   2284000   0.050268177   -0.28093862     0.036053088   -0.16948813    -0.00038814255
   2285000   0.049971127   -0.2809562      0.035752654   -0.17025169     0.00098851838
   2286000   0.04936008    -0.28117082     0.035903285   -0.17123219     0.00010553493
   2287000   0.050429668   -0.2812709      0.035945566   -0.16968571     0.00099858266
   2288000   0.049847554   -0.28071192     0.035469161   -0.17047626     0.00068655433
   2289000   0.049751138   -0.28068851     0.035501031   -0.17056559    -0.00033471504
   2290000   0.049427348   -0.28133667     0.035616429   -0.17158401     0.00042838415
   2291000   0.049718159   -0.28098593     0.035313832   -0.17109967    -6.2140545e-05
   2292000   0.05000315    -0.28089491     0.035767941   -0.17012708     0.00023170206
   2293000   0.050272785   -0.28072271     0.035841536   -0.16947686    -0.00031003473
   2294000   0.050121626   -0.28096342     0.035760642   -0.17002519     0.00036858728
   2295000   0.050361332   -0.2809415      0.035040472   -0.1703639      0.0019423123 
   2296000   0.050063528   -0.28089881     0.035415015   -0.17039335     0.00063128542
   2297000   0.050071974   -0.28099941     0.035947454   -0.16994884     0.00028413039
   2298000   0.049835245   -0.28075609     0.035439374   -0.17056867     0.00041473506
   2299000   0.05024851    -0.28124399     0.03544936    -0.17042673     0.001116141  
   2300000   0.050489491   -0.28102316     0.034878258   -0.17041556     0.00061795576
   2301000   0.050047572   -0.28127143     0.035666277   -0.17053864     0.00012325816
   2302000   0.050076862   -0.28081467     0.035816998   -0.16988723    -0.00047336015
   2303000   0.050041092   -0.28084        0.034878786   -0.17090442     0.00088874449
   2304000   0.050136364   -0.28150594     0.036162224   -0.17014402    -0.00045569422
   2305000   0.05049338    -0.28134638     0.035447208   -0.17016399     0.00034991125
   2306000   0.049860208   -0.28118005     0.035866643   -0.17052792     0.00066920549
   2307000   0.049768403   -0.28093094     0.035098203   -0.17118495     0.00013807413
   2308000   0.050037492   -0.28125813     0.035356375   -0.17085036     0.00032771449
   2309000   0.050128369   -0.28100888     0.035345968   -0.17047521     0.00043923357
   2310000   0.049942924   -0.28119598     0.035546165   -0.17074027    -0.00043971838
   2311000   0.049642283   -0.28165614     0.035761819   -0.17143571    -0.0010289853 
   2312000   0.049949886   -0.28153        0.035406675   -0.17120333     0.00054485065
   2313000   0.050113333   -0.28141028     0.035635711   -0.17060942     8.8001369e-05
   2314000   0.04977956    -0.28112731     0.035451028   -0.17101176     0.00089798212
   2315000   0.050183575   -0.28141269     0.035422908   -0.17071927     0.00074402922
   2316000   0.05081851    -0.28154514     0.034893936   -0.17042836    -0.00040461092
   2317000   0.050080051   -0.28153306     0.034781568   -0.17163626    -0.0003656333 
   2318000   0.049817091   -0.28165324     0.034757199   -0.17217523    -0.00014967539
   2319000   0.049680547   -0.28158602     0.035372365   -0.17169764     0.00029200048
   2320000   0.04959071    -0.28143721     0.035272395   -0.17178354    -0.00081107324
   2321000   0.050875606   -0.2815521      0.034785031   -0.17045858     0.00070273763
   2322000   0.050231909   -0.28175542     0.035998206   -0.17041421    -4.5028908e-05
   2323000   0.049855544   -0.28155069     0.036085693   -0.1706865      0.00045831434
   2324000   0.050389675   -0.2819219      0.035285298   -0.17105696     0.00036715574
   2325000   0.050288015   -0.28225419     0.035747608   -0.17107943    -0.00021404444
   2326000   0.049930367   -0.28194781     0.035801921   -0.17125517     0.00010776404
   2327000   0.050596334   -0.28196453     0.035147038   -0.17092788     0.00022926085
   2328000   0.050117951   -0.2819901      0.035982403   -0.17083562    -0.0008275324 
   2329000   0.050514282   -0.28197844     0.036262334   -0.16994957    -0.00091133461
   2330000   0.049796618   -0.2820589      0.036026217   -0.17134258     1.5613738e-05
   2331000   0.050234321   -0.28206609     0.035348029   -0.17137144     0.00039172788
   2332000   0.050106828   -0.28189569     0.035640119   -0.17110018    -0.00013488399
   2333000   0.049981942   -0.28221274     0.036113135   -0.17113153    -0.00085275304
   2334000   0.049908756   -0.28192452     0.03587929    -0.17118692    -3.4312644e-05
   2335000   0.04936195    -0.2823429      0.035764603   -0.17254015    -4.266409e-05 
   2336000   0.049794106   -0.28211049     0.035719059   -0.17170509    -0.00016053829
   2337000   0.050019062   -0.28198379     0.035836803   -0.17112323     0.00082650553
   2338000   0.049920984   -0.28191058     0.035176878   -0.17185705     0.00054993619
   2339000   0.050352274   -0.28235388     0.0351191     -0.17171124     0.00013816432
   2340000   0.05012223    -0.2820237      0.035771484   -0.17107372    -0.0004907965 
   2341000   0.050040741   -0.28200204     0.035192948   -0.17175282     7.0055031e-05
   2342000   0.049800598   -0.28260873     0.035387291   -0.17252536     0.00067684907
   2343000   0.049632965   -0.28233071     0.034610007   -0.17327606     0.00067609564
   2344000   0.049759848   -0.28206531     0.034773181   -0.17265717     0.00017800367
   2345000   0.049785346   -0.28224032     0.03617543    -0.17139169    -0.00022979808
   2346000   0.04998222    -0.28233841     0.03547823    -0.17189169     0.0012677319 
   2347000   0.050015032   -0.28231188     0.035500341   -0.17179384     0.0010360991 
   2348000   0.049553452   -0.28253839     0.035130144   -0.17308286    -0.00063289317
   2349000   0.050279646   -0.28270258     0.035167859   -0.17212011     0.00087308369
   2350000   0.050501725   -0.28223972     0.035700106   -0.17079192     5.6428974e-05
   2351000   0.050123501   -0.28232988     0.035223436   -0.17192604     0.00060770336
   2352000   0.050002581   -0.28209839     0.035450422   -0.17164893    -3.8282901e-05
   2353000   0.05022902    -0.2824984      0.035581014   -0.17157872     0.0003123625 
   2354000   0.050350378   -0.28238115     0.035196128   -0.17166433     0.0007435847 
   2355000   0.050025841   -0.28260978     0.035417044   -0.17215881    -0.00012809148
   2356000   0.050139119   -0.28273166     0.035670275   -0.17185756    -0.00039287157
   2357000   0.050025389   -0.28262048     0.035580665   -0.17200657     0.00026966986
   2358000   0.049668803   -0.28238696     0.035405342   -0.17248322     0.0012377791 
   2359000   0.049679456   -0.2826978      0.035603802   -0.17257962    -0.00073078025
   2360000   0.049998998   -0.28205988     0.035860091   -0.17120613     6.5672987e-05
   2361000   0.049674677   -0.28216801     0.035423612   -0.17223719     0.00051981333
   2362000   0.049925469   -0.28255887     0.035297265   -0.17237823     0.0010532727 
   2363000   0.050429839   -0.28269745     0.035379246   -0.17167833     1.5828146e-05
   2364000   0.050139854   -0.28254217     0.035572719   -0.17176452    -0.00026834933
   2365000   0.04961311    -0.28253019     0.035710706   -0.17240463    -0.00029790504
   2366000   0.050146372   -0.28242182     0.034703704   -0.17250341     0.00044804413
   2367000   0.049771526   -0.28224421     0.035385024   -0.17220671     0.00019378632
   2368000   0.050013649   -0.28225739     0.035689603   -0.17155216     0.00062475337
   2369000   0.049789174   -0.28259847     0.035499713   -0.17241982     6.9073879e-05
   2370000   0.049969791   -0.28236647     0.035642245   -0.17177438     0.0010916168 
   2371000   0.050007495   -0.28275568     0.035646942   -0.17210233    -0.00012314804
   2372000   0.050516138   -0.28288992     0.036117683   -0.17100292     0.0008893721 
   2373000   0.050279232   -0.28326968     0.035602257   -0.17225345    -0.00014989859
   2374000   0.049909638   -0.28339048     0.035991189   -0.17253967    -0.00078174307
   2375000   0.050332795   -0.28286809     0.035731966   -0.1716418      0.00024910034
   2376000   0.049586283   -0.28303963     0.035724809   -0.17294019    -0.00015759962
   2377000   0.049595623   -0.28302128     0.035252974   -0.17337967     0.00028626621
   2378000   0.049768498   -0.28291308     0.035544378   -0.17272077     0.00017919711
   2379000   0.04977523    -0.28298972     0.035215591   -0.17311611    -1.767848e-05 
   2380000   0.049819468   -0.28299469     0.034987345   -0.17328296     7.158859e-05 
   2381000   0.050127007   -0.28279357     0.035467221   -0.17214069     0.00058511573
   2382000   0.049941856   -0.28319983     0.03602596    -0.17226592     0.00012302892
   2383000   0.049788458   -0.28310822     0.035681919   -0.17274843    -0.00019027988
   2384000   0.04997931    -0.28310876     0.036037933   -0.1721067     -0.00051199594
   2385000   0.049825288   -0.28314644     0.03562411    -0.17278922     0.00018167212
   2386000   0.050031658   -0.28329259     0.035214251   -0.17303569     0.00045582838
   2387000   0.049776377   -0.28324767     0.035812225   -0.17277569    -9.8612134e-05
   2388000   0.049566526   -0.2829956      0.03549017    -0.17316043     0.00068090825
   2389000   0.049671634   -0.2827724      0.035412964   -0.17285679     0.00059256473
   2390000   0.050141631   -0.28320901     0.035582253   -0.17241917     0.00014844098
   2391000   0.050149097   -0.28305272     0.035558302   -0.17227562     0.0010315616 
   2392000   0.049314818   -0.28343762     0.035974204   -0.17349597     0.00042011653
   2393000   0.050265844   -0.28335713     0.03549581    -0.17246742    -0.00053811776
   2394000   0.050120307   -0.28347381     0.034922843   -0.17337535     0.0012870314 
   2395000   0.049845346   -0.28349378     0.035709945   -0.17302064     0.00074473604
   2396000   0.049589615   -0.28349296     0.035557049   -0.17355629     0.00042031998
   2397000   0.049860013   -0.28374124     0.035006774   -0.17394927     0.00042019576
   2398000   0.049525073   -0.28349516     0.034971801   -0.17424054    -0.0001926562 
   2399000   0.050076426   -0.28357629     0.034740223   -0.17372627    -0.00023879496
   2400000   0.049963401   -0.28380552     0.035436607   -0.17342865     7.1733803e-05
   2401000   0.049769669   -0.28339088     0.035700818   -0.17304037     0.0004154428 
   2402000   0.049655645   -0.28336258     0.035453728   -0.17343019    -0.00012479919
   2403000   0.050081963   -0.28331228     0.034949006   -0.17324518     0.00019738318
   2404000   0.050004995   -0.28356894     0.035344945   -0.17322135     0.00085422018
   2405000   0.050659529   -0.28341462     0.035263776   -0.17216645     0.00093657992
   2406000   0.050320041   -0.28327648     0.035564589   -0.1722367      0.00030732509
   2407000   0.050156301   -0.2829473      0.035823141   -0.17189456     0.00045443967
   2408000   0.050247406   -0.28319674     0.03570238    -0.17212811    -0.00056776015
   2409000   0.04952176    -0.28353035     0.035687051   -0.17356545    -0.00015377785
   2410000   0.049932416   -0.28364377     0.036241416   -0.17250857     0.00015079386
   2411000   0.050535739   -0.28335118     0.035743703   -0.17180876    -0.00047896088
   2412000   0.049913363   -0.28316886     0.035428789   -0.17287486     0.00072827825
   2413000   0.050016668   -0.28354781     0.035343177   -0.17318447     0.00018707497
   2414000   0.049725109   -0.28329925     0.034871064   -0.17384533     0.0001138145 
   2415000   0.049610146   -0.28364506     0.035035761   -0.17419888     0.00039655589
   2416000   0.049887509   -0.28365187     0.035019669   -0.17380577    -6.5850977e-05
   2417000   0.04930331    -0.28348744     0.034865162   -0.17467209     4.1628163e-05
   2418000   0.049657983   -0.28392819     0.035725285   -0.17372073     6.0102392e-05
   2419000   0.05016614    -0.28370382     0.035420219   -0.17303924     0.00011825906
   2420000   0.049992202   -0.28364462     0.03569574    -0.17296541     0.00090056453
   2421000   0.049780767   -0.28379128     0.035116707   -0.17400824     0.0007911876 
   2422000   0.049395264   -0.28349077     0.035470989   -0.17393166    -2.8224291e-05
   2423000   0.049720652   -0.28353983     0.03518362    -0.17378004     0.0014610291 
   2424000   0.049326748   -0.28365881     0.035304913   -0.17436854     0.00059916507
   2425000   0.049675954   -0.28392613     0.03527521    -0.1741418     -0.00051005683
   2426000   0.049821382   -0.28380591     0.035682107   -0.17339655    -0.00065709596
   2427000   0.049797993   -0.28416409     0.035592384   -0.17387954    -0.00018568792
   2428000   0.049907047   -0.28382029     0.035963846   -0.1730007      0.0013399509 
   2429000   0.050631819   -0.28390349     0.035687614   -0.17227305     0.00030743871
   2430000   0.050400345   -0.28395306     0.035487507   -0.17286992     0.00026998642
   2431000   0.049897907   -0.28415295     0.035671107   -0.17363981     0.00010800547
   2432000   0.050196537   -0.28392668     0.036084546   -0.17255218     1.7476345e-05
   2433000   0.049785365   -0.28412363     0.035296552   -0.17415384     0.00085173863
   2434000   0.049618014   -0.28350837     0.035648595   -0.17343756     0.00062381334
   2435000   0.049738566   -0.2836855      0.035927913   -0.17315455     0.0001891732 
   2436000   0.05014646    -0.28424965     0.034978358   -0.17405645     0.00013335881
   2437000   0.049893311   -0.28454188     0.035475719   -0.17423103     0.00060312082
   2438000   0.049865627   -0.28423707     0.035549502   -0.17389395    -0.00028085728
   2439000   0.050108992   -0.28412701     0.035684979   -0.17328339     0.00090011752
   2440000   0.050290739   -0.28409428     0.035722164   -0.17294088     0.00024750983
   2441000   0.049816082   -0.28452302     0.035458819   -0.1743449      0.00016787736
   2442000   0.050172639   -0.28414968     0.035079615   -0.17381596    -0.00032238095
   2443000   0.049524879   -0.28402477     0.035590335   -0.17415191    -0.00016841763
   2444000   0.050419166   -0.28392466     0.035387231   -0.17291357     0.0014570632 
   2445000   0.050379163   -0.28419514     0.0357832     -0.17284807    -0.0002141752 
   2446000   0.050393311   -0.2845926      0.035354582   -0.17365293     0.0010148256 
   2447000   0.050225572   -0.28442567     0.036479652   -0.17261252    -0.0011208224 
   2448000   0.049719245   -0.28454972     0.035924405   -0.17405125     0.00014367721
   2449000   0.049550701   -0.28459555     0.035536408   -0.17473789    -0.00016629339
   2450000   0.050307341   -0.28445603     0.035785402   -0.17321449    -0.00016043082
   2451000   0.050139577   -0.28415274     0.036006425   -0.1729418     -0.00073013135
   2452000   0.050315732   -0.2845788      0.035635237   -0.17347484     0.00040324299
   2453000   0.050002624   -0.28439666     0.035387026   -0.17401054    -0.00050932036
   2454000   0.049920034   -0.28427328     0.03550916    -0.1738889      0.00076024938
   2455000   0.050247328   -0.28441292     0.036013356   -0.17303344     0.00058325286
   2456000   0.05020056    -0.28435589     0.035714183   -0.17334573     0.00099892021
   2457000   0.050047949   -0.28473216     0.035861097   -0.17380398     0.00018451743
   2458000   0.049992164   -0.28441762     0.035438214   -0.173996       0.00051056583
   2459000   0.050202116   -0.28486717     0.035544982   -0.17402387    -0.00040651552
   2460000   0.050135341   -0.28456676     0.035853016   -0.17351558    -0.00039731987
   2461000   0.050040894   -0.28407339     0.035475813   -0.17354107    -0.00020321296
   2462000   0.050436482   -0.28386386     0.035625915   -0.17258811     0.0011424639 
   2463000   0.05036669    -0.28462882     0.035868306   -0.17321535    -0.00039927354
   2464000   0.05063934    -0.28456491     0.035464202   -0.1731466     -0.00018398276
   2465000   0.050330923   -0.28470873     0.035230037   -0.17398718     0.00061760075
   2466000   0.050170909   -0.28465066     0.035992156   -0.17340699     2.6504089e-05
   2467000   0.049765022   -0.28497865     0.035865685   -0.17447025    -0.00035608187
   2468000   0.049959866   -0.28473389     0.035883458   -0.17391547    -0.00033733654
   2469000   0.05048149    -0.28490105     0.035710621   -0.17347308     0.00053014308
   2470000   0.050030054   -0.28490633     0.036138971   -0.17372712    -0.00078806083
   2471000   0.049669676   -0.2852887      0.035626573   -0.17516242     0.0007169523 
   2472000   0.049853614   -0.28492778     0.035122355   -0.17502983     0.00029944385
   2473000   0.049585627   -0.28464572     0.035284919   -0.17498715    -0.00022074062
   2474000   0.050070634   -0.28520324     0.035528143   -0.17457399     0.00032749549
   2475000   0.049479151   -0.28491222     0.035152577   -0.1755457      2.1509334e-05
   2476000   0.050328432   -0.28476446     0.035149849   -0.17412683     0.00083017869
   2477000   0.050672128   -0.28477306     0.03561949    -0.17315028     0.0012234991 
   2478000   0.050053749   -0.28466485     0.036063646   -0.17352542     0.00050365787
   2479000   0.04989367    -0.2851073      0.035669324   -0.1746023      0.00020940197
   2480000   0.049790845   -0.28489102     0.036099868   -0.17410971    -0.00020727737
   2481000   0.049964692   -0.28460954     0.035705692   -0.17396164     0.00043259044
   2482000   0.05042074    -0.28472076     0.035333159   -0.17376137     0.0008792287 
   2483000   0.050205497   -0.28444742     0.035693096   -0.17345094     0.00089621936
   2484000   0.05017127    -0.28475138     0.03594355    -0.17355577     0.00093998202
   2485000   0.050141459   -0.28501206     0.035911637   -0.17389309    -0.00056600289
   2486000   0.050253603   -0.28504516     0.03513259    -0.17453702     0.00033641758
   2487000   0.050161189   -0.28491177     0.035480668   -0.17419417     0.00024498916
   2488000   0.050126134   -0.28500727     0.035402817   -0.17442011     0.00042688389
   2489000   0.049475225   -0.28489624     0.035800198   -0.17488799    -0.00017132776
   2490000   0.050084055   -0.28517348     0.03579681    -0.17425543     0.0011518061 
   2491000   0.049987297   -0.28501523     0.035519821   -0.1745193      0.00096871109
   2492000   0.050476297   -0.28504638     0.035936809   -0.17340001     0.00083776324
   2493000   0.050155684   -0.28500042     0.035879288   -0.17389246    -0.0001104538 
   2494000   0.050636191   -0.28469655     0.035607057   -0.17314011     0.00030876329
   2495000   0.050260971   -0.28496292     0.035430207   -0.17414612    -0.00033829538
   2496000   0.050117453   -0.28517368     0.036244889   -0.17375747     0.00060865062
   2497000   0.050274084   -0.28490972     0.035727928   -0.17377553     0.0001853878 
   2498000   0.050233829   -0.28530201     0.035875581   -0.17408055     0.00083799526
   2499000   0.049907175   -0.28505108     0.035295191   -0.17489996     9.3137882e-05
   2500000   0.049498736   -0.28510354     0.035084982   -0.17577525     0.00090295467
   2501000   0.049793322   -0.28523655     0.035635325   -0.17491606    -3.8045441e-06
   2502000   0.049715413   -0.28527437     0.035520498   -0.17518557     0.00011770944
   2503000   0.049968949   -0.28521348     0.035532082   -0.17473281     0.00019173987
   2504000   0.050235844   -0.28533631     0.035779287   -0.17420812     0.0011379864 
   2505000   0.050300332   -0.285083       0.035414461   -0.17422291     0.0005782049 
   2506000   0.050180451   -0.28536294     0.035300563   -0.17479656    -0.00011955803
   2507000   0.049994629   -0.28517462     0.035148896   -0.17503862     0.00054476664
   2508000   0.049759971   -0.28502825     0.035116976   -0.17527613     0.00016227334
   2509000   0.049959291   -0.2854364      0.036421185   -0.17408111    -9.1432523e-05
   2510000   0.050156996   -0.28487034     0.035707093   -0.17393261     0.0011973267 
   2511000   0.050167633   -0.28514274     0.035854441   -0.17404171     0.00030342363
   2512000   0.049826076   -0.28530838     0.036204341   -0.17436975     0.00018706343
   2513000   0.049826794   -0.28527917     0.035675494   -0.17486831     0.0012388772 
   2514000   0.05007922    -0.28552339     0.035666001   -0.17474341    -2.09556e-05  
   2515000   0.050662713   -0.28554728     0.035677468   -0.17388065     0.00041627811
   2516000   0.049667299   -0.28524057     0.035688721   -0.17505571     0.00029371393
   2517000   0.050477298   -0.28576798     0.035178723   -0.1748782     -0.00025327427
   2518000   0.050143377   -0.28564629     0.035622964   -0.17481311    -0.00010945663
   2519000   0.049964186   -0.28534738     0.035533571   -0.17487237     0.00014337655
   2520000   0.050336997   -0.28528664     0.03580466    -0.17398136     0.00036639443
   2521000   0.049863236   -0.28588272     0.036307453   -0.17478524    -0.0010253333 
   2522000   0.050060565   -0.28589203     0.03539118    -0.17541484     0.00046482051
   2523000   0.050016814   -0.28591166     0.035543936   -0.17534734    -0.00018481149
   2524000   0.050236647   -0.28623684     0.035578275   -0.17530845     1.3279753e-06
   2525000   0.049892642   -0.28574627     0.035137915   -0.17577422    -0.0001374037 
   2526000   0.049950928   -0.28618555     0.035157562   -0.17610643    -0.00014236157
   2527000   0.050037555   -0.2857506      0.035988598   -0.17471051     0.00034574808
   2528000   0.050213725   -0.28571086     0.035270633   -0.1751245      0.00065942601
   2529000   0.050530842   -0.28589858     0.035883486   -0.17422372     0.00057877626
   2530000   0.049896339   -0.28601661     0.035925009   -0.17525192     0.00057243085
   2531000   0.049981881   -0.28584498     0.035353557   -0.17552344     0.00078601433
   2532000   0.050070944   -0.28585588     0.035099059   -0.17565525     0.0010907867 
   2533000   0.050378754   -0.28600751     0.03506486    -0.1753794      0.00083774563
   2534000   0.049659179   -0.28616209     0.035396779   -0.17628135    -0.00010677535
   2535000   0.049637698   -0.28604128     0.034981198   -0.17660834    -0.00063028728
   2536000   0.049630144   -0.28592118     0.035497793   -0.17598297     5.6034751e-05
   2537000   0.049588586   -0.2857825      0.035535101   -0.17586932     0.0004278728 
   2538000   0.050174802   -0.2862238      0.03565208    -0.17531437     0.00050889956
   2539000   0.050103271   -0.28614023     0.036172237   -0.17481793    -3.6815341e-05
   2540000   0.049871415   -0.28629836     0.036015561   -0.1754805     -0.00011848741
   2541000   0.050329085   -0.28616419     0.03544063    -0.1752348      0.00065846871
   2542000   0.050112823   -0.28616387     0.034892532   -0.17610695     0.00094912576
   2543000   0.049717614   -0.28588307     0.035070509   -0.17624095     0.00024562454
   2544000   0.049641769   -0.28621718     0.035150396   -0.17660894     0.00031524263
   2545000   0.049332515   -0.28644937     0.035584822   -0.17687055     0.00049784863
   2546000   0.050301566   -0.28628976     0.035433449   -0.17540883     0.00076035771
   2547000   0.050551071   -0.28650335     0.035699889   -0.17498175    -0.00020194559
   2548000   0.050510654   -0.28612956     0.035801515   -0.17456695    -0.00016885219
   2549000   0.04964919    -0.28649986     0.035483947   -0.17654693     0.00041114936
   2550000   0.049976035   -0.28640603     0.03573659    -0.17571022    -0.0010277876 
   2551000   0.049771465   -0.286583       0.035165924   -0.17676469     0.00071677131
   2552000   0.049589317   -0.28684278     0.035657096   -0.17680651    -3.097067e-05 
   2553000   0.049576923   -0.28645882     0.034979405   -0.17711883     0.00052789696
   2554000   0.050033043   -0.28649823     0.03530406    -0.17614945     0.00094446427
   2555000   0.050005259   -0.28668302     0.03544184    -0.17623813    -0.00037352479
   2556000   0.050003881   -0.28633386     0.035615905   -0.17571697     0.00028242566
   2557000   0.049671401   -0.2864373      0.036416473   -0.17551853     0.00030931725
   2558000   0.049905741   -0.28671317     0.035988203   -0.17587119     0.00096726601
   2559000   0.049901374   -0.28660241     0.035294408   -0.17646077     0.00025015069
   2560000   0.050504925   -0.28682602     0.035014832   -0.17605868     0.00021903079
   2561000   0.049994488   -0.28651188     0.035389191   -0.1761358      0.0014636378 
   2562000   0.049909489   -0.2869046      0.035650529   -0.17639467     0.00027713825
   2563000   0.050097419   -0.28662988     0.035592584   -0.17589602    -8.8865254e-06
   2564000   0.050257587   -0.28683809     0.035466062   -0.17599051     0.0012132485 
   2565000   0.049864783   -0.28686589     0.035350322   -0.17672322     0.00083307336
   2566000   0.050361464   -0.2871347      0.035333571   -0.17626381     0.00039374925
   2567000   0.049777563   -0.28675084     0.036076591   -0.17601273    -0.00060166452
   2568000   0.050068848   -0.28674207     0.035887684   -0.17575596     0.00030572043
   2569000   0.049998877   -0.28712678     0.035947009   -0.17618629     0.00075454957
   2570000   0.050591049   -0.28703225     0.035811236   -0.17533934     0.00091388732
   2571000   0.049939335   -0.28742733     0.03550322    -0.17701994     0.00090997681
   2572000   0.050012516   -0.28776871     0.035395676   -0.17735909    -0.0001162963 
   2573000   0.049792774   -0.28721091     0.035654979   -0.17687159     0.00030178899
   2574000   0.049987566   -0.2872349      0.035396614   -0.17686177    -2.191321e-05 
   2575000   0.049652721   -0.28748395     0.035321943   -0.17768773    -0.00026160519
   2576000   0.050148407   -0.28766693     0.035513183   -0.17693599     6.7829005e-05
   2577000   0.050245027   -0.28741697     0.035491798   -0.1765625      0.00061003308
   2578000   0.049472555   -0.28716308     0.035684278   -0.17727476     0.00097912973
   2579000   0.049820874   -0.28727133     0.035279347   -0.17726549     0.0005375777 
   2580000   0.04987112    -0.28708914     0.035349327   -0.17693796     0.00044234976
   2581000   0.050195482   -0.2876484      0.03564755    -0.17671248     0.00014985422
   2582000   0.050379232   -0.28752797     0.035485159   -0.17647884     0.001337216  
   2583000   0.050164301   -0.28722297     0.035884589   -0.17609679     0.00051964571
   2584000   0.049412315   -0.28757726     0.035394131   -0.17806943     0.00041315846
   2585000   0.049052005   -0.28759672     0.035687251   -0.1783362      0.00064938179
   2586000   0.049675579   -0.28764815     0.035512282   -0.1776273      0.00055905993
   2587000   0.050522675   -0.28731729     0.035774735   -0.17576344     0.00011417211
   2588000   0.049940443   -0.2874457      0.035864478   -0.17667539     5.9514684e-05
   2589000   0.050438528   -0.2878874      0.035565831   -0.17666866     0.0013852093 
   2590000   0.049498648   -0.28754672     0.0361394     -0.17716414    -0.00036890913
   2591000   0.050269896   -0.28733567     0.035286986   -0.1766487      0.0008836888 
   2592000   0.049915202   -0.28772263     0.035473907   -0.17738075     0.0010030842 
   2593000   0.049748983   -0.28788084     0.035539583   -0.1777226     -0.00024092096
   2594000   0.049407535   -0.28799355     0.035615007   -0.17827202     0.00040546009
   2595000   0.050262396   -0.2878943      0.035838739   -0.17666683     2.5101873e-05
   2596000   0.049923905   -0.28800729     0.036086073   -0.17704019    -0.00083130949
   2597000   0.050091606   -0.28815028     0.035976212   -0.1770415     -0.0010748374 
   2598000   0.049265814   -0.28800083     0.035518507   -0.17858837     0.00036840453
   2599000   0.050084771   -0.28810647     0.035533152   -0.17745101    -0.00022961028
   2600000   0.050326582   -0.28767109     0.034860489   -0.1773256      0.0010708126 
   2601000   0.050299994   -0.28809617     0.03575434    -0.1768967      0.00014662413
   2602000   0.05042669    -0.2880168      0.035594967   -0.17678668     0.0007142956 
   2603000   0.049634064   -0.28766141     0.035848848   -0.17736627    -0.00057752813
   2604000   0.05040289    -0.28793399     0.035954057   -0.17638048     0.00035749043
   2605000   0.050138785   -0.28803201     0.035771608   -0.17705708     0.00020961031
   2606000   0.050258185   -0.28814764     0.035594129   -0.1771711      0.0005602625 
   2607000   0.050215229   -0.28829944     0.035106948   -0.17787451     0.00049533894
   2608000   0.049723444   -0.28799956     0.035534968   -0.17788424    -0.00053227631
   2609000   0.050177499   -0.28811107     0.035366351   -0.17748333    -3.1744756e-05
   2610000   0.050034703   -0.28777023     0.035886901   -0.17683611     0.000357151  
   2611000   0.050357498   -0.28816881     0.035900457   -0.17673698    -0.00046172779
   2612000   0.049925433   -0.28833763     0.035746031   -0.17770828    -0.00026374617
   2613000   0.049881672   -0.28814511     0.036116058   -0.17721137    -0.00016282164
   2614000   0.05048759    -0.28785581     0.036202726   -0.17592659     0.00042677533
   2615000   0.050258711   -0.2882144      0.035657099   -0.17717409     0.00060332463
   2616000   0.050411376   -0.28795743     0.03541653    -0.17692871     8.8265639e-05
   2617000   0.050128197   -0.28773756     0.035107172   -0.17744295     0.00021247578
   2618000   0.050156122   -0.288012       0.036243789   -0.17653889     1.503639e-05 
   2619000   0.050326463   -0.28833308     0.035331883   -0.17751637     0.00016022537
   2620000   0.050028547   -0.28811877     0.036014928   -0.17706587     7.9286473e-05
   2621000   0.049909084   -0.28828553     0.035280341   -0.17814639     0.0003058545 
   2622000   0.049822356   -0.28811164     0.035764777   -0.17761815     0.00038804957
   2623000   0.050300473   -0.28820134     0.035436715   -0.17731879     0.00014443439
   2624000   0.049548853   -0.28833852     0.035941667   -0.17807837     7.4467632e-06
   2625000   0.049795235   -0.28854169     0.035795874   -0.17805779     0.00015822218
   2626000   0.049728978   -0.2885591      0.035609972   -0.17836047     0.00036826219
   2627000   0.050851075   -0.28847075     0.035815999   -0.17638306     0.0010390207 
   2628000   0.04988089    -0.28816578     0.035394248   -0.17795502     0.00033679866
   2629000   0.050135606   -0.28823173     0.03540028    -0.17763289     0.00023364792
   2630000   0.050018268   -0.28858824     0.035410031   -0.17815564    -6.7465096e-06
   2631000   0.04972899    -0.28838209     0.035186319   -0.1786071      0.00076138748
   2632000   0.04961651    -0.28885113     0.035549797   -0.17888137    -0.00015130812
   2633000   0.050422064   -0.28866237     0.035779837   -0.17725432     0.00062445915
   2634000   0.0497162     -0.28835099     0.035625531   -0.17815597    -0.00015263625
   2635000   0.0501783     -0.28862114     0.035179995   -0.17817855     0.00048531285
   2636000   0.049731631   -0.28896028     0.035547038   -0.17882061     0.00043725745
   2637000   0.049873654   -0.28853858     0.035779813   -0.17795311    -0.0009743609 
   2638000   0.049956633   -0.28859823     0.035613282   -0.17805483     0.00018428635
   2639000   0.049817996   -0.28851026     0.035471898   -0.17831619     0.00088411024
   2640000   0.049854411   -0.2883918      0.035420261   -0.17819475     0.001313317  
   2641000   0.049278304   -0.28860546     0.035546845   -0.17914593    -0.00047341231
   2642000   0.050135212   -0.28891537     0.03538079    -0.17833661     0.0005332969 
   2643000   0.050123745   -0.28892031     0.035743521   -0.17799602    -0.00016295376
   2644000   0.049643035   -0.28843755     0.035254062   -0.17872374     0.00043716869
   2645000   0.050252257   -0.2884368      0.035747202   -0.17731608     0.00070050045
   2646000   0.049839772   -0.28878001     0.035271158   -0.17875402     0.00071178171
   2647000   0.050037201   -0.28813443     0.035394862   -0.17768861     0.00092563886
   2648000   0.049376881   -0.28835791     0.035675048   -0.17862232    -0.00010055537
   2649000   0.049959078   -0.28846797     0.035115799   -0.17841839     0.00064160463
   2650000   0.050000264   -0.28877917     0.035586048   -0.17819756     0.00033046887
   2651000   0.050097344   -0.28847964     0.035764129   -0.17757435     0.00073395409
   2652000   0.050315587   -0.2887982      0.035687053   -0.17764264     0.00047937098
   2653000   0.049810615   -0.2885075      0.035434185   -0.17836221     0.0011845461 
   2654000   0.049534691   -0.28907679     0.036005091   -0.17877446     0.00034459107
   2655000   0.049754826   -0.28904876     0.035673199   -0.17874814     0.0012040679 
   2656000   0.050009491   -0.28875361     0.03475092    -0.17899329     0.00046723193
   2657000   0.049953406   -0.28918776     0.035602892   -0.17865959     0.00083059925
   2658000   0.049980471   -0.28890943     0.035411565   -0.17853199     0.00096525722
   2659000   0.050546584   -0.28866692     0.034979974   -0.17787197     0.00126479   
   2660000   0.049524703   -0.28907831     0.03576174    -0.17903431     0.00042823919
   2661000   0.050393068   -0.28926152     0.03601363    -0.17766317    -4.8155959e-06
   2662000   0.050224441   -0.28864586     0.035748702   -0.17756536     0.00070703626
   2663000   0.050380345   -0.28910306     0.03534684    -0.17819058    -0.00038164193
   2664000   0.050120861   -0.28893395     0.035318013   -0.17843949     0.00066847471
   2665000   0.050088919   -0.28956192     0.035695474   -0.17873792     0.00075954389
   2666000   0.050408565   -0.28910965     0.035476853   -0.17802483    -0.00021510634
   2667000   0.04969212    -0.2893088      0.035951502   -0.17882393    -0.00018884445
   2668000   0.049922222   -0.28931834     0.035899126   -0.17854071    -0.00027866039
   2669000   0.049544803   -0.28936714     0.035060479   -0.17999425     0.00045165525
   2670000   0.049789933   -0.28909267     0.03573935    -0.17867324     0.0012637698 
   2671000   0.049990872   -0.28950184     0.035532354   -0.17898802     0.00010692066
   2672000   0.049885691   -0.2895222      0.035856789   -0.1788417     -0.00050781631
   2673000   0.05022422    -0.28952718     0.035541829   -0.17865389     0.0005945228 
   2674000   0.04978105    -0.2896519      0.035574001   -0.17941114     0.00045236266
   2675000   0.049707845   -0.28972823     0.035465417   -0.17970586    -0.00051049571
   2676000   0.049831372   -0.28964781     0.035676352   -0.17922922     0.00050122761
   2677000   0.050018765   -0.28959531     0.035496479   -0.17907553     0.00061125138
   2678000   0.049486101   -0.28934151     0.035846606   -0.17927054     4.2481431e-05
   2679000   0.049420075   -0.28977845     0.035883768   -0.17976936    -0.00011276735
   2680000   0.049792893   -0.28965718     0.035599691   -0.17937296     0.00093439735
   2681000   0.050737406   -0.28964352     0.035152373   -0.17838995     0.00049406697
   2682000   0.050351237   -0.2899787      0.036094118   -0.1783626     -0.00092350952
   2683000   0.050064399   -0.28987232     0.035650182   -0.17913039    -0.00050658341
   2684000   0.050099491   -0.290466       0.035285302   -0.18003631    -0.00012168485
   2685000   0.049336617   -0.29001583     0.036128597   -0.17988708    -0.00017080964
   2686000   0.049983308   -0.28988416     0.036283677   -0.17863036    -0.00041787862
   2687000   0.050363209   -0.28952455     0.035214715   -0.1787699      0.00057577103
   2688000   0.050321228   -0.28967528     0.035527735   -0.17867057     0.00051038634
   2689000   0.050313464   -0.28965958     0.035263507   -0.17893075     8.7075501e-06
   2690000   0.050315682   -0.28967238     0.035692684   -0.17851104    -0.00011286865
   2691000   0.050852118   -0.28951212     0.035862353   -0.17737651     0.0004973226 
   2692000   0.050419885   -0.28976987     0.035460535   -0.17868438     0.00024277736
   2693000   0.050427921   -0.28984183     0.035609778   -0.17859505     0.00058010435
   2694000   0.049781258   -0.28995826     0.035786337   -0.17950485    -1.155827e-05 
   2695000   0.050190879   -0.2898751      0.035561114   -0.17903252     0.00024573346
   2696000   0.049545797   -0.29016498     0.035097527   -0.18075355    -0.00026317049
   2697000   0.049469424   -0.2902476      0.035811413   -0.18023683     0.00057974621
   2698000   0.049709872   -0.28995707     0.035634211   -0.17976286     0.0010786748 
   2699000   0.049977656   -0.28973219     0.035657513   -0.17911303    -0.00059149681
   2700000   0.050119581   -0.28987642     0.035570361   -0.17913154     4.2372141e-05
   2701000   0.050297897   -0.2901865      0.035943482   -0.17880104     0.00032080298
   2702000   0.049580313   -0.28989922     0.03585391    -0.17967964    -7.6622556e-05
   2703000   0.04961069    -0.28957619     0.035914023   -0.17925093     0.00059543991
   2704000   0.050237807   -0.29041283     0.035213923   -0.17984706    -0.00058799979
   2705000   0.049778369   -0.29011328     0.035547711   -0.17990283     0.0005038834 
   2706000   0.049923689   -0.28967284     0.035709286   -0.17908285     0.00080134518
   2707000   0.050164005   -0.29015453     0.035364164   -0.17954921     0.00013911643
   2708000   0.049907071   -0.28998896     0.035630928   -0.17950225     5.0601349e-05
   2709000   0.049279109   -0.28956439     0.036008784   -0.17964172     0.00034540916
   2710000   0.050177752   -0.28992282     0.035831035   -0.17883001     0.00029129018
   2711000   0.050174605   -0.28964088     0.035080716   -0.17930311     0.0012124281 
   2712000   0.049847698   -0.28956239     0.035259099   -0.17953656    -0.00010017357
   2713000   0.05015778    -0.28956316     0.035540856   -0.17879049    -0.00015291395
   2714000   0.049767519   -0.28984219     0.035804981   -0.17939075     9.0852067e-05
   2715000   0.05006476    -0.29022332     0.035747841   -0.17938319     0.00010437695
   2716000   0.050157762   -0.2897974      0.035463553   -0.17910206     0.00032095392
   2717000   0.049912209   -0.28998088     0.035718618   -0.17939878    -0.00029484802
   2718000   0.049923472   -0.29020304     0.03577139    -0.17955127    -0.00035564081
   2719000   0.050115042   -0.29020139     0.035782121   -0.17925155     0.00066449534
   2720000   0.049288426   -0.29005833     0.035598868   -0.1805316     -7.1560714e-05
   2721000   0.04978643    -0.28997456     0.035773752   -0.17952598     0.0006918044 
   2722000   0.050352344   -0.29047206     0.035294069   -0.17965435    -0.00016133091
   2723000   0.050464553   -0.2902607      0.035617382   -0.17895137     0.0012108065 
   2724000   0.050291694   -0.2901595      0.035329314   -0.17939751     0.001285107  
   2725000   0.049778012   -0.29009972     0.035608148   -0.17982937    -0.00014643068
   2726000   0.049652453   -0.29018481     0.035665594   -0.18004534    -0.00034524859
   2727000   0.049948277   -0.29012207     0.035349823   -0.17985466    -0.00016310852
   2728000   0.049843448   -0.2901522      0.035747894   -0.17964396     1.8810799e-05
   2729000   0.049656082   -0.29002453     0.035735493   -0.17980972     0.00066945723
   2730000   0.050387626   -0.29020883     0.035552052   -0.17908021     0.00090325342
   2731000   0.049584179   -0.28996981     0.035395642   -0.1802027      0.00090379709
   2732000   0.050257731   -0.29039729     0.035535684   -0.17947987     5.5188494e-05
   2733000   0.049650834   -0.29010311     0.034858956   -0.18077271    -0.00017984046
   2734000   0.050039355   -0.29041951     0.035072592   -0.18029272    -0.00010851465
   2735000   0.049986095   -0.29013604     0.035269028   -0.1798927     -0.00032324832
   2736000   0.050073422   -0.29073288     0.035134351   -0.18049324     0.00032224544
   2737000   0.050015312   -0.29038544     0.035594315   -0.179773       0.00040413339
   2738000   0.049803957   -0.29024419     0.035756003   -0.17978707     0.00057870938
   2739000   0.049737089   -0.29052823     0.035767015   -0.1801604      0.00023795322
   2740000   0.04961461    -0.29034142     0.035892475   -0.18003183    -0.00045948906
   2741000   0.049767434   -0.29046843     0.035365269   -0.18045683    -0.00044484113
   2742000   0.050109087   -0.29035891     0.035266576   -0.17993356     0.00014715032
   2743000   0.049721316   -0.29038854     0.035524042   -0.18028734     0.00036321057
   2744000   0.05008429    -0.29051559     0.035642427   -0.17975158     0.00016308809
   2745000   0.049352431   -0.290452       0.03548992    -0.18093821    -6.872901e-05 
   2746000   0.050147694   -0.29009359     0.035105757   -0.17977114    -0.00016930175
   2747000   0.05003128    -0.29047983     0.035019455   -0.1804183      0.0008568416 
   2748000   0.049880797   -0.29051325     0.035533606   -0.18016327     0.00026438043
   2749000   0.050082994   -0.29044572     0.036054202   -0.17927187     0.00034030736
   2750000   0.049699309   -0.29039061     0.035400602   -0.18044586     0.0009236907 
   2751000   0.049808378   -0.29103517     0.035317515   -0.18100991    -0.0007094877 
   2752000   0.05000096    -0.29064219     0.035659322   -0.17998627     0.00022396743
   2753000   0.050247757   -0.29039887     0.03496041    -0.18007169    -0.00049296686
   2754000   0.049784213   -0.29069556     0.035368353   -0.18065571     0.0005703016 
   2755000   0.050858231   -0.29099595     0.035536957   -0.17917656     1.1037751e-05
   2756000   0.04979522    -0.29066147     0.035893117   -0.18008034     0.0012707786 
   2757000   0.050178609   -0.29047959     0.035111282   -0.18010525     0.00092728329
   2758000   0.050184112   -0.29062661     0.035520609   -0.17983469    -0.00095008386
   2759000   0.050027923   -0.29070426     0.035538763   -0.18012845     0.00067661921
   2760000   0.04993306    -0.29094608     0.036273297   -0.17977803    -0.00040439204
   2761000   0.050193221   -0.29083899     0.035389686   -0.18016433     4.7396197e-05
   2762000   0.049692897   -0.29095018     0.035486978   -0.18092866     0.00017129494
   2763000   0.049819127   -0.29101314     0.034807801   -0.18148147     0.00025393148
   2764000   0.049260218   -0.29100518     0.035025124   -0.18209449    -0.00028727292
   2765000   0.050326293   -0.29086585     0.035536117   -0.17984516     0.00022082708
   2766000   0.049749518   -0.2908811      0.035182074   -0.18107956    -0.00036705393
   2767000   0.050154305   -0.29109941     0.035778076   -0.18009473     0.00056890199
   2768000   0.049971143   -0.29050514     0.035845839   -0.17970742     0.00014857555
   2769000   0.050162229   -0.29046552     0.035419153   -0.17980788     0.00044484567
   2770000   0.050463109   -0.29073736     0.035884726   -0.17916286    -0.00044336776
   2771000   0.05001299    -0.29061934     0.035818704   -0.17978599     0.00044441116
   2772000   0.04968937    -0.29041963     0.035708946   -0.18018144    -0.0003905977 
   2773000   0.049993452   -0.29076511     0.035543984   -0.18023578     3.5922982e-05
   2774000   0.049132366   -0.29097987     0.035537051   -0.18174902    -8.1279497e-05
   2775000   0.049940218   -0.29065123     0.035301611   -0.18044413     0.00090722152
   2776000   0.049881331   -0.29093897     0.035118549   -0.18100326     0.00018562978
   2777000   0.050273781   -0.29081277     0.035432559   -0.1799744     -4.8722068e-05
   2778000   0.050153081   -0.29050843     0.03585919    -0.17942448     0.00055693007
   2779000   0.050529843   -0.29078023     0.035321888   -0.17966847     0.0004712802 
   2780000   0.049792367   -0.29118514     0.035828552   -0.18067286     3.1779169e-05
   2781000   0.050512395   -0.29060333     0.036143548   -0.17869608     0.00012291123
   2782000   0.049448934   -0.29107183     0.036350654   -0.18055256     0.00067644764
   2783000   0.050126888   -0.29119546     0.035566595   -0.18044339    -0.00060895994
   2784000   0.050029563   -0.29089746     0.035432129   -0.18042583     6.6454557e-05
   2785000   0.049989596   -0.29157005     0.036072499   -0.180518      -0.00018473556
   2786000   0.04955432    -0.29124048     0.035820191   -0.1810936      0.0005846166 
   2787000   0.049664074   -0.29085791     0.03567957    -0.18068703     0.00042205505
   2788000   0.049876373   -0.29114061     0.035099806   -0.18123107    -0.0005100465 
   2789000   0.050134116   -0.2911963      0.035493697   -0.18050628     0.00098794787
   2790000   0.049904021   -0.29092347     0.03577617    -0.1802961      0.00047240112
   2791000   0.050312054   -0.29107721     0.035638475   -0.17997552     0.00045036814
   2792000   0.050705943   -0.29114026     0.035741455   -0.17934479     0.00071155939
   2793000   0.050297345   -0.29128976     0.036115244   -0.17973337     0.00046855749
   2794000   0.050152548   -0.29140696     0.035517421   -0.18066558     0.00023651493
   2795000   0.049534812   -0.2909993      0.035769568   -0.18093231    -9.9545114e-05
   2796000   0.05035219    -0.29143245     0.035525964   -0.18038307    -0.00036087137
   2797000   0.050141863   -0.29133013     0.035778417   -0.18034377    -0.00016781406
   2798000   0.049755994   -0.29099702     0.036026027   -0.18034182    -0.000177885  
   2799000   0.049714692   -0.29147053     0.035942494   -0.18096081     0.0008058087 
   2800000   0.049846895   -0.29108155     0.035268      -0.18104803     1.1041879e-05
   2801000   0.049561058   -0.29127214     0.03529465    -0.1816407     -7.6736772e-05
   2802000   0.049320094   -0.29114438     0.035517065   -0.18165195     0.00015501179
   2803000   0.050421158   -0.29115649     0.035248112   -0.18028152     0.00048237708
   2804000   0.049400035   -0.29104474     0.036076387   -0.18087308    -9.108968e-05 
   2805000   0.04996699    -0.29104921     0.035672142   -0.18043141     0.00053074495
   2806000   0.049870694   -0.29156806     0.035971931   -0.18079491    -0.00064535899
   2807000   0.049714436   -0.29143075     0.036121463   -0.18074245     0.00022052315
   2808000   0.0499037     -0.2908804      0.035963166   -0.18006651    -0.00012415194
   2809000   0.050113441   -0.29152392     0.035457958   -0.18090065     0.00029702099
   2810000   0.049764437   -0.29172411     0.035384909   -0.18169736    -0.00037774117
   2811000   0.049789268   -0.29127494     0.036019042   -0.18057681    -1.7678764e-05
   2812000   0.049839999   -0.29148507     0.035631173   -0.18109872     0.00012974772
   2813000   0.050052526   -0.29129944     0.035743498   -0.180482       0.00057625038
   2814000   0.04983878    -0.29142595     0.035957071   -0.18071553    -0.00076440117
   2815000   0.04994545    -0.29164733     0.035497888   -0.1812361      0.00058880901
   2816000   0.049903866   -0.29130241     0.035885473   -0.18056597     0.00039966368
   2817000   0.049639065   -0.29181572     0.03576255    -0.18159937     0.00062932851
   2818000   0.05021417    -0.29172213     0.03608775    -0.18031799    -0.00024282042
   2819000   0.050292071   -0.29138246     0.03583028    -0.18011894     5.3005688e-05
   2820000   0.050206117   -0.29161665     0.035573715   -0.18073862    -3.1126577e-05
   2821000   0.050212703   -0.29151699     0.03527998    -0.18092281     0.0002862561 
   2822000   0.04984893    -0.29193099     0.035546833   -0.18161559    -0.00049338335
   2823000   0.049986699   -0.29181161     0.034829074   -0.18200732     0.00059402008
   2824000   0.050010312   -0.29195246     0.035594891   -0.18134694     0.00029059501
   2825000   0.049795935   -0.29190126     0.035249227   -0.18196295    -0.00033377687
   2826000   0.049483441   -0.29185046     0.035595773   -0.18203432    -0.00049549589
   2827000   0.048991491   -0.29184147     0.03535514    -0.18300384    -5.4327906e-05
   2828000   0.049730195   -0.29209249     0.035230825   -0.18227119    -0.0004436576 
   2829000   0.049236341   -0.29166672     0.035031963   -0.18278501     0.00057501098
   2830000   0.049742909   -0.29205211     0.035218231   -0.18222433     0.0001402046 
   2831000   0.049985821   -0.29191169     0.035812304   -0.18112549    -0.00033199851
   2832000   0.050206841   -0.29144794     0.035174569   -0.18096797    -0.00014309319
   2833000   0.049610694   -0.29201375     0.03592172    -0.18168079    -6.2992328e-06
   2834000   0.049652247   -0.29161452     0.035505021   -0.18163594    -8.917196e-05 
   2835000   0.050073451   -0.29173958     0.035287238   -0.18134702     0.00092888426
   2836000   0.049705693   -0.29199827     0.035293353   -0.18215119    -5.5597913e-05
   2837000   0.049977174   -0.29206442     0.03569934    -0.18140416     8.8754321e-05
   2838000   0.050002441   -0.2919024      0.036011588   -0.18089199     0.00043158738
   2839000   0.050271053   -0.29217861     0.035345411   -0.18143148    -0.00024491693
   2840000   0.050094581   -0.29155704     0.035165559   -0.18125446     0.00050645725
   2841000   0.050078959   -0.29182711     0.03628793    -0.18042559    -0.0010591606 
   2842000   0.050133249   -0.29215735     0.035306871   -0.18165546     0.00083450334
   2843000   0.049998582   -0.29213227     0.035489859   -0.18164938     0.00085002715
   2844000   0.050182735   -0.29183671     0.035438941   -0.18112852    -0.00046682525
   2845000   0.049897922   -0.29175284     0.035422563   -0.18148822    -0.0002401901 
   2846000   0.049355116   -0.29220013     0.035321371   -0.18285087    -0.00050709248
   2847000   0.04988778    -0.29181263     0.035511985   -0.1814738     -0.00020144867
   2848000   0.050170315   -0.2915591      0.035289222   -0.18101926     0.00083653806
   2849000   0.050054389   -0.29176584     0.035869695   -0.18081941    -0.00014288927
   2850000   0.050242105   -0.29181527     0.036394144   -0.18006283    -0.00091663435
   2851000   0.049937988   -0.29182032     0.035549142   -0.18136903    -2.0094661e-05
   2852000   0.049959982   -0.29221462     0.035465297   -0.18181419     5.9619888e-06
   2853000   0.049977369   -0.29174381     0.036030627   -0.18075197     0.00032133164
   2854000   0.050275941   -0.29202867     0.03590024    -0.18071938    -0.00051339748
   2855000   0.049971449   -0.29199367     0.035611514   -0.18142982     0.000776961  
   2856000   0.050032969   -0.29220837     0.034991518   -0.18217224     0.0003572172 
   2857000   0.049773481   -0.29198043     0.035726612   -0.18159842     0.00045897686
   2858000   0.049782917   -0.29140791     0.035958257   -0.18078009     0.0011495539 
   2859000   0.049911117   -0.29216374     0.036217573   -0.18108432     8.902594e-05 
   2860000   0.050047496   -0.2922443      0.03549863    -0.18167927    -0.00016198632
   2861000   0.050246519   -0.29168799     0.035591948   -0.18073112     2.1452895e-06
   2862000   0.050176993   -0.29233582     0.035376231   -0.18169895    -0.00040606693
   2863000   0.050120064   -0.29222928     0.035947908   -0.18110613     0.00038758411
   2864000   0.049858892   -0.29207043     0.035185954   -0.18210096     0.00026175683
   2865000   0.049846206   -0.29244982     0.035998104   -0.18168723    -0.00016746418
   2866000   0.04940806    -0.2921311      0.035694595   -0.1823292      0.00019528168
   2867000   0.050221899   -0.29227941     0.035465744   -0.18148568     0.00074119109
   2868000   0.049750885   -0.29233861     0.035626168   -0.18209093    -0.00020500776
   2869000   0.049827876   -0.29196582     0.035847643   -0.18138118     0.0015234381 
   2870000   0.050035553   -0.29184998     0.035910605   -0.18089089     0.00046891552
   2871000   0.049739668   -0.29197762     0.035748365   -0.18162457    -3.4529927e-05
   2872000   0.049601419   -0.29258003     0.035653845   -0.18252885    -0.00034527645
   2873000   0.050295346   -0.29218692     0.035309607   -0.18143916     0.00080134035
   2874000   0.050069378   -0.29234779     0.036051284   -0.18119729     0.00085550456
   2875000   0.050442189   -0.29215876     0.035880446   -0.18061991    -0.00016233995
   2876000   0.050271762   -0.29248962     0.035563395   -0.18152344    -0.00053638702
   2877000   0.050509743   -0.29220753     0.035643331   -0.18080447     0.00031492608
   2878000   0.049568068   -0.29229722     0.036200407   -0.18174951    -0.00042079496
   2879000   0.050020804   -0.29231957     0.03584912    -0.18144409     5.4506136e-05
   2880000   0.049913177   -0.29216038     0.035374915   -0.18192053    -0.00015610504
   2881000   0.050069811   -0.29250469     0.036093971   -0.18131085    -0.00015942881
   2882000   0.050419978   -0.29259093     0.035492231   -0.18147361     0.0011923296 
   2883000   0.049786142   -0.29236917     0.036016697   -0.18167808     0.00025044457
   2884000   0.050013897   -0.29248873     0.035254308   -0.18221842    -0.00061902952
   2885000   0.049970761   -0.29236951     0.035524471   -0.18189373     3.9362711e-05
   2886000   0.049903093   -0.29186177     0.036053099   -0.18095886     0.0010218311 
   2887000   0.050011599   -0.29248349     0.03545468    -0.18201626    -6.2452124e-05
   2888000   0.049845143   -0.29228129     0.036305751   -0.18121265     0.00066496791
   2889000   0.049892883   -0.29250993     0.036102093   -0.18157334     3.2595338e-05
   2890000   0.049924024   -0.29237646     0.036096336   -0.18139892    -0.00040277055
   2891000   0.050046271   -0.29188694     0.035406072   -0.1814163      0.00046542613
   2892000   0.050674285   -0.29205789     0.0358118     -0.18023957     0.00044857746
   2893000   0.049406076   -0.29187451     0.036142911   -0.18162727    -0.00027352445
   2894000   0.049643286   -0.29276438     0.035342314   -0.18296195     0.00033160019
   2895000   0.049710609   -0.29233473     0.035312194   -0.18246143    -0.00010060597
   2896000   0.049895025   -0.29255712     0.035669825   -0.18204958    -8.9432879e-05
   2897000   0.05042542    -0.29264473     0.035358168   -0.18165331     0.00017716674
   2898000   0.050425316   -0.29237412     0.035342401   -0.18139862     0.00025835441
   2899000   0.050032991   -0.29260254     0.035931859   -0.18162604    -0.00029560705
   2900000   0.050068562   -0.29246931     0.035521655   -0.18184966     0.00096286888
   2901000   0.050406314   -0.29239835     0.035181472   -0.18161228     0.001174575  
   2902000   0.049673397   -0.29243096     0.035378016   -0.18254765     0.00090251216
   2903000   0.050171159   -0.29238533     0.035747523   -0.18138593     0.00016142302
   2904000   0.049983829   -0.29199119     0.036091651   -0.18092863     0.00057659984
   2905000   0.050377856   -0.29254949     0.035956657   -0.18103092    -0.00047191209
   2906000   0.05024652    -0.29258228     0.035907789   -0.18130958     0.00034056421
   2907000   0.050009125   -0.29251629     0.036043266   -0.18146417     0.00041740768
   2908000   0.050128351   -0.29227146     0.036105409   -0.18097837     0.00072255124
   2909000   0.050097722   -0.29192104     0.035657842   -0.18112146     0.00096975568
   2910000   0.049588144   -0.29217766     0.035523385   -0.18227686     0.0003020615 
   2911000   0.05023603    -0.29309324     0.034898988   -0.18284507     0.0011417263 
   2912000   0.049809381   -0.29310877     0.035546626   -0.18285289    -0.000443564  
   2913000   0.049703412   -0.29251254     0.03547579    -0.18248644     0.00019436503
   2914000   0.049555721   -0.29272075     0.035838082   -0.18255389    -0.00017919734
   2915000   0.050015823   -0.29245155     0.036399714   -0.18103294     0.00085239364
   2916000   0.050473081   -0.29294699     0.036468581   -0.18077368    -0.00014041702
   2917000   0.049862085   -0.29269545     0.035451664   -0.18245548     0.00036499696
   2918000   0.05010309    -0.29296275     0.035254959   -0.182558      -5.4519673e-05
   2919000   0.050356489   -0.29282906     0.035442455   -0.18185674     0.0010335861 
   2920000   0.049788631   -0.29294863     0.036215024   -0.18205548    -0.00049769696
   2921000   0.049397452   -0.2929494      0.035778064   -0.18307993    -0.00047599128
   2922000   0.04968974    -0.2922392      0.035932521   -0.18177688     0.00011489693
   2923000   0.049784286   -0.29284827     0.035464961   -0.1827117      0.00052918397
   2924000   0.049850996   -0.29333166     0.035594234   -0.18296576     0.00040870345
   2925000   0.050395471   -0.29298305     0.035608532   -0.18178619     0.0002070152 
   2926000   0.050140379   -0.29300852     0.03581295    -0.18198985    -0.00052857342
   2927000   0.050529777   -0.29304296     0.035759671   -0.18149352     0.00017866712
   2928000   0.049977478   -0.2928793      0.035768075   -0.18214984     0.0001800404 
   2929000   0.049428908   -0.29290449     0.035588661   -0.18317725     0.00082699308
   2930000   0.049817057   -0.29298835     0.035480357   -0.18278723     0.00046429962
   2931000   0.049925964   -0.29307101     0.035338764   -0.18284813     1.2921467e-05
   2932000   0.050034053   -0.29294392     0.03567252    -0.18222516     0.00060827523
   2933000   0.049609226   -0.29347258     0.035669761   -0.18339378     1.4651507e-05
   2934000   0.049607425   -0.29361469     0.035118305   -0.18409005     0.00012173538
   2935000   0.050317433   -0.29338237     0.035428135   -0.18248296     0.00067410022
   2936000   0.050199695   -0.29354055     0.035509362   -0.1827365      9.2458183e-05
   2937000   0.049507125   -0.29295639     0.035659731   -0.18304076    -0.00035601628
   2938000   0.049646307   -0.29314534     0.035963966   -0.18271672    -3.4701079e-05
   2939000   0.050079459   -0.29329362     0.035483492   -0.18269579     0.00090853369
   2940000   0.050020525   -0.29323401     0.035385166   -0.1828229      0.00080209981
   2941000   0.049759088   -0.2938416      0.035224363   -0.18398342    -0.00082499135
   2942000   0.050067423   -0.29347525     0.035654365   -0.18272459    -0.0002653157 
   2943000   0.050090269   -0.29327021     0.0359642     -0.18217546    -0.00032049666
   2944000   0.050417924   -0.29303945     0.035574815   -0.18184263     0.00012408588
   2945000   0.050342484   -0.29340991     0.03546047    -0.18244058    -0.00060509081
   2946000   0.049944369   -0.29383052     0.035329731   -0.18358907    -1.2587067e-05
   2947000   0.049053804   -0.29387137     0.035466593   -0.18482882    -0.00058067499
   2948000   0.049880064   -0.2938387      0.035083373   -0.18394005    -0.00015826899
   2949000   0.049703903   -0.2937667      0.035958676   -0.18325698    -0.00041626931
   2950000   0.049932491   -0.29355898     0.035121017   -0.18354406     0.00010424082
   2951000   0.050454479   -0.29318761     0.035750672   -0.1817601      0.00037978489
   2952000   0.049779168   -0.29336193     0.035534176   -0.18316382     0.0013239902 
   2953000   0.050373159   -0.29345858     0.035320189   -0.18258353     9.0311151e-05
   2954000   0.049754814   -0.29347243     0.035640934   -0.18320409     0.00078046297
   2955000   0.049737821   -0.29388494     0.036273034   -0.18300999    -0.00013019898
   2956000   0.049647681   -0.29332469     0.035100159   -0.18375781     0.00087651857
   2957000   0.04938019    -0.29350917     0.035796278   -0.18364739     4.0743834e-05
   2958000   0.050075173   -0.29350142     0.034885504   -0.183508       0.00046688153
   2959000   0.049647806   -0.29368757     0.03538991    -0.18383075    -8.3152318e-05
   2960000   0.050093329   -0.29356797     0.03556228    -0.18287055    -0.00026803853
   2961000   0.04978599    -0.29335528     0.035930706   -0.1827504     -0.00074855796
   2962000   0.050023217   -0.29369521     0.035524212   -0.18314102     0.00057976403
   2963000   0.049958785   -0.29367951     0.036073753   -0.18267241    -0.0010082028 
   2964000   0.049474882   -0.29366098     0.035833385   -0.18362006     0.00012245223
   2965000   0.05045824    -0.29382282     0.03556561    -0.18257474    -8.9506761e-05
   2966000   0.049984937   -0.29360867     0.03524497    -0.18339114     0.000825146  
   2967000   0.049329403   -0.29361015     0.036027702   -0.18359312    -0.00021724045
   2968000   0.050038307   -0.29382724     0.035609733   -0.18316489     0.0001032458 
   2969000   0.049819853   -0.29364        0.035607021   -0.18330802    -0.00016147787
   2970000   0.049795587   -0.29380807     0.035234033   -0.18388548     0.00065776301
   2971000   0.049978726   -0.29398754     0.035985077   -0.18303921    -0.00014149305
   2972000   0.04988134    -0.2935671      0.035327058   -0.18342286     0.00086694195
   2973000   0.049901519   -0.29345406     0.035588105   -0.1830185      7.5027527e-05
   2974000   0.049923851   -0.29399999     0.035926074   -0.18319298    -0.00065648097
   2975000   0.050292432   -0.29382698     0.035315721   -0.18307747     0.0002944572 
   2976000   0.049965862   -0.29343221     0.035575063   -0.18291319     0.0012245971 
   2977000   0.050672648   -0.29372999     0.035993901   -0.18173202    -0.00022509584
   2978000   0.050158628   -0.29350499     0.035032151   -0.18323975     0.00020494572
   2979000   0.050612808   -0.29331535     0.034891873   -0.18250916     0.00010173426
   2980000   0.049904804   -0.2938277      0.035838786   -0.18313654     0.00067412917
   2981000   0.049918475   -0.29380288     0.035617841   -0.18331216    -0.00044573947
   2982000   0.050111409   -0.29384156     0.03546274    -0.18321656     0.00053040463
   2983000   0.05026872    -0.29352809     0.035908528   -0.18222135    -0.00012597382
   2984000   0.050717343   -0.29384804     0.035909591   -0.18186734    -0.00019624884
   2985000   0.050124579   -0.29365248     0.035339514   -0.18313095     0.001095111  
   2986000   0.050438025   -0.2934419      0.03561746    -0.18217228     5.7182528e-05
   2987000   0.050430899   -0.29402582     0.036131757   -0.1822526     -0.00061193249
   2988000   0.050084717   -0.29396298     0.035638559   -0.1832022     -0.00044195674
   2989000   0.049902738   -0.2936593      0.035044157   -0.18376587     0.0010848432 
   2990000   0.050302888   -0.293655       0.035810509   -0.18239503     0.0020486648 
   2991000   0.050145292   -0.29358591     0.035230634   -0.18314219     0.00029156436
   2992000   0.049849952   -0.29375193     0.03566694    -0.18331489     0.00061580256
   2993000   0.050109035   -0.29391457     0.035009687   -0.18374618     0.00039748256
   2994000   0.049787885   -0.29403414     0.035617511   -0.18373962     0.00034242501
   2995000   0.049215172   -0.2936998      0.035659984   -0.18422182     0.00011445827
   2996000   0.049562956   -0.29404252     0.035067687   -0.18463519    -0.00021213756
   2997000   0.049934636   -0.29381957     0.034884927   -0.18403753     0.00026191614
   2998000   0.049841093   -0.29386141     0.035899169   -0.18320543     0.00040232903
   2999000   0.050375173   -0.29381243     0.036089695   -0.18216485     1.7028629e-05
   3000000   0.049651283   -0.29423669     0.035785586   -0.18397898    -6.019458e-05 
   3001000   0.049986792   -0.2940593      0.035886867   -0.18319708     0.00042074766
   3002000   0.050380488   -0.29375834     0.035333103   -0.18285938     0.00037752248
   3003000   0.049810065   -0.29403909     0.035512573   -0.18381624    -0.000653083  
   3004000   0.050211027   -0.2942033      0.035488782   -0.18340284     5.2394836e-05
   3005000   0.049492331   -0.29377277     0.035469447   -0.18406962     0.00089200864
   3006000   0.050593604   -0.2939429      0.035878156   -0.18217924     0.00049040754
   3007000   0.050606516   -0.2942065      0.035521824   -0.1827798     -0.00076179928
   3008000   0.05050892    -0.29410743     0.035009023   -0.18333992     0.00030944589
   3009000   0.049454557   -0.29437062     0.035242862   -0.18495071     0.00088731714
   3010000   0.050129571   -0.29452364     0.035947442   -0.18338669     0.00075167686
   3011000   0.050424095   -0.29429736     0.035724035   -0.18294206     0.0003273354 
   3012000   0.050032686   -0.29408917     0.035774384   -0.1832706     -0.00065536653
   3013000   0.050341863   -0.29398894     0.03577804    -0.18270298     0.0005414622 
   3014000   0.049740613   -0.29418407     0.03497223    -0.18460573    -0.00042981545
   3015000   0.050088869   -0.29454682     0.035278538   -0.18413983     0.00015226734
   3016000   0.049510021   -0.29402924     0.035772925   -0.18399608    -0.00046076465
   3017000   0.050072512   -0.29424136     0.035770176   -0.18336726    -8.6390873e-05
   3018000   0.049635672   -0.29414187     0.03526727    -0.1844259     -0.00048355522
   3019000   0.050479096   -0.29452819     0.03600158    -0.18281285     0.00063104565
   3020000   0.049834792   -0.29421312     0.035618452   -0.1838473     -0.00038724225
   3021000   0.050036297   -0.29444602     0.035150126   -0.18424629     0.00014377887
   3022000   0.050576298   -0.29452133     0.03504936    -0.18361242     6.8999017e-06
   3023000   0.050396491   -0.29449987     0.035455529   -0.18345448     0.00086127525
   3024000   0.049850014   -0.29457664     0.035749021   -0.18405742     0.00087871945
   3025000   0.049610088   -0.29487365     0.035975281   -0.18448804     0.00013735649
   3026000   0.050061404   -0.29459713     0.035448128   -0.18406174     0.00013556133
   3027000   0.049865637   -0.29444794     0.035621069   -0.18403324    -0.0002701711 
   3028000   0.049869132   -0.29463294     0.035143655   -0.18469042     0.00075927757
   3029000   0.049775276   -0.29400085     0.034393867   -0.18494889     0.0012056799 
   3030000   0.04946329    -0.29455929     0.035354092   -0.18501505    -0.00068196464
   3031000   0.049452957   -0.29449589     0.035593715   -0.18472752     0.00026380308
   3032000   0.050010473   -0.29480063     0.035003252   -0.18478651     0.0010833725 
   3033000   0.049601713   -0.2945313      0.035657894   -0.18447564     7.9935523e-05
   3034000   0.049926118   -0.29500954     0.035311051   -0.18481414    -3.14772e-05  
   3035000   0.049751754   -0.29463747     0.035387568   -0.18462708     0.00075006721
   3036000   0.049894759   -0.29494704     0.035271391   -0.18483833    -0.00015152442
   3037000   0.050169475   -0.29481757     0.035408963   -0.18415925     0.00074726242
   3038000   0.050248128   -0.29471459     0.03508273    -0.18426453     0.00055755867
   3039000   0.050150761   -0.294506       0.035313023   -0.18397169     0.00011543324
   3040000   0.049198352   -0.29490458     0.036112164   -0.18499965    -0.00028030692
   3041000   0.049801232   -0.29494311     0.03526732    -0.18497876     0.00028036286
   3042000   0.05027219    -0.29519838     0.035750077   -0.18404488    -0.00016612392
   3043000   0.049589039   -0.29516245     0.036581252   -0.18420244     3.1428723e-05
   3044000   0.050384178   -0.29478643     0.036161864   -0.18305317    -0.00023563042
   3045000   0.050235738   -0.29478973     0.036596982   -0.18284401     0.00037813974
   3046000   0.050452746   -0.29441378     0.035611284   -0.18312826     0.00041591265
   3047000   0.050631667   -0.29483526     0.035986651   -0.18290601    -0.00021469441
   3048000   0.050358461   -0.29500994     0.035444667   -0.18403246    -0.00054245582
   3049000   0.050045119   -0.29469403     0.035988278   -0.18364292     0.00070299891
   3050000   0.049934679   -0.29438521     0.035618629   -0.1838694     -0.00037815002
   3051000   0.049470927   -0.29484942     0.036525669   -0.18412215     0.00085227176
   3052000   0.049901189   -0.29486309     0.035849251   -0.18416688    -0.00020634748
   3053000   0.050268115   -0.29487632     0.035616581   -0.18386243     0.00025636999
   3054000   0.049929744   -0.29462128     0.035577194   -0.1841543     -0.00075393994
   3055000   0.050496757   -0.29427836     0.035486391   -0.18305172     0.00082985023
   3056000   0.050059331   -0.29447362     0.035193748   -0.18419572     0.00059450988
   3057000   0.050756554   -0.29499038     0.035900884   -0.18295958     0.00037732581
   3058000   0.050577176   -0.29483371     0.035782109   -0.18319074     0.0001900433 
   3059000   0.049822518   -0.29494292     0.035622412   -0.18459155    -0.00090055775
   3060000   0.050360946   -0.29493441     0.03559331    -0.18380456     0.00032750377
   3061000   0.04968766    -0.29468262     0.03549459    -0.18466135     0.00010882914
   3062000   0.050358068   -0.29480497     0.035523062   -0.18374968     0.00072813215
   3063000   0.05002833    -0.29509871     0.035704688   -0.18435637     0.0003565079 
   3064000   0.049939721   -0.29495476     0.035566751   -0.18448326    -0.00053835965
   3065000   0.049763557   -0.29477243     0.035930629   -0.18420128    -0.0004866796 
   3066000   0.050555389   -0.29463072     0.035780237   -0.18302229     0.0010990861 
   3067000   0.050028648   -0.29484095     0.03552528    -0.18427754     9.5811091e-05
   3068000   0.050542049   -0.29479178     0.035343733   -0.18363986     0.00013885874
   3069000   0.050127714   -0.29491453     0.03600661    -0.1837212      9.7626876e-05
   3070000   0.050467833   -0.29501991     0.035649214   -0.18367383     0.00090895572
   3071000   0.05027857    -0.29496041     0.035747263   -0.18380016     0.00074257874
   3072000   0.049681875   -0.29507951     0.035662875   -0.18489863     1.689505e-05 
   3073000   0.049706188   -0.29468031     0.035724921   -0.18440092     0.00094610188
   3074000   0.050364452   -0.29466579     0.034664506   -0.18445948     0.0010343548 
   3075000   0.04990311    -0.29548368     0.035510479   -0.18512337    -0.0002404239 
   3076000   0.049595192   -0.29549704     0.035303574   -0.18580548    -4.2204356e-07
   3077000   0.049251328   -0.29542867     0.035768183   -0.18578826     0.00011941383
   3078000   0.049742588   -0.29538495     0.03603431    -0.18474157     0.0004725784 
   3079000   0.049886856   -0.29531936     0.035750291   -0.18474361    -2.1289217e-05
   3080000   0.049908166   -0.29538644     0.035534377   -0.18499464     7.2594084e-05
   3081000   0.05003527    -0.29506716     0.03506395    -0.18495515     0.0011162553 
   3082000   0.05041228    -0.29498361     0.035667179   -0.18370289     0.00063710318
   3083000   0.050499541   -0.29496222     0.035321945   -0.18389585     0.00081916887
   3084000   0.049888305   -0.29538234     0.036078466   -0.18447624     0.00059744694
   3085000   0.050353518   -0.2950701      0.03611563    -0.18342907    -0.00013957671
   3086000   0.050632006   -0.29555329     0.035270138   -0.18434004    -0.00022601762
   3087000   0.050267641   -0.29573796     0.035671823   -0.18466954     0.000638819  
   3088000   0.050686445   -0.29570952     0.036051936   -0.18363282    -0.00033555268
   3089000   0.050388139   -0.29479183     0.036025764   -0.18318873     0.00046127934
   3090000   0.049643626   -0.29547555     0.035944797   -0.18507011     5.5061405e-05
   3091000   0.050169031   -0.29531093     0.035282598   -0.18477964     0.00050871684
   3092000   0.049750244   -0.29529677     0.035410955   -0.18526527     0.00038070302
   3093000   0.050007883   -0.29583722     0.035547526   -0.1852827      0.00048968978
   3094000   0.050326025   -0.29538479     0.036032481   -0.18386814    -0.00053832623
   3095000   0.050143939   -0.29536195     0.035932108   -0.18421879     0.00045248709
   3096000   0.050013467   -0.29546246     0.035453721   -0.18499338     0.00025405115
   3097000   0.050519155   -0.29542628     0.035406101   -0.18424633     0.00086884648
   3098000   0.049938106   -0.29545042     0.035712786   -0.18483531    -5.6421663e-05
   3099000   0.050324997   -0.29610452     0.035759465   -0.18486243    -1.3304549e-05
   3100000   0.050110099   -0.29526909     0.03471661    -0.18539218     0.00037120979
   3101000   0.049304363   -0.2957504      0.035755892   -0.18604274     0.00076676887
   3102000   0.049506957   -0.29544156     0.035621615   -0.1855643      0.00020296183
   3103000   0.050164597   -0.29591098     0.035883458   -0.18478548     9.6179823e-05
   3104000   0.05007252    -0.29588564     0.035100271   -0.18568143    -0.00032303366
   3105000   0.049381852   -0.2955177      0.035118784   -0.18633092     0.00046511088
   3106000   0.049985625   -0.29562139     0.034788197   -0.1858596      0.00058327581
   3107000   0.050217195   -0.29554249     0.035212135   -0.18500942     0.00010542395
   3108000   0.050004605   -0.29533553     0.035703312   -0.18463015     0.00073403586
   3109000   0.049860092   -0.29599335     0.03543722    -0.18577081     0.00033356393
   3110000   0.050057459   -0.29566745     0.035540958   -0.18504514     0.0011535479 
   3111000   0.049904889   -0.29557867     0.03566612    -0.18506004     0.00012603012
   3112000   0.049506568   -0.29536687     0.035895396   -0.18521641    -0.00035030073
   3113000   0.050221798   -0.2956162      0.035664187   -0.18462417     0.00065754398
   3114000   0.050092387   -0.29558464     0.035631193   -0.18481972    -0.00028832482
   3115000   0.050295574   -0.29549664     0.035459113   -0.18459903     0.00016719192
   3116000   0.050227805   -0.29538779     0.034622144   -0.1854288      0.00032971049
   3117000   0.050053421   -0.29577455     0.035501838   -0.18519742    -4.1671955e-05
   3118000   0.049872147   -0.29573076     0.0361656     -0.18476176     0.00013560331
   3119000   0.050500838   -0.29598472     0.035486055   -0.18475229     0.00052348717
   3120000   0.049746626   -0.29555451     0.035142048   -0.18579733     0.00089484992
   3121000   0.049657918   -0.29548144     0.035927093   -0.18507228    -0.0002071516 
   3122000   0.050427876   -0.29552785     0.035445286   -0.18444563     0.00044547151
   3123000   0.050257765   -0.29566347     0.036526416   -0.18375527    -3.4043667e-05
   3124000   0.051322903   -0.2958246      0.035086352   -0.18375886     0.00066382503
   3125000   0.050383805   -0.29613096     0.036247315   -0.18431281    -9.3901149e-05
   3126000   0.049969      -0.29563601     0.035286076   -0.18540127     0.00086732593
   3127000   0.05014883    -0.29555392     0.035618207   -0.18471732    -0.00013906726
   3128000   0.050672781   -0.29615051     0.035282579   -0.18486366     0.00075199634
   3129000   0.049697375   -0.29585832     0.035426956   -0.18589012     0.00086647863
   3130000   0.049725845   -0.29643943     0.035457289   -0.18639818     0.00012981242
   3131000   0.049596177   -0.29600254     0.035347915   -0.18626516     0.00025856545
   3132000   0.049956367   -0.2961358      0.035439209   -0.18576688    -0.0003016527 
   3133000   0.049553782   -0.29619886     0.036066105   -0.18580687    -0.00037855972
   3134000   0.049961352   -0.29647035     0.035739455   -0.1857937      0.00030754213
   3135000   0.050016818   -0.29599686     0.035735854   -0.18524062     0.00045128587
   3136000   0.050182185   -0.29629036     0.035846317   -0.18517562     0.00018341765
   3137000   0.050056409   -0.29620281     0.035260316   -0.18586273     0.00083102613
   3138000   0.050496259   -0.29629439     0.035824917   -0.18472997     0.0001256069 
   3139000   0.05045301    -0.2960135      0.034919282   -0.18541959     3.7198605e-05
   3140000   0.049704791   -0.29594786     0.035468417   -0.18592707     0.00097008242
   3141000   0.05037263    -0.29674216     0.035505729   -0.18568236    -0.00016283654
   3142000   0.049787831   -0.29663279     0.035811984   -0.18614388    -0.00087840137
   3143000   0.050549911   -0.29649699     0.035839795   -0.18483722    -5.8092323e-05
   3144000   0.049698668   -0.29615175     0.035364197   -0.18624436     8.2278383e-05
   3145000   0.049803064   -0.29639166     0.03543169    -0.18626019    -1.6338411e-05
   3146000   0.049535128   -0.29613238     0.035546262   -0.18628822     0.00032977533
   3147000   0.050195445   -0.29625736     0.036254916   -0.18471414     0.00028812208
   3148000   0.049889841   -0.2966394      0.035654296   -0.18615517     0.00080467155
   3149000   0.050073836   -0.29643409     0.035407913   -0.18592027     0.00091168753
   3150000   0.049706306   -0.2963853      0.035894854   -0.18593579    -2.6998396e-05
   3151000   0.049694073   -0.29676537     0.036012165   -0.1862169      0.00053489029
   3152000   0.049696925   -0.29695914     0.035925079   -0.18649349    -0.0012666786 
   3153000   0.049981107   -0.29664802     0.035235339   -0.18644585     0.00049487722
   3154000   0.049500636   -0.2965226      0.035531761   -0.18674468    -0.00017426013
   3155000   0.050012376   -0.29664077     0.035099708   -0.18652734     0.00021892801
   3156000   0.050191079   -0.29670801     0.035404231   -0.18602201     0.00077065691
   3157000   0.050692247   -0.29631167     0.035635004   -0.1846432      0.00011542173
   3158000   0.049982636   -0.29659116     0.035643826   -0.18597822     0.0011674972 
   3159000   0.04992147    -0.29651953     0.035283682   -0.18635847     0.0003077301 
   3160000   0.049298595   -0.29639481     0.035351675   -0.18710001     0.00033557199
   3161000   0.04982313    -0.29644788     0.03542432    -0.18629369     0.00037151621
   3162000   0.049846303   -0.29661535     0.035132854   -0.18671786    -0.00037808016
   3163000   0.049871372   -0.29691392     0.035814767   -0.18629692     0.0002064566 
   3164000   0.050114418   -0.29709698     0.035495129   -0.18643507    -0.00048495254
   3165000   0.049900769   -0.29654887     0.035825258   -0.18587729     0.0011151911 
   3166000   0.050412796   -0.2967641      0.035159434   -0.18599036    -1.0506064e-05
   3167000   0.049906068   -0.2968627      0.035334884   -0.18667355    -0.0001429404 
   3168000   0.050203486   -0.29654476     0.035669557   -0.18557484     0.00020443393
   3169000   0.050480084   -0.29673669     0.035627466   -0.18539398     0.0012825224 
   3170000   0.050248745   -0.29684238     0.035558263   -0.18591586     0.00027629709
   3171000   0.050212124   -0.2967382      0.035112937   -0.18631194     0.00035079777
   3172000   0.050139788   -0.29690702     0.036008958   -0.18569323    -0.0013079992 
   3173000   0.05000665    -0.29653015     0.035582382   -0.18594263     1.38801e-05  
   3174000   0.050027288   -0.29683796     0.035678018   -0.18612385     0.00062179704
   3175000   0.049779533   -0.29642414     0.035511592   -0.18624807     0.00074322081
   3176000   0.049808853   -0.29682644     0.035723826   -0.18639415    -0.00048389535
   3177000   0.049832786   -0.29704361     0.036653077   -0.18564618    -0.0003562135 
   3178000   0.05092586    -0.29697683     0.035971998   -0.18462097     0.00049906494
   3179000   0.050046286   -0.29632208     0.035884888   -0.18537261     0.00086830578
   3180000   0.050194127   -0.2970499      0.03530392    -0.18645965     0.0011325433 
   3181000   0.050149705   -0.29652452     0.035982148   -0.18532267    -5.2217782e-05
   3182000   0.050556061   -0.29700236     0.035446043   -0.18572712    -1.6848299e-05
   3183000   0.049768404   -0.29674079     0.035303586   -0.18678941     0.0010191043 
   3184000   0.050274455   -0.29679132     0.035235167   -0.18614933     1.8566211e-05
   3185000   0.049922156   -0.29677779     0.035845974   -0.18605341    -0.00085910444
   3186000   0.050353975   -0.2968778      0.035701634   -0.18565007     0.00063842411
   3187000   0.049803344   -0.29698114     0.035652635   -0.1866283      0.00052493083
   3188000   0.049524094   -0.29694057     0.035659917   -0.18699931     0.00069944945
   3189000   0.050114508   -0.29680556     0.035372428   -0.18626622    -0.00010782587
   3190000   0.050075058   -0.29695926     0.036021501   -0.18583002     0.00024857537
   3191000   0.049738614   -0.297117       0.035139619   -0.18737428    -0.00033755787
   3192000   0.049854868   -0.29695934     0.035424615   -0.18675725     0.00057052423
   3193000   0.049523168   -0.29748186     0.036094425   -0.18710747     8.8419382e-05
   3194000   0.050442443   -0.29718494     0.036519969   -0.18500619     0.00078077723
   3195000   0.049967621   -0.29705692     0.036653175   -0.18545715     0.00048802935
   3196000   0.049896602   -0.29718851     0.0355253     -0.18682313    -0.00027183982
   3197000   0.050339976   -0.29721272     0.035149845   -0.18655778     0.00046300911
   3198000   0.049901603   -0.29767079     0.035542429   -0.18728079     6.2782767e-05
   3199000   0.049565265   -0.29719028     0.035985329   -0.18686184    -0.00040784953
   3200000   0.049781218   -0.29696598     0.035349041   -0.18694993    -4.579436e-05 
   3201000   0.050071428   -0.29720303     0.035076986   -0.18702375     0.00016770604
   3202000   0.050226465   -0.29729325     0.035982594   -0.18597582    -0.00023925025
   3203000   0.050210378   -0.2972958      0.035270007   -0.18671509     0.0012469783 
   3204000   0.049816102   -0.29736455     0.035931087   -0.18671413     0.00039595699
   3205000   0.050523929   -0.29736643     0.035456372   -0.18612905     0.00084766354
   3206000   0.050394639   -0.29694707     0.03573281    -0.18562718     0.0004598013 
   3207000   0.05027442    -0.29747425     0.035766884   -0.1863006     -4.322085e-05 
   3208000   0.050164312   -0.29702183     0.035758371   -0.18602184    -4.0553407e-05
   3209000   0.050123525   -0.29744557     0.035521772   -0.18674336     0.0010068983 
   3210000   0.049945331   -0.29734311     0.035821033   -0.18660891     0.00027983431
   3211000   0.050057363   -0.29733453     0.035582988   -0.18667034     0.00059307965
   3212000   0.04950871    -0.29786566     0.035792644   -0.18781474    -8.3623901e-05
   3213000   0.049872206   -0.29734484     0.035432152   -0.1871092     -0.00042180588
   3214000   0.04920576    -0.29773359     0.035773092   -0.18815662     2.1419568e-05
   3215000   0.049411058   -0.29751117     0.035737004   -0.18766236    -2.5922017e-05
   3216000   0.050139579   -0.29789479     0.036006442   -0.18668383     8.4364433e-05
   3217000   0.050432873   -0.29739628     0.03551059    -0.18624126     0.00064078206
   3218000   0.05017336    -0.29773165     0.03599518    -0.18648129     0.00022194404
   3219000   0.049566658   -0.29757992     0.035127038   -0.18810769     0.00016225463
   3220000   0.050468368   -0.2974209      0.035463605   -0.18625963    -0.00021250448
   3221000   0.050168626   -0.29772278     0.035689247   -0.18678545     0.00058554286
   3222000   0.049808061   -0.29725155     0.036169125   -0.18637516    -6.721728e-06 
   3223000   0.050000941   -0.29767661     0.035985426   -0.18669461     0.00063495978
   3224000   0.049853153   -0.29758199     0.035868304   -0.18693878     6.7261976e-05
   3225000   0.050156773   -0.29741313     0.035322511   -0.18686031     0.00043177243
   3226000   0.050463984   -0.29764556     0.035544122   -0.18641035     0.0002614621 
   3227000   0.050134748   -0.29748612     0.035555      -0.18673385    -0.00058675128
   3228000   0.050091671   -0.29763073     0.035758712   -0.18673936     0.0010516597 
   3229000   0.0509993     -0.29783766     0.035948126   -0.18539552    -1.926557e-05 
   3230000   0.050514735   -0.2972848      0.03541341    -0.18610418     0.0011267886 
   3231000   0.049918589   -0.29790988     0.036498698   -0.18653813     0.00021757352
   3232000   0.04990557    -0.297443       0.03603148    -0.18655799    -9.358869e-06 
   3233000   0.050196785   -0.29763093     0.036250455   -0.18609016     0.0004859414 
   3234000   0.051011805   -0.29743155     0.035746649   -0.18517213     0.0013669504 
   3235000   0.051138288   -0.29732718     0.036362107   -0.18426259    -0.00068638514
   3236000   0.050605772   -0.2975628      0.036398999   -0.18526004    -8.7405599e-05
   3237000   0.050462689   -0.29724746     0.03585915    -0.18569916     0.00091903929
   3238000   0.050365809   -0.29755234     0.035458459   -0.18655004    -4.5479289e-05
   3239000   0.049916417   -0.29775282     0.035992728   -0.18689029     0.0001845866 
   3240000   0.049780433   -0.29773785     0.036063621   -0.1870084     -0.00022918878
   3241000   0.049750073   -0.29777925     0.036130035   -0.18702892     0.00026036445
   3242000   0.049738364   -0.29814838     0.035597777   -0.18794787    -0.00021459762
   3243000   0.049814063   -0.29760242     0.035449889   -0.18743626     0.00020876218
   3244000   0.049717934   -0.29777456     0.035648763   -0.18755371     8.1979061e-05
   3245000   0.050437191   -0.29791047     0.035984607   -0.18627496     0.00036312042
   3246000   0.050079798   -0.29807954     0.035941172   -0.18702352    -0.0003335182 
   3247000   0.05023559    -0.29736382     0.036168176   -0.18584712     1.8465773e-05
   3248000   0.050012922   -0.29762342     0.035624681   -0.18698419    -0.00017522609
   3249000   0.049890829   -0.29754744     0.0360315     -0.18668453     0.00023761058
   3250000   0.049962361   -0.29780192     0.035562965   -0.18730025     0.00014071555
   3251000   0.049844683   -0.2978472      0.036157035   -0.18692797    -0.00022091226
   3252000   0.050266157   -0.29760693     0.035724487   -0.18648808     0.00037799339
   3253000   0.050157579   -0.29771214     0.035992088   -0.18648854    -0.001113453  
   3254000   0.050435374   -0.29758935     0.035782909   -0.18615826     0.00033935378
   3255000   0.050192824   -0.29800077     0.035748338   -0.18696806     0.000411735  
   3256000   0.049827469   -0.29774098     0.03612309    -0.18688151    -0.00040594132
   3257000   0.049876657   -0.29773921     0.035043167   -0.18788589     0.00087651877
   3258000   0.050208666   -0.29801018     0.035989009   -0.18671303    -0.00010625807
   3259000   0.05033588    -0.29808381     0.036179166   -0.1864057     -4.3385581e-05
   3260000   0.049775183   -0.29761951     0.035487569   -0.18747398     0.00042026379
   3261000   0.049967748   -0.29791407     0.035280566   -0.18768672     0.0010430415 
   3262000   0.050357157   -0.29825811     0.035451773   -0.18727547     0.00050375479
   3263000   0.050285705   -0.2980498      0.035754701   -0.18687141    -0.00032396582
   3264000   0.050141569   -0.29744349     0.035345647   -0.18689034     0.00029619042
   3265000   0.050239764   -0.29756135     0.036128055   -0.18607851    -0.00076529534
   3266000   0.050236146   -0.2977723      0.03592456    -0.18649838     0.00040414577
   3267000   0.050381706   -0.2979259      0.035733447   -0.18662477    -0.00013089745
   3268000   0.05004126    -0.29801725     0.036002449   -0.18695776     0.0011251154 
   3269000   0.049416956   -0.29796058     0.035766324   -0.1880736     -9.6881084e-05
   3270000   0.049547448   -0.29821044     0.035574941   -0.18831912    -0.00031365009
   3271000   0.050150864   -0.29797486     0.035271836   -0.18748158    -4.1308464e-05
   3272000   0.050505269   -0.29796738     0.03524334    -0.18697102     0.00044331862
   3273000   0.050210298   -0.29768211     0.036060303   -0.18631122     4.3931308e-05
   3274000   0.050276353   -0.29818055     0.036199417   -0.18657147    -0.00063048693
   3275000   0.050174344   -0.29801769     0.0353523     -0.18740873    -0.00027674691
   3276000   0.050240001   -0.29801325     0.03596678    -0.18669133     0.0011160339 
   3277000   0.050030019   -0.29781167     0.035587966   -0.18718352     6.2917514e-05
   3278000   0.049895813   -0.29789341     0.035793956   -0.18726056     0.0011525069 
   3279000   0.049947979   -0.29799062     0.035689133   -0.18738436     0.00111265   
   3280000   0.049777437   -0.29814325     0.035899427   -0.18758249    -8.4610132e-05
   3281000   0.049934051   -0.29807504     0.0362878     -0.186891       0.00014150896
   3282000   0.05013441    -0.29807434     0.035637189   -0.18724039     0.00027244871
   3283000   0.049797307   -0.29796419     0.035665592   -0.18760746    -0.00035102468
   3284000   0.050081962   -0.29823379     0.035768043   -0.18734765     0.00018249318
   3285000   0.050066865   -0.29803848     0.035660003   -0.18728302     0.00067541179
   3286000   0.049987358   -0.29787287     0.035377052   -0.18751962     0.00050283689
   3287000   0.049504091   -0.29788811     0.035513873   -0.18812289     0.00064388586
   3288000   0.049942364   -0.29847762     0.035366594   -0.18820231     0.00018943086
   3289000   0.050244532   -0.2981251      0.035006624   -0.18775654    -0.00022454391
   3290000   0.050272788   -0.29879265     0.035503124   -0.18788521     0.00083176386
   3291000   0.049701822   -0.29864576     0.035767103   -0.18833074    -0.00084131592
   3292000   0.049864174   -0.29830374     0.035380542   -0.18813177     0.00061829626
   3293000   0.050303761   -0.2982926      0.035671326   -0.1871705      0.00018104285
   3294000   0.049606522   -0.29839097     0.036041048   -0.18794493     0.00060363659
   3295000   0.049949722   -0.29842017     0.035303823   -0.1881966      0.00085317927
   3296000   0.05011282    -0.29813201     0.035542444   -0.18742519     0.00028333855
   3297000   0.050216515   -0.29826379     0.035373811   -0.18757007     0.00055784483
   3298000   0.049793727   -0.29851017     0.035949772   -0.18787463     0.00040966842
   3299000   0.050168037   -0.29828074     0.03581566    -0.18721788    -0.00023668265
   3300000   0.049569604   -0.29865952     0.035676709   -0.1886332     -0.00021522957
   3301000   0.050188013   -0.29834821     0.035520932   -0.18755011     0.00050987877
   3302000   0.049934618   -0.29793871     0.035505719   -0.1875359      4.253252e-05 
   3303000   0.049756365   -0.2979206      0.035739492   -0.18755137     0.0011584357 
   3304000   0.049763657   -0.29853914     0.034957991   -0.18894048     0.00017622914
   3305000   0.049850546   -0.29833639     0.035377411   -0.18818798    -0.00045691461
   3306000   0.050024121   -0.2985545      0.035987255   -0.1875359      0.00075000641
   3307000   0.049532192   -0.29852189     0.036069033   -0.18815937     0.00083880096
   3308000   0.049578829   -0.29826695     0.035517015   -0.18838648    -4.3776202e-05
   3309000   0.050613753   -0.2984413      0.035201843   -0.18732372     0.00034622614
   3310000   0.050017561   -0.29809882     0.035446757   -0.18763056     0.00029783308
   3311000   0.049614342   -0.29885161     0.035331167   -0.18910373    -0.00028956431
   3312000   0.050197974   -0.29853681     0.035805396   -0.18743931     0.0015771921 
   3313000   0.050055487   -0.2983149      0.036205654   -0.18703086     0.00076043959
   3314000   0.050319412   -0.29877477     0.035521598   -0.18777892    -0.00053866089
   3315000   0.050160998   -0.29846895     0.035716248   -0.18751606    -0.0001600681 
   3316000   0.049846039   -0.2985653      0.036038088   -0.18776298    -0.00010500053
   3317000   0.050283475   -0.2989425      0.03527869    -0.18824346     0.00049688456
   3318000   0.049576513   -0.29855312     0.035834425   -0.18835872     0.00020605136
   3319000   0.049630075   -0.29891929     0.036406277   -0.1880727      0.00028379409
   3320000   0.049905632   -0.29886546     0.036390666   -0.18762117    -2.0902131e-05
   3321000   0.049998981   -0.29896345     0.035306353   -0.18866346    -0.00021308257
   3322000   0.049485187   -0.29878836     0.035801142   -0.18876422     0.00070901407
   3323000   0.049574906   -0.29843581     0.036002789   -0.18807546     0.00033921855
   3324000   0.050384061   -0.29923504     0.036117508   -0.18754631    -0.00060298694
   3325000   0.049747238   -0.29873591     0.035541384   -0.18857848     3.2836793e-05
   3326000   0.049980558   -0.29932228     0.035793128   -0.18856315    -0.00042061793
   3327000   0.049913993   -0.29878876     0.0358986     -0.188024       0.00036043957
   3328000   0.049434421   -0.29893617     0.035193094   -0.18959623     0.00018898173
   3329000   0.049911108   -0.29904239     0.035468032   -0.18871252    -0.00013081198
   3330000   0.050321722   -0.29902304     0.035582069   -0.18796326     0.00074747359
   3331000   0.049718387   -0.29880435     0.035500235   -0.18873134     1.2899518e-05
   3332000   0.050013299   -0.29870769     0.035466274   -0.18822631    -1.007108e-06 
   3333000   0.050288842   -0.29913771     0.035298337   -0.18841098     0.0010025378 
   3334000   0.049760922   -0.29914824     0.035618899   -0.18889277    -0.00099372025
   3335000   0.049895289   -0.29901912     0.035592339   -0.18858868     0.00065742912
   3336000   0.049933988   -0.29865608     0.035709383   -0.18805055     0.00059915877
   3337000   0.049918314   -0.29894566     0.035689616   -0.18838341     0.00048957911
   3338000   0.050146153   -0.29894918     0.03610534    -0.18762946     0.00042032859
   3339000   0.049753453   -0.2985438      0.036111567   -0.18780686     0.00023187943
   3340000   0.050475119   -0.29890053     0.035492599   -0.18770014    -5.3139289e-06
   3341000   0.049815158   -0.29883094     0.035945036   -0.18816799     0.00067494174
   3342000   0.050119184   -0.29905685     0.035573792   -0.18830913     4.5039027e-05
   3343000   0.050103189   -0.29905686     0.035779955   -0.18812697     0.00088794953
   3344000   0.049899041   -0.29898208     0.035422557   -0.18871579     0.0009002314 
   3345000   0.049767335   -0.29922861     0.035768426   -0.188814       0.00058952678
   3346000   0.050266777   -0.29887316     0.035696037   -0.18778182     0.00066661938
   3347000   0.049963385   -0.29909538     0.035755858   -0.18839928    -0.00072528629
   3348000   0.049691434   -0.2985293      0.035623029   -0.18837393     0.00054854927
   3349000   0.050063267   -0.29894155     0.0355333     -0.18831819     0.0010847542 
   3350000   0.050329683   -0.29935976     0.035665986   -0.18820412    -0.00040492794
   3351000   0.049990922   -0.29863845     0.03580797    -0.18784894    -0.00014044216
   3352000   0.049905329   -0.29909692     0.03604572    -0.18819804    -0.00078767369
   3353000   0.04969836    -0.29910459     0.035827356   -0.1887345      0.00077747367
   3354000   0.050199767   -0.29917308     0.035786068   -0.18809222     0.00040207969
   3355000   0.050202425   -0.29905411     0.035495203   -0.18826013     1.996837e-05 
   3356000   0.050069687   -0.29898574     0.035678987   -0.18820707     0.00081356241
   3357000   0.050074411   -0.29906424     0.035935671   -0.1880218      0.00066278617
   3358000   0.049785357   -0.29898126     0.035207807   -0.18910024     0.00085912016
   3359000   0.049962391   -0.29921755     0.036501153   -0.18777765    -0.00041838068
   3360000   0.050035456   -0.29948875     0.035496099   -0.18894431     0.0011431689 
   3361000   0.049740591   -0.29883279     0.035712314   -0.1885144      0.00022133357
   3362000   0.050289656   -0.2991375      0.035873194   -0.18783469     0.0002641868 
   3363000   0.049940765   -0.29891467     0.035804909   -0.18820345     0.00030836504
   3364000   0.049717693   -0.29864445     0.036094914   -0.18797781    -0.00045783696
   3365000   0.050067234   -0.29924464     0.035749502   -0.18839913     0.0010623023 
   3366000   0.050378614   -0.29930713     0.035612377   -0.18813171     4.202694e-06 
   3367000   0.050672317   -0.29930139     0.035879387   -0.18741843     0.00062715045
   3368000   0.050209457   -0.29908618     0.036498601   -0.18727825     0.00019500226
   3369000   0.050570756   -0.29938211     0.03591068    -0.18762018     0.00080152062
   3370000   0.050186358   -0.2992945      0.035187571   -0.18883225     0.00049820338
   3371000   0.049650132   -0.29904128     0.036369885   -0.188201       0.00074916777
   3372000   0.050472041   -0.29948557     0.035919362   -0.18786303    -0.0007792852 
   3373000   0.050316526   -0.29976985     0.035484568   -0.18881536    -0.00016446109
   3374000   0.048996878   -0.29920594     0.036419529   -0.18929583    -0.00051016483
   3375000   0.050079285   -0.2991263      0.035867891   -0.18814433     0.00091305173
   3376000   0.050188775   -0.29914289     0.035764105   -0.18810048     0.00010418082
   3377000   0.04981605    -0.29967895     0.035231307   -0.18972839     0.00091532496
   3378000   0.049982372   -0.29944804     0.035526314   -0.188953       4.2554787e-05
   3379000   0.049752598   -0.29895836     0.035792188   -0.18854209     0.00094336619
   3380000   0.050070168   -0.29895031     0.035438892   -0.18841102     8.8804134e-05
   3381000   0.049726193   -0.29890944     0.035665149   -0.18865981    -0.00084044936
   3382000   0.050142996   -0.29919855     0.035619334   -0.18836958     0.0011233361 
   3383000   0.049803189   -0.29932652     0.035959809   -0.18866674    -0.001290187  
   3384000   0.049748094   -0.29946376     0.035889195   -0.18895724     0.0010301862 
   3385000   0.049550197   -0.29961925     0.036071724   -0.18922702     0.00045838049
   3386000   0.050616314   -0.29971268     0.035544053   -0.18824905    -0.00025924413
   3387000   0.050046351   -0.29934578     0.035445942   -0.18883516    -0.00079488838
   3388000   0.049659849   -0.29934793     0.035285617   -0.18957735     0.00011331552
   3389000   0.05019153    -0.29976976     0.035243491   -0.18924383     0.00011902718
   3390000   0.049791758   -0.29961432     0.035838579   -0.18909292     0.00033275263
   3391000   0.050234784   -0.29940795     0.035382956   -0.18867768    -0.00020433085
   3392000   0.050570022   -0.2996625      0.035905712   -0.18790665     0.00012361603
   3393000   0.050332071   -0.29950021     0.035592454   -0.18841452     0.00035184936
   3394000   0.049910928   -0.29931661     0.035949823   -0.18850522    -0.00012517537
   3395000   0.049652169   -0.29928842     0.035900306   -0.18891467     2.596864e-05 
   3396000   0.050182061   -0.29941989     0.035241247   -0.18891041     0.0011756516 
   3397000   0.050272621   -0.29926053     0.035493808   -0.18836266     0.00017728941
   3398000   0.050044444   -0.29904381     0.036244089   -0.18773789     0.00069538071
   3399000   0.050496558   -0.29956564     0.035575907   -0.18824978     0.00035913646
   3400000   0.050784926   -0.29938206     0.034868456   -0.18834113     0.0004477311 
   3401000   0.049912543   -0.29927566     0.035977591   -0.18843408    -0.00038221913
   3402000   0.049881989   -0.29988762     0.03572553    -0.18934393     0.0005258277 
   3403000   0.049181401   -0.29960204     0.035867932   -0.18996676    -3.068153e-05 
   3404000   0.050100108   -0.29978119     0.035171082   -0.18946479     4.447569e-05 
   3405000   0.050244519   -0.29945966     0.035566972   -0.18853077     4.9153825e-05
   3406000   0.049587176   -0.29959994     0.035742381   -0.18948159     0.0012003274 
   3407000   0.050044754   -0.2998934      0.03500687    -0.18982424     8.485816e-05 
   3408000   0.049859694   -0.29976844     0.036031769   -0.18895196     0.00025680855
   3409000   0.049884448   -0.29983647     0.036006676   -0.18900795     0.00012375444
   3410000   0.049434385   -0.29985859     0.035947344   -0.18976445    -0.00097919263
   3411000   0.049793802   -0.29954728     0.036212527   -0.18864887    -0.00029460909
   3412000   0.050811727   -0.3001167      0.036139846   -0.18776418     0.00024296343
   3413000   0.049601679   -0.29976392     0.036122254   -0.18924395     0.00016662895
   3414000   0.049877011   -0.29957449     0.035631319   -0.18913248    -2.5020792e-05
   3415000   0.05022475    -0.29929041     0.035596107   -0.18836203    -0.00072098924
   3416000   0.050045816   -0.29965297     0.035889685   -0.1886994     -0.00017901116
   3417000   0.050142328   -0.29980521     0.035550129   -0.18904644     0.0009681808 
   3418000   0.049859766   -0.29965804     0.035435288   -0.18943792     0.00068174663
   3419000   0.050026358   -0.2997002      0.03563203    -0.18903348     0.00028663147
   3420000   0.049788854   -0.29965824     0.035878453   -0.18910133    -0.00011488379
   3421000   0.050522449   -0.30038321     0.035331848   -0.18927258     0.0013660005 
   3422000   0.050626636   -0.29988897     0.036175468   -0.18777845    -9.4283811e-05
   3423000   0.049791841   -0.29962567     0.036661702   -0.18828103     0.00065832218
   3424000   0.050947956   -0.29983642     0.035841126   -0.18757829     0.0012192394 
   3425000   0.049922668   -0.30001508     0.03666815    -0.18846775    -0.00053051872
   3426000   0.050828693   -0.29982379     0.034968903   -0.18861676     0.00021916102
   3427000   0.050386446   -0.29973462     0.035326801   -0.18883302     0.00037766576
   3428000   0.049595275   -0.30016378     0.035917895   -0.18985777    -0.00065178108
   3429000   0.050369966   -0.29952103     0.035545396   -0.18842556     0.000226295  
   3430000   0.050754514   -0.30011718     0.035956041   -0.18803428    -0.00046507471
   3431000   0.050144384   -0.30022478     0.035773839   -0.18923922     0.00048799223
   3432000   0.050343355   -0.30058895     0.036221783   -0.188857       0.00014334399
   3433000   0.050250789   -0.3000193      0.035963569   -0.18868441    -0.00019261627
   3434000   0.05025356    -0.30036488     0.035972379   -0.18901702     0.00064198367
   3435000   0.049938454   -0.30036981     0.036000333   -0.18946663    -0.00058148995
   3436000   0.049912005   -0.30019171     0.03600266    -0.18932587    -0.0007909904 
   3437000   0.049754407   -0.29993922     0.036154263   -0.18915817     0.0008322898 
   3438000   0.049430224   -0.29971904     0.036169175   -0.18940931    -0.00015476323
   3439000   0.050370173   -0.30005138     0.035783479   -0.18871751     0.00075551488
   3440000   0.049822637   -0.30022416     0.035163274   -0.19033176     0.0013170064 
   3441000   0.049716486   -0.29993671     0.035641285   -0.1897255      0.00039180765
   3442000   0.050070321   -0.29992186     0.035757493   -0.18906373    -8.508369e-05 
   3443000   0.050068397   -0.30025966     0.035738664   -0.18942324     0.00080020014
   3444000   0.050987926   -0.29980841     0.035756631   -0.18757482     0.00080225207
   3445000   0.050230605   -0.30003717     0.036086596   -0.18860953     0.00055140193
   3446000   0.049835578   -0.30044677     0.036070118   -0.18962811    -0.00012066206
   3447000   0.049422716   -0.30062809     0.035744728   -0.19075407    -7.4069395e-05
   3448000   0.04997009    -0.30029331     0.035486389   -0.18985663     2.114143e-05 
   3449000   0.050471735   -0.29994361     0.035579232   -0.18866166     0.00086775085
   3450000   0.050460261   -0.29993339     0.036007838   -0.18824004     0.00010027618
   3451000   0.050194331   -0.30026219     0.036009748   -0.18896581     0.0008589298 
   3452000   0.04975656    -0.3008673      0.03628782    -0.18994945     0.0006282673 
   3453000   0.0501528     -0.30044573     0.035723403   -0.18949798     0.00010905825
   3454000   0.050292932   -0.3004214      0.036384227   -0.18860264    -0.00013048585
   3455000   0.050340034   -0.3004823      0.035777626   -0.18919949     0.00034062277
   3456000   0.050507015   -0.30038782     0.035465688   -0.18916649    -0.00013789548
   3457000   0.050252552   -0.30110272     0.03548481    -0.19024395     0.00037813791
   3458000   0.049974582   -0.30023499     0.035188833   -0.19008912     0.00011353507
   3459000   0.049914613   -0.30086619     0.035207027   -0.19079208    -0.00063992524
   3460000   0.049815002   -0.30092155     0.035801709   -0.19040216     0.0012132112 
   3461000   0.050055903   -0.30063978     0.03564937    -0.1899114      0.0010638176 
   3462000   0.049840778   -0.30110217     0.035940342   -0.19040548     7.4978743e-05
   3463000   0.050190704   -0.30098828     0.035676485   -0.19003059    -0.00029074072
   3464000   0.050440206   -0.30081634     0.03544017    -0.18972075     0.00044177049
   3465000   0.050104241   -0.30085281     0.035839142   -0.18986216    -0.00046779192
   3466000   0.050230502   -0.30053075     0.036135662   -0.18905419    -7.9290317e-05
   3467000   0.050677137   -0.30056049     0.036208017   -0.18834167     0.00048639859
   3468000   0.050226402   -0.30048464     0.036057518   -0.18909238     0.00026355814
   3469000   0.049883148   -0.30088181     0.036077545   -0.18998437     0.00013772986
   3470000   0.050025575   -0.3005375      0.036210912   -0.18929307    -0.00012989733
   3471000   0.050487275   -0.3006865      0.035629738   -0.18933074    -0.00014386157
   3472000   0.049493084   -0.3004215      0.035721665   -0.190465       0.00079369713
   3473000   0.050584665   -0.30112029     0.03570232    -0.18954587    -0.00033856261
   3474000   0.049881338   -0.30042717     0.035795539   -0.18981445     0.00047203371
   3475000   0.050238493   -0.30082256     0.035881848   -0.18958783     4.9787186e-05
   3476000   0.050690222   -0.30071723     0.035510042   -0.18917676     0.00010789156
   3477000   0.050047491   -0.30069476     0.036078354   -0.18955002    -0.00079368798
   3478000   0.050229526   -0.30123471     0.036476086   -0.1894192     -0.00049922789
   3479000   0.050064128   -0.30094951     0.035650906   -0.19020726     0.0002115057 
   3480000   0.049829688   -0.30103838     0.035659676   -0.190639      -9.3557951e-05
   3481000   0.049818075   -0.30085886     0.035762101   -0.19037447     0.00012922242
   3482000   0.049997681   -0.30095738     0.03584569    -0.19012001    -0.00029300119
   3483000   0.049863972   -0.30113536     0.035846493   -0.19049773    -0.00023581785
   3484000   0.049463264   -0.30098012     0.035772597   -0.19101741     0.00016320914
   3485000   0.049560183   -0.30078885     0.035599525   -0.19085385     0.00029346159
   3486000   0.049628576   -0.30084208     0.035777671   -0.19062635    -0.00033363548
   3487000   0.050204414   -0.30118968     0.035608321   -0.1902796      0.00011212352
   3488000   0.050385776   -0.30103573     0.036036728   -0.18942521    -0.00063144726
   3489000   0.050388488   -0.30143336     0.036201502   -0.189654      -0.00027891809
   3490000   0.04942608    -0.30118238     0.036087148   -0.19096089     0.00020197943
   3491000   0.049757091   -0.30109543     0.035575793   -0.19088882    -7.5481591e-06
   3492000   0.049830025   -0.30097531     0.035620962   -0.19061413     5.4478847e-05
   3493000   0.049834995   -0.30119553     0.035643932   -0.19080393     0.00049021752
   3494000   0.050448558   -0.30116111     0.036738103   -0.18875505    -0.00022280193
   3495000   0.050219271   -0.30131164     0.035864724   -0.19012287     0.00062210459
   3496000   0.050053603   -0.30090555     0.035572682   -0.19025731    -0.00031499131
   3497000   0.049918848   -0.3013974      0.036022799   -0.19050116    -0.00023010029
   3498000   0.04997033    -0.30128521     0.035522801   -0.19081176     0.00059937643
   3499000   0.049810055   -0.30117676     0.036351933   -0.19011457    -0.00044031192
   3500000   0.050322118   -0.30157275     0.035455661   -0.19063878     0.00057234924
   3501000   0.050074416   -0.30128604     0.035655868   -0.1905234      0.00064847784
   3502000   0.050391165   -0.30111577     0.035521762   -0.19001214     0.00092490461
   3503000   0.050280936   -0.30130533     0.035603216   -0.19028558     0.00094104521
   3504000   0.049560183   -0.30135494     0.035955182   -0.19106428     0.00079405856
   3505000   0.050105522   -0.30168524     0.035336833   -0.19119497    -0.00020990846
   3506000   0.049615931   -0.3006362      0.035401759   -0.19081535     0.0006414668 
   3507000   0.050350044   -0.30128252     0.035577004   -0.19018532     6.7995054e-05
   3508000   0.049381459   -0.30096171     0.03625133    -0.19064297     0.0004186041 
   3509000   0.049910144   -0.30167995     0.035278637   -0.19154093    -0.00019256361
   3510000   0.049895065   -0.30134347     0.035515303   -0.1909904      0.00016973667
   3511000   0.049709411   -0.30121799     0.035359587   -0.1912991      6.2792272e-05
   3512000   0.050118256   -0.30145092     0.036322069   -0.18995631     0.00025839177
   3513000   0.050213777   -0.30130403     0.035832133   -0.19015609     0.00014744634
   3514000   0.050272559   -0.30141474     0.035651587   -0.19035918     0.00062939805
   3515000   0.049585123   -0.30113901     0.035676619   -0.19108951    -0.00012965403
   3516000   0.049934542   -0.30109202     0.035703309   -0.19049172     0.00098228549
   3517000   0.049805553   -0.3011672      0.035325345   -0.19113834     0.00128322   
   3518000   0.05033586    -0.30127697     0.035703173   -0.19007488    -0.00066746961
   3519000   0.049810103   -0.30129311     0.035859517   -0.19072326     0.000287788  
   3520000   0.050665924   -0.3011141      0.035376099   -0.18974401     0.00022808656
   3521000   0.0499457     -0.30134699     0.035952645   -0.19048063    -0.00032312538
   3522000   0.049654942   -0.30133909     0.035961037   -0.19090045     0.00079520555
   3523000   0.049559686   -0.3013833      0.035849624   -0.19119894    -0.00037187218
   3524000   0.050315475   -0.30185072     0.035556471   -0.19082591    -0.00043836357
   3525000   0.049770619   -0.30154775     0.035481426   -0.19141521    -0.00029949473
   3526000   0.049759958   -0.30130272     0.035636555   -0.19103105    -0.00016024855
   3527000   0.050509686   -0.30143866     0.035421861   -0.19025716     0.00044631595
   3528000   0.049595368   -0.30126494     0.035951184   -0.1909255      0.0014328829 
   3529000   0.05064511    -0.3013047      0.035175793   -0.19016614     0.00090142291
   3530000   0.050864656   -0.30153436     0.035956131   -0.18928617    -0.00024577234
   3531000   0.049929945   -0.30166044     0.035667611   -0.19110274     0.00068908511
   3532000   0.049972708   -0.30166125     0.035988991   -0.19071803     0.00015270964
   3533000   0.04971935    -0.30167033     0.035930231   -0.19116588     0.0003342486 
   3534000   0.050046412   -0.30129562     0.035785135   -0.19044572    -0.00013259301
   3535000   0.050110375   -0.30150868     0.035816878   -0.19053109     0.00026094111
   3536000   0.049900761   -0.30172443     0.035647189   -0.19123093     0.00085652375
   3537000   0.050036901   -0.30167911     0.035965831   -0.19066277     0.00036808207
   3538000   0.050059256   -0.30132899     0.035720022   -0.19052493    -0.00043105312
   3539000   0.050130819   -0.30193935     0.035667587   -0.19108039     0.00072765266
   3540000   0.050108219   -0.30159717     0.035355037   -0.19108465     1.5704398e-05
   3541000   0.04992888    -0.3017013      0.035957776   -0.19085504     0.00095293425
   3542000   0.049977154   -0.30149624     0.035996227   -0.19053912    -8.2979114e-05
   3543000   0.050455758   -0.30153328     0.036477802   -0.18937673     0.00040094239
   3544000   0.05002245    -0.30146402     0.03564664    -0.19078854     0.00035453818
   3545000   0.049599829   -0.30164036     0.03590525    -0.19134017     0.00018556573
   3546000   0.050201243   -0.30178028     0.035895955   -0.19058732    -6.2468751e-05
   3547000   0.049749332   -0.30121362     0.035655428   -0.19093901     5.5033461e-05
   3548000   0.050055895   -0.30169216     0.035342894   -0.19127026     0.00061388824
   3549000   0.049920416   -0.30146697     0.035501475   -0.1910897      0.0011059125 
   3550000   0.050518078   -0.30147449     0.035683645   -0.19001862     0.00046070439
   3551000   0.050687821   -0.30186854     0.035924475   -0.18991724     0.00042791858
   3552000   0.05022072    -0.30186212     0.035904703   -0.1906312      0.00056041451
   3553000   0.049735342   -0.30132271     0.035573158   -0.19115135     0.00015131661
   3554000   0.050142915   -0.30175314     0.035730997   -0.19081262     0.00080928276
   3555000   0.049895261   -0.30175736     0.036270083   -0.19064922    -0.0001802763 
   3556000   0.050203083   -0.30198308     0.035592994   -0.19109032    -0.00064184798
   3557000   0.049800154   -0.30164137     0.036410554   -0.1905354      0.00052107748
   3558000   0.049752416   -0.30184704     0.034889805   -0.19233343    -0.00046552818
   3559000   0.049352057   -0.30192353     0.034941882   -0.19295834     0.0013428112 
   3560000   0.049926178   -0.30234503     0.035329168   -0.19213143     0.00033381748
   3561000   0.049603979   -0.30165068     0.035044063   -0.19220545    -3.5450935e-05
   3562000   0.049894425   -0.302199       0.035175406   -0.19218678     2.2731549e-05
   3563000   0.050191917   -0.30224413     0.035210348   -0.19175076     0.00070574904
   3564000   0.049715963   -0.30227259     0.035778879   -0.19192458     0.00040098767
   3565000   0.049698578   -0.30195792     0.036103409   -0.19131145    -0.0004391143 
   3566000   0.049845988   -0.30227533     0.035788858   -0.19172231     0.00048467125
   3567000   0.049884635   -0.30182538     0.035844226   -0.19115902     9.6090675e-05
   3568000   0.049898004   -0.30247893     0.036033696   -0.19160306    -0.00045799147
   3569000   0.050302991   -0.30222493     0.035289275   -0.19148603    -0.00024988842
   3570000   0.050262249   -0.30205248     0.035787362   -0.19087661    -0.0004092765 
   3571000   0.050718252   -0.30205634     0.036076023   -0.18990785    -0.00086272643
   3572000   0.050283316   -0.30210024     0.036077514   -0.19060262    -0.00083706082
   3573000   0.050518383   -0.30204045     0.036368239   -0.18989953     0.00055114096
   3574000   0.050127778   -0.30222295     0.036253883   -0.19078225     0.00053539225
   3575000   0.050129932   -0.30205037     0.035560072   -0.19130025    -0.00028309973
   3576000   0.050494428   -0.30193439     0.035794874   -0.19040276     0.00080696229
   3577000   0.049662321   -0.30215332     0.035429695   -0.19223495     0.000281173  
   3578000   0.049896399   -0.30243259     0.035857833   -0.19173499     0.00059041114
   3579000   0.049650718   -0.30190184     0.035167265   -0.1922633      0.00087186659
   3580000   0.050278779   -0.3020533      0.035294092   -0.19134591    -0.0002307498 
   3581000   0.050342354   -0.30184727     0.035679689   -0.19065892    -0.00013196481
   3582000   0.050026045   -0.30222454     0.035747544   -0.19144277     0.00048560778
   3583000   0.050025623   -0.30209392     0.035836261   -0.19122407     0.00064804541
   3584000   0.050540377   -0.30209848     0.035201195   -0.19109161    -0.00030275939
   3585000   0.049561446   -0.30225424     0.036041133   -0.19187573    -0.00020073042
   3586000   0.049678199   -0.30212831     0.035759902   -0.19185592     0.00061872623
   3587000   0.049865532   -0.30237352     0.036208496   -0.19137155     0.00054767135
   3588000   0.050420305   -0.30244512     0.035634426   -0.19118512    -0.00017543195
   3589000   0.049540245   -0.30219556     0.035493421   -0.19239656     0.00060766516
   3590000   0.049962994   -0.3022455      0.035421603   -0.19188425     2.2371546e-05
   3591000   0.049837597   -0.30210544     0.036127457   -0.19122641     0.00071084839
   3592000   0.050504824   -0.30194642     0.035370512   -0.19082356     0.00058108875
   3593000   0.050367211   -0.30204774     0.036201418   -0.19030038     0.00012921116
   3594000   0.049777642   -0.30199429     0.036038663   -0.19129398     0.00087024627
   3595000   0.049774873   -0.30220422     0.035623575   -0.19192315    -0.00058895327
   3596000   0.050071171   -0.30202235     0.035678423   -0.19124202     1.5241599e-05
   3597000   0.050166209   -0.30208897     0.03602813    -0.19081638    -0.00010514773
   3598000   0.050031009   -0.30206229     0.035557606   -0.19146301     0.000704359  
   3599000   0.050027812   -0.30232869     0.036295698   -0.19099611    -0.00092120395
   3600000   0.050242605   -0.30243759     0.035250915   -0.19182763    -3.823391e-05 
   3601000   0.050489241   -0.30230093     0.03541035    -0.1911616      0.00031984318
   3602000   0.050696879   -0.30208349     0.035283632   -0.19075944     0.00076061179
   3603000   0.049675898   -0.30251138     0.035928481   -0.19207386    -0.00045669122
   3604000   0.050011008   -0.30222683     0.035527408   -0.19168775     6.1017406e-05
   3605000   0.049610867   -0.30208553     0.035489751   -0.19218428     0.00029967375
   3606000   0.050126572   -0.30224912     0.03528113    -0.19178299     4.1133979e-05
   3607000   0.050217815   -0.30251089     0.035514703   -0.19167432    -0.00018659946
   3608000   0.050208449   -0.30249519     0.036311861   -0.19087551     0.00012049008
   3609000   0.049800646   -0.30251323     0.035936123   -0.19188095    -0.0011648006 
   3610000   0.049742136   -0.3027262      0.035593552   -0.19252426    -8.7586335e-05
   3611000   0.050013592   -0.30247022     0.035650787   -0.19180388     8.0536843e-05
   3612000   0.050014456   -0.30269091     0.035953424   -0.19172064     0.00013511444
   3613000   0.050191952   -0.30242973     0.035655863   -0.19149079    -0.00018552562
   3614000   0.050046849   -0.30263396     0.035646472   -0.19192205     9.9396364e-05
   3615000   0.049640696   -0.30239205     0.036126635   -0.19180918    -5.2498468e-07
   3616000   0.050325421   -0.30240806     0.035647642   -0.19127716     0.00084786589
   3617000   0.050095862   -0.30262262     0.035872816   -0.19161086    -0.00013469367
   3618000   0.050303761   -0.30270375     0.036439108   -0.19081387    -2.1810429e-05
   3619000   0.050005365   -0.30270057     0.035828517   -0.19186885     0.00033208932
   3620000   0.049913616   -0.30248196     0.035998174   -0.19161819     0.0001318755 
   3621000   0.050124991   -0.30248964     0.03582839    -0.19147861     0.00019353716
   3622000   0.050141978   -0.30253203     0.035767875   -0.19155604     0.00012073494
   3623000   0.050418373   -0.302815       0.035764399   -0.19142793     0.00099692692
   3624000   0.049864286   -0.30244502     0.036270908   -0.19138251    -0.00045941398
   3625000   0.050041816   -0.30268628     0.036417093   -0.1912113     -0.00050508915
   3626000   0.049728753   -0.30232192     0.036626781   -0.19110682    -0.0001708426 
   3627000   0.050298427   -0.30264725     0.035909191   -0.19129528    -0.00057876669
   3628000   0.050014113   -0.30280205     0.036054658   -0.19173107     0.00035809799
   3629000   0.049848444   -0.30289935     0.036053574   -0.19207794     0.00040685356
   3630000   0.049882913   -0.30300447     0.036020107   -0.19216482     0.00049495002
   3631000   0.0498731     -0.30288851     0.03578041    -0.19230327     3.6189076e-05
   3632000   0.050244339   -0.30302335     0.03558637    -0.19207533     0.00066693393
   3633000   0.050249764   -0.30294399     0.036107701   -0.19146651    -0.00026531591
   3634000   0.049807536   -0.30311249     0.035636703   -0.1927693      9.4446422e-06
   3635000   0.049726317   -0.30294814     0.035873254   -0.19249022     7.8854827e-05
   3636000   0.050485928   -0.30266232     0.035526046   -0.19141227     0.0010700819 
   3637000   0.050015253   -0.30273967     0.035600273   -0.19212136    -0.00022578749
   3638000   0.050144205   -0.30260026     0.035646809   -0.19174199     0.00038607357
   3639000   0.050424442   -0.30300612     0.03526918    -0.19210515     0.00051590888
   3640000   0.050275657   -0.30268141     0.035418682   -0.1918541      0.00023726964
   3641000   0.049933346   -0.30271486     0.035472146   -0.19234753     0.00030967494
   3642000   0.04963046    -0.30314494     0.03545343    -0.19325062     0.0004397187 
   3643000   0.049942727   -0.30317754     0.03550879    -0.19275949     6.5807039e-06
   3644000   0.049444359   -0.30301024     0.0360352     -0.19281329    -0.00024815968
   3645000   0.04972719    -0.30251002     0.035588446   -0.1923356      0.00030037884
   3646000   0.050448385   -0.30273274     0.035508173   -0.19155687     0.00030264131
   3647000   0.049844267   -0.30228631     0.035653887   -0.19187084     0.00025757737
   3648000   0.050435424   -0.30257894     0.035925891   -0.19100479     0.00080512064
   3649000   0.049587594   -0.30293522     0.035991628   -0.192567      -0.0004706495 
   3650000   0.049651634   -0.30296797     0.035705528   -0.19278979    -0.00042209539
   3651000   0.049808138   -0.30288341     0.036102726   -0.1920733     -0.00040422916
   3652000   0.050082617   -0.3027841      0.036037466   -0.19162756     0.00012594277
   3653000   0.050375533   -0.30296676     0.035855397   -0.19155294    -0.00030654361
   3654000   0.050076511   -0.30277879     0.035653789   -0.19201508     0.00028946077
   3655000   0.05067975    -0.30300005     0.035297313   -0.19168801     0.0011323065 
   3656000   0.050105216   -0.30312913     0.0362309     -0.19174525    -0.00071525798
   3657000   0.049656561   -0.30294738     0.035909496   -0.19255785     0.0003421937 
   3658000   0.049876981   -0.30280424     0.035796443   -0.19219715     0.0011158441 
   3659000   0.050321493   -0.30269767     0.035372048   -0.19184825     0.00076608568
   3660000   0.049716104   -0.30291101     0.036201003   -0.19214066    -0.00036695853
   3661000   0.050420681   -0.30275454     0.035727046   -0.19140135     0.00070127567
   3662000   0.050544936   -0.30257847     0.035665071   -0.19110088     0.00046264264
   3663000   0.049776336   -0.30264448     0.035179583   -0.19280521     0.00055113675
   3664000   0.050111507   -0.30262083     0.035453159   -0.19200526     0.00025352083
   3665000   0.049792786   -0.30297448     0.035667464   -0.19262265    -0.0007870069 
   3666000   0.049457982   -0.30289915     0.03605506    -0.19266191     0.00065200491
   3667000   0.049669273   -0.30251071     0.035708291   -0.19230331     0.00015161479
   3668000   0.05013413    -0.30311536     0.036277728   -0.19164129    -0.00047836569
   3669000   0.050424402   -0.30305035     0.035651123   -0.1917675      0.0012437351 
   3670000   0.049825893   -0.30330941     0.036233919   -0.19234148     0.00029614615
   3671000   0.049838945   -0.3031444      0.035280362   -0.19311045     6.1665517e-05
   3672000   0.050154392   -0.30326406     0.035302974   -0.19273435     0.00056690772
   3673000   0.050014718   -0.30311231     0.035300615   -0.19279446     0.00039916659
   3674000   0.04974446    -0.30270298     0.036062481   -0.19202862    -0.00061195034
   3675000   0.050128309   -0.3029336      0.035121536   -0.19262445     5.3474346e-05
   3676000   0.049865905   -0.30317794     0.035888736   -0.19249517     0.00018738286
   3677000   0.049646758   -0.30294488     0.035920709   -0.19255884    -8.0840366e-05
   3678000   0.050264062   -0.30272817     0.035696623   -0.19164032     0.00092632918
   3679000   0.050183637   -0.30282838     0.035780979   -0.1917768      0.00055751456
   3680000   0.049988131   -0.30315343     0.03602647    -0.1921496      3.1638175e-05
   3681000   0.050388685   -0.30294239     0.035260745   -0.19210349    -0.00034799818
   3682000   0.050427034   -0.30326056     0.036126888   -0.191498       8.8477896e-06
   3683000   0.050126339   -0.30360137     0.035672662   -0.19274405    -7.003365e-05 
   3684000   0.049688135   -0.30335519     0.03562519    -0.1932026     -3.0063372e-05
   3685000   0.04971611    -0.30301382     0.035803976   -0.1926405     -0.00057613152
   3686000   0.050429964   -0.30311196     0.036247775   -0.19122412    -0.00059630079
   3687000   0.05033272    -0.30303577     0.035267091   -0.19227447     0.00091200054
   3688000   0.049774485   -0.30320978     0.035764672   -0.1927882     -0.00017565299
   3689000   0.050723243   -0.30312708     0.035994594   -0.19105253     0.00039475682
   3690000   0.05073341    -0.30308805     0.036423172   -0.19056968    -0.00031920904
   3691000   0.050424103   -0.30257011     0.03549945    -0.19143939     0.0013846226 
   3692000   0.050209546   -0.30291604     0.035704699   -0.19190188     0.00036499427
   3693000   0.050340829   -0.30281847     0.035815081   -0.19149702     0.00051407263
   3694000   0.050222875   -0.30288992     0.034988179   -0.19257229     0.00051716715
   3695000   0.049630373   -0.30253137     0.035911382   -0.19217923     0.00048925046
   3696000   0.049912831   -0.30276638     0.035803895   -0.19209807     0.00035124021
   3697000   0.04996385    -0.30315244     0.035727658   -0.19248384     0.00071007075
   3698000   0.050327925   -0.30305016     0.035521148   -0.19204199     0.00018668371
   3699000   0.049664801   -0.30287668     0.035630195   -0.19275409    -4.7198005e-05
   3700000   0.050154325   -0.30266367     0.03598506    -0.19145198     0.00038377938
   3701000   0.049752527   -0.30253499     0.036165254   -0.19174576     0.00085982447
   3702000   0.050568423   -0.30289497     0.035903289   -0.19114394    -0.00069040457
   3703000   0.049717535   -0.30330209     0.035841089   -0.19288951     0.00082723665
   3704000   0.049670053   -0.30302527     0.035333967   -0.19319103     0.00077110911
   3705000   0.049995006   -0.30275744     0.035342831   -0.19242694     5.9454449e-06
   3706000   0.049800889   -0.30297812     0.035743407   -0.1925382     -0.00015582465
   3707000   0.050689592   -0.30304348     0.035055296   -0.1919587      0.00051732513
   3708000   0.048940157   -0.30275293     0.0360509     -0.19329653     0.00045833993
   3709000   0.049689732   -0.30323034     0.035542818   -0.19315774     0.00020443605
   3710000   0.049663983   -0.30282746     0.034928278   -0.19340802     0.00025776038
   3711000   0.049966571   -0.30292886     0.035945574   -0.19203827     0.00026286837
   3712000   0.050171195   -0.30257212     0.035922719   -0.19139747     0.00014637153
   3713000   0.050690934   -0.30287603     0.035858354   -0.19098618    -0.00040800548
   3714000   0.050416073   -0.30306543     0.035975667   -0.19147053     7.0790444e-05
   3715000   0.04999257    -0.30345247     0.036006857   -0.1924616      0.00049376109
   3716000   0.050160752   -0.30293569     0.034598892   -0.19310053     0.00089544351
   3717000   0.050183573   -0.30331569     0.03580102    -0.19224416     9.500435e-05 
   3718000   0.050205976   -0.30287561     0.035678369   -0.19189314     0.0010150954 
   3719000   0.050416457   -0.30327122     0.036088347   -0.19156307     0.00016591636
   3720000   0.049749374   -0.30305309     0.035640951   -0.19279289    -8.350374e-05 
   3721000   0.050421402   -0.30294238     0.035990096   -0.19132506     0.00034246983
   3722000   0.050429945   -0.30290916     0.036410917   -0.1908582     -7.3814493e-05
   3723000   0.050217203   -0.30297681     0.036020264   -0.1916356      0.00085640975
   3724000   0.050173903   -0.30330531     0.035936723   -0.19211259     3.2546862e-06
   3725000   0.049816944   -0.30296763     0.035396257   -0.19285078    -0.00017324744
   3726000   0.049832618   -0.303312       0.036329967   -0.19223793    -0.00028986185
   3727000   0.050875473   -0.3029857      0.035780416   -0.190897       0.00020064042
   3728000   0.050038678   -0.30312281     0.036119069   -0.19195057     0.00076951237
   3729000   0.050633962   -0.30343012     0.035562152   -0.19192192     0.00048717842
   3730000   0.050153601   -0.3028993      0.035545783   -0.19212797     0.00042751039
   3731000   0.049763747   -0.30341356     0.036568928   -0.19220382    -0.0001819837 
   3732000   0.049989973   -0.30346803     0.035448203   -0.1930397     -9.9525493e-05
   3733000   0.050147775   -0.30347531     0.035167769   -0.19309073    -0.00086304463
   3734000   0.049331163   -0.30384202     0.035925924   -0.19392412    -5.1074965e-05
   3735000   0.048963457   -0.30366343     0.036168353   -0.19405462     0.00064892775
   3736000   0.04983949    -0.3033686      0.035499313   -0.19311488    -0.0001124145 
   3737000   0.050081331   -0.30337484     0.036206491   -0.1920512     -0.00048592663
   3738000   0.050076364   -0.30345331     0.035891621   -0.19245199     6.0161668e-06
   3739000   0.049716151   -0.30361687     0.035525344   -0.19352211     0.00043642227
   3740000   0.04954043    -0.30321978     0.035722008   -0.19319192    -1.3790291e-05
   3741000   0.049614208   -0.30359814     0.035070896   -0.19411073     0.00013654854
   3742000   0.0498292     -0.30356333     0.035615784   -0.19320857     0.00021117501
   3743000   0.049437687   -0.30352733     0.035957041   -0.19341855     0.0002028561 
   3744000   0.050338304   -0.30376898     0.036467498   -0.1917989     -0.00079316308
   3745000   0.05016068    -0.30347914     0.035082622   -0.19316035     0.00076278709
   3746000   0.04936628    -0.30344066     0.036207197   -0.19318882     0.00043434036
   3747000   0.049477116   -0.303571       0.035829926   -0.19353019     0.00042318743
   3748000   0.050262247   -0.30389855     0.035587127   -0.19292292     0.00023889408
   3749000   0.049669102   -0.30382642     0.035414697   -0.19391287     0.00027161686
   3750000   0.049402282   -0.30370069     0.035291682   -0.19431036     0.00030160023
   3751000   0.049848442   -0.30373315     0.034939623   -0.19402569     2.7376507e-05
   3752000   0.049923819   -0.30316159     0.035672831   -0.19260787     0.00076685345
   3753000   0.049772649   -0.30320418     0.036323132   -0.19222689    -0.00020299072
   3754000   0.050407345   -0.30399132     0.035936359   -0.19244882     0.00022306498
   3755000   0.050006823   -0.30370265     0.035700972   -0.19299629    -0.00069891575
   3756000   0.050497495   -0.3042831      0.036005352   -0.1925364     -8.7424511e-05
   3757000   0.050221191   -0.30371217     0.035554429   -0.19283082    -0.00017896379
   3758000   0.050912476   -0.30371544     0.035513399   -0.19183825     0.00071877158
   3759000   0.050345086   -0.30387012     0.035278464   -0.1930789      0.00013506188
   3760000   0.04968357    -0.30367005     0.035569508   -0.19358        0.00076059162
   3761000   0.050225278   -0.30390652     0.036533773   -0.19203969    -0.00010638609
   3762000   0.049933299   -0.30380232     0.035646801   -0.1932604     -0.00027749771
   3763000   0.049741779   -0.30346995     0.035407554   -0.19345454     0.00049484555
   3764000   0.050331642   -0.30356812     0.035300602   -0.19277493     0.0014698435 
   3765000   0.050077342   -0.30370233     0.035820281   -0.19277088     0.00022536537
   3766000   0.049710715   -0.30354095     0.035569211   -0.19341048    -0.00014237105
   3767000   0.049971009   -0.30374764     0.035776457   -0.19301951     0.00033833943
   3768000   0.050421153   -0.3038869      0.035529592   -0.19273046     0.0017123572 
   3769000   0.049729179   -0.30396347     0.035510778   -0.19386373    -0.00020561852
   3770000   0.050607732   -0.30370009     0.03625927    -0.19153412    -0.00038547895
   3771000   0.049704386   -0.30382816     0.035863848   -0.19341254     0.00068709635
   3772000   0.049862515   -0.30382422     0.035659196   -0.19337608    -7.31401e-05  
   3773000   0.049878357   -0.30366515     0.035289285   -0.19356316    -0.00060364528
   3774000   0.049318816   -0.30365804     0.035487245   -0.19419734     0.00034766926
   3775000   0.049182943   -0.30366118     0.036060206   -0.19383132    -0.00027148664
   3776000   0.050178282   -0.30407817     0.035113499   -0.1937021      0.00040881482
   3777000   0.049694963   -0.30341826     0.035998167   -0.19288245    -3.7437904e-05
   3778000   0.050385716   -0.30368793     0.035688072   -0.19242616    -0.0002370821 
   3779000   0.050338662   -0.30419324     0.035704753   -0.19298537     0.00040935316
   3780000   0.050107971   -0.30377997     0.035293609   -0.19332925     0.00032881441
   3781000   0.04987213    -0.30414943     0.035790827   -0.19355523    -0.00046931008
   3782000   0.050005957   -0.30385869     0.035833261   -0.19302133    -0.00041214526
   3783000   0.050685547   -0.30379712     0.036149133   -0.19162457    -0.00016591776
   3784000   0.050137013   -0.30410204     0.035877122   -0.19302425     5.2065294e-05
   3785000   0.049863085   -0.30396304     0.036126185   -0.19304705    -0.0001050876 
   3786000   0.049994179   -0.30405027     0.035706775   -0.19335706     0.00020957255
   3787000   0.050101996   -0.30394699     0.035431007   -0.19336784     0.00051633028
   3788000   0.049885673   -0.30413955     0.036044737   -0.19327113     0.00026577105
   3789000   0.04982952    -0.30436512     0.035907371   -0.19371829    -0.00017087123
   3790000   0.05064787    -0.30418876     0.036003597   -0.19221826     0.00038306761
   3791000   0.050511314   -0.30399841     0.035485299   -0.19275102    -0.00053462896
   3792000   0.049589026   -0.3042778      0.035883938   -0.19401512    -0.00037376247
   3793000   0.050321247   -0.30399758     0.035482453   -0.19303812     0.00078895649
   3794000   0.049942626   -0.30391368     0.036070671   -0.19293391    -0.0010610388 
   3795000   0.050646604   -0.30421695     0.035413992   -0.19283795     0.00099634929
   3796000   0.050000496   -0.30390047     0.035059952   -0.19384461     0.00027831077
   3797000   0.049788048   -0.30398187     0.036153328   -0.19315129     0.00048943261
   3798000   0.049785109   -0.30429463     0.035586903   -0.19403489     0.00058380329
   3799000   0.050226671   -0.30434421     0.035687748   -0.19332132     0.00012294977
   3800000   0.050314121   -0.30398866     0.035596705   -0.19292564     0.00042423513
   3801000   0.050148426   -0.30425229     0.035168903   -0.1938656     -0.00057498141
   3802000   0.050393944   -0.30399166     0.035325016   -0.19308061     0.00057571272
   3803000   0.049909668   -0.30435427     0.036187923   -0.19330668     0.00090237142
   3804000   0.049798467   -0.30435717     0.035680091   -0.1939842     -0.00029939983
   3805000   0.05043195    -0.30443681     0.035921322   -0.19287245     2.0695418e-05
   3806000   0.049570445   -0.30460691     0.036112884   -0.19414316    -0.00038969365
   3807000   0.049907681   -0.30476574     0.035372662   -0.19453639    -0.00019287635
   3808000   0.050189019   -0.30480349     0.035408391   -0.19411643    -0.00069243784
   3809000   0.05099416    -0.3042185      0.035880406   -0.19185179     0.00015658187
   3810000   0.050042173   -0.3043019      0.035985753   -0.19325773     0.0011033065 
   3811000   0.050530333   -0.30460794     0.035697182   -0.19312015     0.00019180546
   3812000   0.049765313   -0.30423698     0.036062525   -0.1935313     -3.2640723e-05
   3813000   0.050305978   -0.3046509      0.035162124   -0.19403468    -9.2077826e-05
   3814000   0.049698416   -0.3046322      0.035588863   -0.19450052    -0.00082337248
   3815000   0.049946115   -0.30472495     0.035617822   -0.19419278    -0.0007778369 
   3816000   0.049552721   -0.30476592     0.035353144   -0.19508849     0.00090728628
   3817000   0.049946448   -0.30431022     0.035815224   -0.19358016     0.00028052591
   3818000   0.049689441   -0.30451177     0.035650423   -0.19433199    -0.00025586886
   3819000   0.050266868   -0.30446065     0.035771282   -0.19329393     2.3314466e-05
   3820000   0.050386941   -0.30467503     0.036054601   -0.1930449      0.00041067144
   3821000   0.049940367   -0.30454691     0.036069872   -0.19357132    -7.0831443e-05
   3822000   0.049757356   -0.3043408      0.035745267   -0.19396432     0.0010812813 
   3823000   0.04959173    -0.30470594     0.035860167   -0.19446298     9.5211194e-06
   3824000   0.04998691    -0.30488683     0.036003203   -0.1939081     -0.00027100939
   3825000   0.049604683   -0.30453724     0.035547676   -0.19458734     0.00014272971
   3826000   0.049768393   -0.3044821      0.035801536   -0.19403279     0.00024604193
   3827000   0.049794825   -0.3041293      0.035511801   -0.19393008     0.00098845852
   3828000   0.04965333    -0.30452287     0.035747389   -0.19430029     0.00052153038
   3829000   0.049828249   -0.30446982     0.03566403    -0.19406824     0.00060076515
   3830000   0.049708392   -0.30467106     0.034913579   -0.1951997      0.00018509747
   3831000   0.049674022   -0.30492312     0.035821151   -0.19459575    -0.00046241212
   3832000   0.05027823    -0.30452369     0.035115515   -0.1939957      0.00094346784
   3833000   0.049797381   -0.30464911     0.035972439   -0.19398542    -0.00048978962
   3834000   0.050404369   -0.30457682     0.035459719   -0.19351542     0.00011316947
   3835000   0.050137001   -0.30488136     0.035887374   -0.19379334     0.00030399203
   3836000   0.049923709   -0.30461906     0.035914901   -0.19382342    -0.00053258503
   3837000   0.049936852   -0.30437987     0.035615927   -0.1938635      0.00077481653
   3838000   0.050255042   -0.30470304     0.035578537   -0.19374681    -0.00030351415
   3839000   0.050696864   -0.3050177      0.035337974   -0.19363933    -0.00011745126
   3840000   0.049846641   -0.3046639      0.036484536   -0.19341422     0.00066364407
   3841000   0.049476621   -0.30488599     0.036207259   -0.19446859    -0.00056540967
   3842000   0.050648727   -0.30463912     0.03578551    -0.19288542     9.2248122e-05
   3843000   0.050077602   -0.30489855     0.0353936     -0.19439339     0.00012817783
   3844000   0.049848069   -0.30520741     0.035479132   -0.194961       4.9369329e-06
   3845000   0.050228493   -0.30485618     0.03614317    -0.19337513     0.00015268253
   3846000   0.050138358   -0.30487781     0.035652582   -0.19402255     0.0010507527 
   3847000   0.050559295   -0.30470932     0.035211002   -0.19366427     0.0013770896 
   3848000   0.050111703   -0.30493883     0.03578118    -0.19399495     9.2161188e-05
   3849000   0.049973275   -0.30495141     0.035508356   -0.19448798     7.340037e-05 
   3850000   0.04980024    -0.30486731     0.035813465   -0.1943583      0.00047082768
   3851000   0.049816299   -0.30510806     0.035629334   -0.1947591      0.0012472952 
   3852000   0.049448222   -0.30491791     0.035288671   -0.19546169    -0.0010362505 
   3853000   0.050028697   -0.30508016     0.035600286   -0.19444167     0.00046373149
   3854000   0.050361619   -0.30505646     0.035629404   -0.1938895      0.00048765247
   3855000   0.049855242   -0.30527913     0.035617732   -0.19488336     0.00079163136
   3856000   0.049596995   -0.30484692     0.036025225   -0.194431       0.00018119662
   3857000   0.049961672   -0.30488167     0.03557879    -0.1943652      0.00023724078
   3858000   0.049993918   -0.30511048     0.035404558   -0.19471989     2.1922228e-05
   3859000   0.050221517   -0.30507548     0.036269999   -0.19347806     0.00015714299
   3860000   0.049666      -0.30494404     0.03565746    -0.19479239     0.00076938424
   3861000   0.049846436   -0.30520371     0.035396837   -0.19504204    -0.00079874815
   3862000   0.049979425   -0.30485652     0.036107448   -0.19378477     0.00056569834
   3863000   0.049378467   -0.30474354     0.036280869   -0.19439975    -0.00081959694
   3864000   0.049843164   -0.30517156     0.035894769   -0.19451687     0.00013522677
   3865000   0.049748311   -0.3048486      0.03598818    -0.19424277    -6.243857e-05 
   3866000   0.050110619   -0.30479684     0.034626395   -0.19500937     0.00045387357
   3867000   0.049519347   -0.30504554     0.035459618   -0.19531169     4.490972e-05 
   3868000   0.049850394   -0.30487863     0.03533917    -0.19476869     0.00080631245
   3869000   0.049903453   -0.30484925     0.035797174   -0.19420172     0.0010622152 
   3870000   0.050406753   -0.30473983     0.035364175   -0.19377041     0.0003881043 
   3871000   0.050605998   -0.30459746     0.035477041   -0.19321632     0.00039957833
   3872000   0.050153527   -0.30479878     0.035373169   -0.19420017     0.00079353245
   3873000   0.050385715   -0.304884       0.035474271   -0.19383603     0.00091572236
   3874000   0.049891921   -0.30501412     0.035694221   -0.19448685    -0.00018162808
   3875000   0.049774134   -0.30448618     0.035310549   -0.19451925     0.00066669255
   3876000   0.049854787   -0.30508138     0.035166253   -0.19513777     0.00057881297
   3877000   0.049472508   -0.30515977     0.036250837   -0.19470496     0.00010294863
   3878000   0.050088409   -0.30498928     0.036192592   -0.19366893    -0.00018298615
   3879000   0.049781075   -0.30505731     0.03565738    -0.19473314     0.00064234672
   3880000   0.050457092   -0.30447984     0.035464112   -0.19333497     0.00090806847
   3881000   0.050052569   -0.30484918     0.036518008   -0.19325717    -0.00023680757
   3882000   0.050760983   -0.304856       0.035898652   -0.19282078     0.0002101281 
   3883000   0.050214749   -0.30508646     0.036270336   -0.19349886    -0.00027878913
   3884000   0.050064166   -0.30511995     0.036170336   -0.19385821    -0.00024038368
   3885000   0.050284658   -0.30503229     0.035733685   -0.19387648     0.00011217552
   3886000   0.050459332   -0.30519365     0.036201462   -0.19330808    -7.4382344e-05
   3887000   0.050035986   -0.30502239     0.036265591   -0.19370766     3.5139262e-05
   3888000   0.050294726   -0.30519008     0.035729344   -0.19402351     0.00057224573
   3889000   0.04978643    -0.30535032     0.036557273   -0.19411822    -0.00051839646
   3890000   0.050232865   -0.30519278     0.035468157   -0.19438019     0.00082530222
   3891000   0.049922614   -0.30550412     0.03551024    -0.19511479     0.00027979483
   3892000   0.049820315   -0.3052291      0.035898048   -0.1946054      5.3206562e-05
   3893000   0.049606629   -0.30542432     0.035260229   -0.19575895    -0.00011384032
   3894000   0.04983384    -0.30485349     0.035313717   -0.19479383     0.0011766482 
   3895000   0.049710263   -0.3049355      0.036285531   -0.19408939    -5.6884538e-05
   3896000   0.04935066    -0.30482551     0.035724733   -0.19507957     0.0013084682 
   3897000   0.049485007   -0.30493171     0.035653095   -0.19505589    -0.00010906163
   3898000   0.050262712   -0.30501819     0.035282314   -0.19434667     0.00083204115
   3899000   0.050192825   -0.30460317     0.036030145   -0.19328864     9.3744136e-05
   3900000   0.050262352   -0.30516255     0.035816063   -0.19395782     0.00054743975
   3901000   0.050610624   -0.30506896     0.035532812   -0.19362511     0.00083215144
   3902000   0.050444992   -0.30507463     0.036100989   -0.19331103     0.00041709286
   3903000   0.050040989   -0.30528025     0.03566243    -0.19456118     0.00031554969
   3904000   0.049768322   -0.305107       0.036041841   -0.19441749    -0.00066572535
   3905000   0.050084871   -0.30499978     0.03601632    -0.193861      -0.00070240503
   3906000   0.049479916   -0.3048982      0.035554965   -0.19512815     0.0010323301 
   3907000   0.049751313   -0.30533041     0.03534045    -0.19536781    -0.00040221282
   3908000   0.050161336   -0.30519956     0.035370909   -0.19459151     0.00078624028
   3909000   0.049495322   -0.30521579     0.035927144   -0.19505045     0.00026806647
   3910000   0.050495405   -0.30553757     0.035518137   -0.19428121     0.00021823117
   3911000   0.049582664   -0.30550469     0.035988804   -0.19514669     0.00064372486
   3912000   0.050048669   -0.30523955     0.035853179   -0.19431821    -7.9035964e-06
   3913000   0.050193969   -0.30509442     0.035853262   -0.19395507    -5.772258e-06 
   3914000   0.049565015   -0.30500443     0.036150343   -0.19451136     0.0002030008 
   3915000   0.049554166   -0.3053898      0.036338359   -0.19472499     0.00081339805
   3916000   0.049751535   -0.30555917     0.035807212   -0.19512947     0.00071191415
   3917000   0.049575648   -0.3055653      0.036177084   -0.19502954     0.00036976004
   3918000   0.049709369   -0.30534884     0.035787255   -0.19500235     7.7615867e-05
   3919000   0.050020895   -0.30575506     0.035618293   -0.19511026    -0.00015772189
   3920000   0.049609566   -0.30543778     0.035457666   -0.19557057     0.0011248712 
   3921000   0.049814688   -0.30525164     0.035721586   -0.19481284     0.00088678127
   3922000   0.049647415   -0.30519584     0.035785658   -0.19494386    -4.9111025e-05
   3923000   0.050111715   -0.3055187      0.03577047    -0.1945855      0.00051558092
   3924000   0.050431815   -0.3054256      0.035546491   -0.19423627    -0.00037008945
   3925000   0.0499062     -0.30549686     0.035968378   -0.19467402     0.00016650663
   3926000   0.050265752   -0.30539909     0.036013104   -0.19399222    -0.00044308354
   3927000   0.050168058   -0.30544707     0.035599492   -0.19460035    -0.00047229127
   3928000   0.050320177   -0.30549228     0.036071656   -0.19394523    -0.0013260053 
   3929000   0.050111878   -0.30529442     0.035766829   -0.19436462     0.00075293024
   3930000   0.049610354   -0.30566726     0.035650068   -0.19560646     0.00015256187
   3931000   0.049876973   -0.30558841     0.035760148   -0.19501763     9.0546742e-05
   3932000   0.049717055   -0.30547971     0.035101799   -0.19580714     0.00099710099
   3933000   0.050016836   -0.30560617     0.03544011    -0.19514565     0.00013890128
   3934000   0.04995407    -0.30552663     0.035103572   -0.19549679     0.00059697832
   3935000   0.049811436   -0.3054421      0.036337699   -0.19439206    -0.00027754686
   3936000   0.050343155   -0.30546973     0.035503704   -0.19445617     0.00018247722
   3937000   0.050434748   -0.30534728     0.035749005   -0.19395104     0.0014176384 
   3938000   0.049636481   -0.30569276     0.035469292   -0.19577355    -0.00045742518
   3939000   0.049881163   -0.30538052     0.035563865   -0.19499974     0.00020034526
   3940000   0.049876242   -0.30557345     0.035250225   -0.19551369     0.0018690578 
   3941000   0.049415297   -0.30528626     0.035961231   -0.19520686    -0.00020547778
   3942000   0.049604264   -0.30570712     0.035168386   -0.19613713     0.0009616447 
   3943000   0.049462424   -0.30542827     0.035899697   -0.19533972     0.00070332426
   3944000   0.04940294    -0.3055249      0.035667168   -0.1957581      0.00078551198
   3945000   0.04988197    -0.30593589     0.035653589   -0.19546417     0.0010482504 
   3946000   0.049741934   -0.30579887     0.035308118   -0.19588266     4.259636e-05 
   3947000   0.049985668   -0.30573204     0.035455822   -0.19530255     7.0293689e-05
   3948000   0.050180733   -0.30609287     0.035532839   -0.19529378     2.083041e-05 
   3949000   0.049907437   -0.30542077     0.035486169   -0.19507828     0.00044728731
   3950000   0.050261961   -0.30562956     0.035982995   -0.19425849     4.608437e-05 
   3951000   0.049601383   -0.30558153     0.036078906   -0.19510535    -0.0001127805 
   3952000   0.049927171   -0.30554096     0.035553307   -0.19510173     0.0010175571 
   3953000   0.049692274   -0.30561192     0.036430343   -0.19464798    -0.00064958782
   3954000   0.049864327   -0.30571108     0.035431383   -0.19548803     0.00016942471
   3955000   0.049932539   -0.30579629     0.035175605   -0.19572671    -0.00010014177
   3956000   0.050357947   -0.3057041      0.036097728   -0.19407432     0.00079690166
   3957000   0.050074261   -0.30599467     0.036678887   -0.19420924    -0.00065701267
   3958000   0.05058525    -0.30584242     0.03548441    -0.19448503    -1.2478722e-05
   3959000   0.050456751   -0.30597423     0.035525237   -0.19476875    -0.0001585224 
   3960000   0.050132412   -0.30586919     0.035858232   -0.19481719     0.00045714208
   3961000   0.050018878   -0.30583111     0.03583309    -0.19497455    -0.00027661333
   3962000   0.049887645   -0.30578702     0.035930622   -0.19502976    -6.270195e-05 
   3963000   0.050093181   -0.30571269     0.036071101   -0.19450666     0.00058375446
   3964000   0.049472539   -0.30577638     0.035773909   -0.19579845     0.00091791293
   3965000   0.049636156   -0.30586626     0.035521074   -0.19589576     0.00071733297
   3966000   0.049451529   -0.30580044     0.035673689   -0.19595424     0.00037554013
   3967000   0.050077636   -0.30538504     0.035299158   -0.19497427     0.00050640981
   3968000   0.050668654   -0.3059292      0.03569118    -0.19423994     0.00049355317
   3969000   0.050343401   -0.3061797      0.035769106   -0.19490037     0.00020679634
   3970000   0.050271168   -0.30563419     0.035992557   -0.19423974     0.00047947722
   3971000   0.049769619   -0.30591956     0.035899917   -0.19537003    -0.0003044247 
   3972000   0.050012262   -0.30586794     0.035635681   -0.19521871    -0.00051970169
   3973000   0.049828429   -0.3058538      0.03562795    -0.19548803     0.00014860964
   3974000   0.049633419   -0.30583697     0.035715071   -0.19567657    -5.7124332e-05
   3975000   0.050036407   -0.30564678     0.035323402   -0.19527361     0.0010506642 
   3976000   0.050457793   -0.30579432     0.035995098   -0.19411742    -8.6951011e-05
   3977000   0.050349361   -0.30593785     0.035826422   -0.19459226     0.00084345947
   3978000   0.050579061   -0.30639268     0.035455669   -0.19507332     0.00059937606
   3979000   0.050101081   -0.30602695     0.03532644    -0.19555374     0.0006891858 
   3980000   0.04981162    -0.30602046     0.036139785   -0.19516807     0.00036413587
   3981000   0.050104407   -0.30586858     0.035786517   -0.1949303      0.00047284461
   3982000   0.049819781   -0.30606038     0.035528022   -0.19580751    -0.00029648185
   3983000   0.04987433    -0.30611269     0.035943874   -0.19536215    -0.00062360545
   3984000   0.049864624   -0.30615523     0.035840995   -0.19552213     0.00077040726
   3985000   0.049279543   -0.3059948      0.035018774   -0.19706148     0.0010181856 
   3986000   0.049548524   -0.30610829     0.035876675   -0.19591362    -0.00028754954
   3987000   0.049798248   -0.30607153     0.035683565   -0.19569542     0.00057314093
   3988000   0.050210882   -0.30614907     0.035597954   -0.19523965     0.0003561678 
   3989000   0.049957609   -0.3059472      0.035660904   -0.19535471    -0.00048719368
   3990000   0.04991918    -0.30620237     0.036045849   -0.19528258    -0.0009032349 
   3991000   0.049948087   -0.30606063     0.035511222   -0.19563211     0.00030586767
   3992000   0.049853729   -0.30619162     0.035371613   -0.19604424    -0.00059435868
   3993000   0.050038235   -0.30635659     0.035830549   -0.19547354     0.00052512641
   3994000   0.049269024   -0.30599315     0.035892789   -0.19620159    -0.00014453751
   3995000   0.049604089   -0.30629409     0.035809444   -0.19608331     2.2908618e-05
   3996000   0.049974103   -0.30583322     0.035698889   -0.19517802     6.2046202e-05
   3997000   0.050107586   -0.30620794     0.035516709   -0.1955347      0.00040459568
   3998000   0.049458166   -0.30622845     0.035996806   -0.19604918    -0.0010711232 
   3999000   0.050265247   -0.30609984     0.035991355   -0.19471548    -0.00052785143
   4000000   0.049771457   -0.30617891     0.036746895   -0.19477964    -0.00060832252
   4001000   0.050005245   -0.30606878     0.035254246   -0.19581151    -8.5443086e-05
   4002000   0.049544455   -0.30603541     0.036136231   -0.19558729    -0.00094558706
   4003000   0.050122421   -0.30642794     0.035608346   -0.19564082    -0.00052298409
   4004000   0.050140488   -0.30604165     0.036652006   -0.19418377     0.00030425269
   4005000   0.049764468   -0.30616509     0.035635275   -0.19588792    -0.00042397605
   4006000   0.050243678   -0.30587105     0.035703122   -0.19480727     0.00031331038
   4007000   0.050395503   -0.30639908     0.035829427   -0.19498128     0.00093530682
   4008000   0.049794678   -0.30588323     0.035719924   -0.19547611     0.000702168  
   4009000   0.05043462    -0.30622676     0.035379895   -0.19519982     0.00062064923
   4010000   0.050103388   -0.30614942     0.036065016   -0.19493417    -0.00067303066
   4011000   0.049692533   -0.30617618     0.035281026   -0.19636116     0.00032111708
   4012000   0.049970094   -0.30691706     0.035237443   -0.19672931     0.00013556766
   4013000   0.049687851   -0.3064387      0.035407468   -0.19650427     0.00097061627
   4014000   0.050160049   -0.30664623     0.035649467   -0.19576154    -0.000595123  
   4015000   0.049587098   -0.30630531     0.035655596   -0.19627386     0.0011772834 
   4016000   0.050177677   -0.30656914     0.035477417   -0.19583006     0.00019168624
   4017000   0.049823673   -0.30604964     0.035643496   -0.19567545    -0.00045348944
   4018000   0.049830016   -0.30653599     0.035452617   -0.19634317    -0.00042514109
   4019000   0.049448207   -0.30669762     0.0360528     -0.19647729     0.00024802198
   4020000   0.050127593   -0.30670191     0.035394103   -0.19612127     0.00037887497
   4021000   0.050225625   -0.30629879     0.035497038   -0.19546818     0.00070109872
   4022000   0.050707319   -0.30626135     0.035834652   -0.19437063    -0.00032652724
   4023000   0.049704041   -0.30649385     0.036030939   -0.19591166     0.00014565518
   4024000   0.049607871   -0.30623181     0.035710644   -0.19611416    -0.00048249291
   4025000   0.04951761    -0.30628042     0.035169098   -0.1968397      0.00029570416
   4026000   0.050342429   -0.3061933      0.035791893   -0.19489263     4.2437288e-05
   4027000   0.050331278   -0.30600909     0.035718849   -0.19479819     0.00080351649
   4028000   0.050351528   -0.3064831      0.035942258   -0.19501843     3.4311782e-05
   4029000   0.050071618   -0.30659792     0.035883374   -0.19561196    -0.00042146559
   4030000   0.049922852   -0.30671078     0.035879685   -0.19595165    -0.00031650483
   4031000   0.050687555   -0.30645815     0.034811349   -0.19562037    -0.00046996882
   4032000   0.050305253   -0.30643071     0.035707917   -0.19526978     8.6491472e-05
   4033000   0.049897296   -0.30615865     0.035994952   -0.19532258    -1.4664412e-05
   4034000   0.050402649   -0.30640698     0.035714752   -0.19509313     0.00038973079
   4035000   0.050546136   -0.30649663     0.035907614   -0.1947747      0.00079460776
   4036000   0.050497806   -0.30648497     0.035744445   -0.1949987     -9.7223908e-05
   4037000   0.050132552   -0.30648797     0.035972039   -0.19532196     0.00059255999
   4038000   0.049748336   -0.3062629      0.036150839   -0.19549437     0.0002610097 
   4039000   0.050242856   -0.30657164     0.036238649   -0.19497357    -0.0006354698 
   4040000   0.050124676   -0.30645888     0.035790904   -0.19548581     0.00021832338
   4041000   0.049803158   -0.30660177     0.035789169   -0.19611268    -7.4524494e-05
   4042000   0.049677623   -0.30614672     0.035736756   -0.19589834    -0.00087982882
   4043000   0.049718699   -0.30629853     0.036283099   -0.1954422      0.00050072638
   4044000   0.049772323   -0.30667285     0.035766696   -0.19625248     0.00058586032
   4045000   0.049834941   -0.30625851     0.035681172   -0.19582975     0.00078927391
   4046000   0.049806736   -0.30669093     0.035857636   -0.19612801     0.00038133367
   4047000   0.050079083   -0.30658873     0.035925596   -0.19554936     8.0116482e-05
   4048000   0.050647731   -0.30665633     0.035843787   -0.19484585     0.0010090898 
   4049000   0.049879728   -0.30666313     0.035466541   -0.19638182     0.00014795209
   4050000   0.050134791   -0.30649906     0.035478118   -0.1958236      0.00025655519
   4051000   0.050001656   -0.30629084     0.035786608   -0.19550659    -0.00022195274
   4052000   0.05014355    -0.30635849     0.035405693   -0.19574232     0.0012269703 
   4053000   0.049930174   -0.3065102      0.03561285    -0.19600692    -4.5932192e-05
   4054000   0.050255512   -0.30633221     0.036169192   -0.19478461     0.00033378136
   4055000   0.050440419   -0.30618189     0.035717971   -0.19480817     0.00034858867
   4056000   0.050130119   -0.30635881     0.035634885   -0.19553359     0.0010309851 
   4057000   0.050241781   -0.306206       0.035288478   -0.19555971     0.0003622489 
   4058000   0.050051311   -0.30635688     0.035699096   -0.19558566     0.00068619629
   4059000   0.050187227   -0.30623256     0.035892943   -0.19506363     0.00044768114
   4060000   0.050481933   -0.30647376     0.036227944   -0.1945278      0.0013451522 
   4061000   0.049450544   -0.30645205     0.036529709   -0.19575131     0.00029719461
   4062000   0.050049275   -0.30659242     0.035981298   -0.19554206     0.00073744525
   4063000   0.049595742   -0.30679405     0.035460704   -0.19694453     0.00069582211
   4064000   0.05033778    -0.30644737     0.035096449   -0.19584912    -0.00048327777
   4065000   0.049921127   -0.30644226     0.035689373   -0.19587602    -0.00034936709
   4066000   0.049950486   -0.3067073      0.035831307   -0.19595509    -0.00020341839
   4067000   0.050133912   -0.30637229     0.035685339   -0.19549093     0.00038043276
   4068000   0.05095433    -0.30675569     0.035614679   -0.19471445     0.00054716778
   4069000   0.049931221   -0.30659099     0.035739455   -0.19595954     0.00040459885
   4070000   0.050535674   -0.30649378     0.035213483   -0.19548167     0.00056464201
   4071000   0.050253113   -0.30622889     0.036358337   -0.19449574     7.0502188e-05
   4072000   0.050417626   -0.30629594     0.035292249   -0.19538213     0.0016597048 
   4073000   0.050352138   -0.30683446     0.0350933     -0.19621783    -0.00019554079
   4074000   0.049460942   -0.30668355     0.036017331   -0.19647959    -0.00088495176
   4075000   0.050151876   -0.30665563     0.03555952    -0.19587315     0.00053073916
   4076000   0.050272207   -0.30639544     0.034849715   -0.19614228     0.00032409187
   4077000   0.0501329     -0.30666644     0.035843236   -0.1956287      0.00042915649
   4078000   0.050453044   -0.30652287     0.035675154   -0.19517304     0.00078824378
   4079000   0.050157614   -0.30695785     0.036387276   -0.19533901     0.00045715505
   4080000   0.050486464   -0.30665091     0.035639166   -0.19528693     0.00083064942
   4081000   0.049874491   -0.30685979     0.035857357   -0.19619553    -0.00037253993
   4082000   0.050027563   -0.30663591     0.035613938   -0.19598547     0.00032935913
   4083000   0.049931631   -0.30678781     0.035738764   -0.19615644     0.00025716736
   4084000   0.050112723   -0.30697121     0.035741169   -0.19606581     0.00062984736
   4085000   0.049942104   -0.30704444     0.035568346   -0.19656777    -0.00025990209
   4086000   0.050198808   -0.30679561     0.03523358    -0.19626868     0.001833669  
   4087000   0.050359403   -0.30673852     0.035835789   -0.1953685      0.00064467886
   4088000   0.050057058   -0.30732877     0.035850388   -0.19639764    -0.00092539332
   4089000   0.049684246   -0.30685988     0.036434557   -0.19590376     0.0001910524 
   4090000   0.05033176    -0.30696548     0.035700479   -0.19577223     0.00084809524
   4091000   0.049789649   -0.30644198     0.035561286   -0.19620104     0.00075326049
   4092000   0.049633074   -0.30705713     0.035464129   -0.19714819     3.2413192e-05
   4093000   0.050367021   -0.30672696     0.035818989   -0.19536231    -0.00030304783
   4094000   0.050300774   -0.30718121     0.035943757   -0.19579116     0.00072711817
   4095000   0.049654253   -0.30687697     0.036035052   -0.19636535    -0.00030258257
   4096000   0.050293012   -0.30718804     0.035919505   -0.19583388     2.6138552e-05
   4097000   0.050317215   -0.30704501     0.036063344   -0.19551072    -0.00040167764
   4098000   0.049354385   -0.3074548      0.035637054   -0.19779094     0.00012399644
   4099000   0.049824648   -0.30755993     0.03602141    -0.19680637    -0.00038355046
   4100000   0.050005753   -0.30748026     0.035699981   -0.19677649     0.0008138269 
   4101000   0.050071943   -0.30710437     0.035044198   -0.19695711     0.00051450142
   4102000   0.05001921    -0.3070094      0.035569631   -0.19641579     0.0010860674 
   4103000   0.050201877   -0.3072001      0.036118752   -0.1957834      0.00024877113
   4104000   0.05035733    -0.30675635     0.03560511    -0.19562012     0.00037985096
   4105000   0.050172909   -0.30713891     0.035501763   -0.19638264     0.00026959694
   4106000   0.049576631   -0.30733132     0.035677998   -0.19729318     0.0010013796 
   4107000   0.050162944   -0.3069867      0.035845331   -0.1959018     -0.00017431297
   4108000   0.050374629   -0.30747645     0.035442923   -0.19647646    -0.00048010305
   4109000   0.049594458   -0.30681229     0.035886983   -0.19653841     0.0006280405 
   4110000   0.049854361   -0.30709005     0.036009931   -0.1963034      0.00043265683
   4111000   0.050231514   -0.30729926     0.03585273    -0.19610412     0.00026033647
   4112000   0.050512902   -0.30702545     0.03573509    -0.19552589     8.3729709e-05
   4113000   0.050346777   -0.30716836     0.036541415   -0.19511165     0.0010122707 
   4114000   0.050146945   -0.30705688     0.036353474   -0.19548785    -0.00024173203
   4115000   0.049997372   -0.30707599     0.035921445   -0.19616333    -0.00019978582
   4116000   0.049810859   -0.30687427     0.035599543   -0.19656326    -0.00089408715
   4117000   0.049843164   -0.30733574     0.035448652   -0.19712717     0.00044264799
   4118000   0.0497886     -0.30739057     0.035563537   -0.19714895    -0.00037541393
   4119000   0.050068889   -0.30660181     0.035006459   -0.19649686    -9.321045e-05 
   4120000   0.049644339   -0.30705364     0.035665263   -0.19692668     0.001174206  
   4121000   0.049912769   -0.30681577     0.035900474   -0.19605098     0.00011860685
   4122000   0.049858959   -0.30709111     0.035842486   -0.19646501     3.5591616e-05
   4123000   0.049808753   -0.3071523      0.035179388   -0.1972646      0.00025487173
   4124000   0.049812661   -0.30723001     0.036004244   -0.19651159    -0.00025892974
   4125000   0.050219716   -0.30704978     0.035289796   -0.19643527     9.1981541e-05
   4126000   0.049702282   -0.30737875     0.035062339   -0.1977678      9.7410504e-05
   4127000   0.04953269    -0.30701787     0.035744225   -0.1969794      0.00010497564
   4128000   0.049514636   -0.3069327      0.03604255    -0.19662299    -0.00052444793
   4129000   0.049992746   -0.30673565     0.035760237   -0.19599113     0.00068881229
   4130000   0.04974296    -0.30714319     0.035886164   -0.1966474     -0.00067005158
   4131000   0.049985974   -0.30737616     0.035689678   -0.19671236     9.3542198e-06
   4132000   0.049696133   -0.30701454     0.035580427   -0.19689473     0.00024167622
   4133000   0.050156474   -0.30766021     0.035741546   -0.1966888      0.00018498189
   4134000   0.0502369     -0.30723502     0.035307282   -0.19657725     0.0003523246 
   4135000   0.050042436   -0.30718971     0.03561179    -0.19651911    -0.00037374235
   4136000   0.050096515   -0.30771807     0.035548679   -0.19702946     0.00016060616
   4137000   0.04962288    -0.30759812     0.036427636   -0.19674097    -0.00057561476
   4138000   0.049987945   -0.3072408      0.035351031   -0.19691269    -6.3709118e-05
   4139000   0.050772205   -0.30782206     0.036066686   -0.19560198     0.0002096896 
   4140000   0.049639837   -0.30716342     0.035510593   -0.19719787     0.00026415661
   4141000   0.05020575    -0.3076984      0.03518079    -0.19721385     0.00057982332
   4142000   0.050250693   -0.30754536     0.035438931   -0.19673525    -0.00044420313
   4143000   0.049974616   -0.30749289     0.03567205    -0.19686376     1.5578568e-05
   4144000   0.050252894   -0.30726655     0.035117353   -0.19677472     0.00051223018
   4145000   0.050024026   -0.30737824     0.036435017   -0.19591202     0.00011584687
   4146000   0.049680759   -0.307606       0.035949691   -0.19713998    -0.00050687506
   4147000   0.049556332   -0.30763061     0.035413854   -0.19788705     0.00052971129
   4148000   0.04995425    -0.307492       0.036023101   -0.19654236    -0.00056189365
   4149000   0.050090852   -0.30743111     0.036323455   -0.19597623     0.00018513695
   4150000   0.050395156   -0.30751362     0.035192837   -0.19673293     0.00026333633
   4151000   0.050452454   -0.30781595     0.035581164   -0.19656099    -0.00016459215
   4152000   0.050101822   -0.30790961     0.036105797   -0.19665593    -0.00018065435
   4153000   0.049829619   -0.30732575     0.035658704   -0.19692744    -0.00032552092
   4154000   0.049782178   -0.30763266     0.035355556   -0.19760866     0.00042977613
   4155000   0.050145244   -0.30743858     0.035317468   -0.1969081     -0.00030738624
   4156000   0.050471439   -0.30747628     0.035511897   -0.19626211     0.00084350541
   4157000   0.050204023   -0.30677195     0.035485498   -0.19598528    -4.3037473e-05
   4158000   0.04993377    -0.30753042     0.035996036   -0.19663857    -0.00072136049
   4159000   0.049834166   -0.30768831     0.035646211   -0.19729568     0.00015382437
   4160000   0.049977052   -0.3075928      0.035527074   -0.19710498     0.00078985928
   4161000   0.050607615   -0.3075825      0.035527742   -0.19614823     0.00097211781
   4162000   0.049786108   -0.30751749     0.036092447   -0.1967507     -0.00054381715
   4163000   0.049569704   -0.30744461     0.035501259   -0.19759359     0.00044772764
   4164000   0.050108597   -0.30778368     0.036005954   -0.19661968     0.00017289079
   4165000   0.049606845   -0.30764638     0.036329674   -0.19691124     0.00036334386
   4166000   0.050173096   -0.30730761     0.036219599   -0.19583323     0.00010659339
   4167000   0.050307541   -0.30729921     0.035680717   -0.19616205     5.8981613e-05
   4168000   0.049696883   -0.30759962     0.035635531   -0.19742357     7.5369002e-05
   4169000   0.049887378   -0.30762766     0.035767028   -0.19703439     0.00015837295
   4170000   0.050001196   -0.30781851     0.035874605   -0.19694695    -0.00033905738
   4171000   0.050082554   -0.3073923      0.035641049   -0.19663227     0.00049279794
   4172000   0.049822459   -0.30737974     0.035542747   -0.19710813     0.0003350946 
   4173000   0.049218168   -0.30733317     0.03557355    -0.19793714    -0.00030633668
   4174000   0.049773166   -0.30786942     0.035921453   -0.19729304     0.00061621068
   4175000   0.049769889   -0.30778403     0.035654556   -0.19747946    -0.00080268624
   4176000   0.049982303   -0.30780934     0.036011335   -0.19682939     0.0005246628 
   4177000   0.049812222   -0.30772759     0.035102622   -0.19791145     0.00068664891
   4178000   0.050182152   -0.30774576     0.036234766   -0.19624262     1.2108885e-05
   4179000   0.050010559   -0.30780261     0.035570211   -0.19722139    -0.00010130859
   4180000   0.049531689   -0.30770525     0.035536474   -0.19787603     0.00010582805
   4181000   0.050287487   -0.30755104     0.035690283   -0.1964344     -0.00031004891
   4182000   0.049766847   -0.3077247      0.035599648   -0.1974796     -0.00045043101
   4183000   0.050054666   -0.30764958     0.035533974   -0.19703845     0.00068729129
   4184000   0.050144173   -0.30792508     0.035571123   -0.19714255    -6.3437986e-05
   4185000   0.050087587   -0.30753466     0.035811943   -0.19659618    -8.2206217e-06
   4186000   0.049757557   -0.30745124     0.035362893   -0.19745683    -0.00024254306
   4187000   0.049528227   -0.30725734     0.035581266   -0.19738853     0.00037710448
   4188000   0.050685425   -0.30764066     0.035579504   -0.19603792    -0.00017945023
   4189000   0.050064911   -0.30762139     0.035790449   -0.19673842     0.00078068598
   4190000   0.049748814   -0.30789555     0.035828472   -0.19744867    -2.2425292e-05
   4191000   0.049902844   -0.30776857     0.036084418   -0.19683471     0.00014941498
   4192000   0.050477696   -0.30794461     0.035788814   -0.19644414     0.00031744266
   4193000   0.049696854   -0.30738442     0.035860033   -0.19698392     0.00037578998
   4194000   0.049622937   -0.30797257     0.035788061   -0.19775491    -0.00080221841
   4195000   0.049850537   -0.30806407     0.035658118   -0.19763497     0.0010006285 
   4196000   0.050085402   -0.30808391     0.035759699   -0.19720095     0.00068617308
   4197000   0.049748861   -0.30768318     0.036453701   -0.196611      -0.00035855585
   4198000   0.050658401   -0.3082643      0.035839393   -0.1964422     -0.00018726478
   4199000   0.050180653   -0.30784841     0.036047762   -0.19653453     0.00050002274
   4200000   0.050293313   -0.30786599     0.035933606   -0.19649728     0.00034772592
   4201000   0.050244509   -0.30761912     0.035447142   -0.19681008    -0.00022065118
   4202000   0.050324333   -0.30767107     0.035607008   -0.19658243     0.00040870265
   4203000   0.050120808   -0.30771872     0.035972897   -0.19656946    -1.9498867e-05
   4204000   0.050335888   -0.30767389     0.036103413   -0.19607152     0.00064849138
   4205000   0.050072163   -0.30812076     0.03625738    -0.19675998     0.00010521565
   4206000   0.050484101   -0.30745554     0.035885289   -0.19584898     2.0854264e-06
   4207000   0.050260859   -0.30755064     0.036039693   -0.19612452     0.00011146401
   4208000   0.049790334   -0.3080684      0.035208886   -0.19817884     0.00082454676
   4209000   0.049906827   -0.30797356     0.035122025   -0.19799612     3.9718385e-06
   4210000   0.050082519   -0.30805928     0.035235008   -0.19770534    -0.000224503  
   4211000   0.049597606   -0.30775435     0.035560209   -0.19780253    -0.00013078331
   4212000   0.049869834   -0.30718003     0.035642121   -0.19673799    -0.00063018237
   4213000   0.049978282   -0.30786223     0.035522485   -0.19737716     0.0006700856 
   4214000   0.049900447   -0.30815636     0.035679006   -0.19763151    -0.00064421042
   4215000   0.050277679   -0.30779246     0.035414212   -0.19696659     0.00028106717
   4216000   0.049494593   -0.30801901     0.035953998   -0.19782791     7.9428198e-05
   4217000   0.0493849     -0.30797764     0.036272027   -0.19763304    -0.0007691309 
   4218000   0.049959946   -0.30782536     0.036043782   -0.19684649     0.00063511316
   4219000   0.049277271   -0.30787326     0.036327377   -0.19763475    -0.00073969428
   4220000   0.049752331   -0.30797775     0.035567597   -0.19778647     0.00031732182
   4221000   0.049809688   -0.30807861     0.036535018   -0.19683388     0.00066573714
   4222000   0.049865138   -0.30821286     0.035526585   -0.19789339    -0.00060369897
   4223000   0.049617289   -0.308384       0.035690725   -0.19827214    -7.0527495e-05
   4224000   0.04958343    -0.3078122      0.035519163   -0.19792269     0.00040714669
   4225000   0.050083113   -0.30791441     0.03578308    -0.19701151     0.00069447659
   4226000   0.049841782   -0.30829305     0.035651397   -0.1978838      0.00015728736
   4227000   0.049936314   -0.30762428     0.035109647   -0.19761499    -0.00032811389
   4228000   0.04943986    -0.30796409     0.034897215   -0.19891187     0.00024200896
   4229000   0.050630969   -0.3083197      0.035649737   -0.19672841     0.0012118293 
   4230000   0.050187003   -0.3082985      0.03639672    -0.19662614    -0.0003830246 
   4231000   0.050465996   -0.30829687     0.036352692   -0.19625007     0.00045055838
   4232000   0.050483452   -0.30827547     0.035746083   -0.19680909     0.00095514783
   4233000   0.049793989   -0.30810995     0.035469065   -0.19795472     0.00037336096
   4234000   0.049623075   -0.30838062     0.03513859    -0.19881222     0.00015356177
   4235000   0.049618295   -0.30791374     0.035370118   -0.19812099     0.00029487371
   4236000   0.049912053   -0.30815492     0.035411467   -0.1978802      0.00023894155
   4237000   0.049598508   -0.30826792     0.035556983   -0.19831798     0.00052365512
   4238000   0.04962379    -0.30816431     0.035712588   -0.19802084    -0.00055998818
   4239000   0.049665921   -0.30802237     0.035536492   -0.1979918      0.00026816497
   4240000   0.049996154   -0.30830376     0.035360922   -0.19795345     7.6373802e-05
   4241000   0.050036587   -0.30772055     0.035641562   -0.19702895     0.000289481  
   4242000   0.050165258   -0.30809958     0.036033987   -0.19682256     0.00036782073
   4243000   0.050371965   -0.30833034     0.036394759   -0.19638251    -0.00067694456
   4244000   0.04992503    -0.30836601     0.035044582   -0.19843871    -0.00030977313
   4245000   0.049611997   -0.30817133     0.036311284   -0.19744685    -0.00015266504
   4246000   0.049846835   -0.30806297     0.036054313   -0.19724323    -0.00028603764
   4247000   0.050220145   -0.30804373     0.035596601   -0.19712177     0.00030885894
   4248000   0.049767165   -0.30861331     0.03552854    -0.19843884    -0.00058288596
   4249000   0.049839381   -0.30844321     0.035427473   -0.19826149    -0.00043816277
   4250000   0.04964412    -0.30795712     0.035573086   -0.19792266     0.0010609835 
   4251000   0.050141059   -0.30752202     0.035404275   -0.19691101     0.00094712628
   4252000   0.050733016   -0.30829225     0.035818523   -0.19637911    -0.00021631363
   4253000   0.05020052    -0.3081072      0.035653741   -0.19715753     0.00070924597
   4254000   0.04967842    -0.3080695      0.035922636   -0.19763404     0.00044174032
   4255000   0.049661341   -0.30879125     0.03546945    -0.19883459    -3.7736409e-05
   4256000   0.049571592   -0.30835952     0.035442355   -0.19856457     0.00029006284
   4257000   0.049588213   -0.30815596     0.035738968   -0.19803947    -0.00062360537
   4258000   0.04946186    -0.30832652     0.035471492   -0.19866702    -8.8456367e-05
   4259000   0.050242283   -0.30833884     0.036062905   -0.19691738    -8.801393e-05 
   4260000   0.049797631   -0.30782225     0.035554494   -0.19757613    -0.00019320236
   4261000   0.05027148    -0.30793759     0.036132554   -0.19640269     0.00027207161
   4262000   0.050100857   -0.30773986     0.03642375    -0.19616967    -0.00053776385
   4263000   0.050564235   -0.30778972     0.03550045    -0.19644781     0.00011485407
   4264000   0.050355934   -0.30810608     0.035912194   -0.19666486     5.408078e-05 
   4265000   0.050518508   -0.30816095     0.036229758   -0.19615832    -0.00020412124
   4266000   0.050501236   -0.30814132     0.035463387   -0.19693097    -0.0003053869 
   4267000   0.05019056    -0.30840208     0.03567674    -0.19744436     0.00091096771
   4268000   0.050158369   -0.3080022      0.035740686   -0.19702881    -3.9172116e-05
   4269000   0.04978074    -0.30832693     0.035913814   -0.19774682    -0.00099130088
   4270000   0.050098036   -0.3086093      0.035882912   -0.19758419    -0.00017094355
   4271000   0.049575252   -0.30824648     0.036126082   -0.19776232    -0.00029185866
   4272000   0.049709381   -0.30836766     0.035601846   -0.19820655     0.00060516734
   4273000   0.05043522    -0.3080113      0.035562701   -0.19680065     0.00088517067
   4274000   0.050024706   -0.30814205     0.036179699   -0.19693014     5.7136229e-05
   4275000   0.050292601   -0.30832349     0.035724761   -0.19716469     0.00014596688
   4276000   0.049884693   -0.30826973     0.035366902   -0.19808062    -0.00055721826
   4277000   0.049852908   -0.30809071     0.035948334   -0.19736784     4.5345001e-05
   4278000   0.049752335   -0.30811829     0.036229266   -0.19726533    -0.00024084352
   4279000   0.049925572   -0.30838464     0.035512593   -0.19798853    -0.00047452638
   4280000   0.050355181   -0.30817637     0.03599965    -0.19664882    -4.3208286e-05
   4281000   0.050252256   -0.30834698     0.035884744   -0.19708871    -0.0003206897 
   4282000   0.049604461   -0.30819087     0.036058475   -0.19773051     0.00032462036
   4283000   0.049872382   -0.30758418     0.03566765    -0.19711279    -0.000107167  
   4284000   0.049697708   -0.30813974     0.035765916   -0.19783207    -0.00012339496
   4285000   0.050224907   -0.30823772     0.036507219   -0.196398      -5.6536936e-05
   4286000   0.04991797    -0.3083117      0.035790334   -0.19764924     0.00074679675
   4287000   0.050136274   -0.30804682     0.035842481   -0.19700478     0.0003789882 
   4288000   0.049865445   -0.30833115     0.035445869   -0.19809194     0.001492144  
   4289000   0.050423438   -0.30843125     0.035648825   -0.19715215     8.5580037e-05
   4290000   0.049911926   -0.30878515     0.036151613   -0.19777048    -0.00017666397
   4291000   0.050449423   -0.30852187     0.036113004   -0.19673962     0.0011574631 
   4292000   0.050450697   -0.30794677     0.035659335   -0.19661627     0.00063814229
   4293000   0.04991263    -0.30804977     0.035537188   -0.19764847     0.00013845287
   4294000   0.050266165   -0.30806441     0.035845224   -0.19682481     0.00025858387
   4295000   0.050198838   -0.30870567     0.035777166   -0.19763511    -0.00060791214
   4296000   0.049750779   -0.30845321     0.035905834   -0.19792602    -7.7207054e-05
   4297000   0.050236139   -0.30824537     0.035849291   -0.19704674     0.00034807201
   4298000   0.049625995   -0.30853958     0.035989614   -0.19811578     0.00061734639
   4299000   0.050013948   -0.30836052     0.035420177   -0.19792426     0.00030895538
   4300000   0.049828773   -0.30832265     0.036190875   -0.19739343    -0.00015616009
   4301000   0.050038432   -0.30863289     0.036079424   -0.19750066     0.00025892307
   4302000   0.05019509    -0.30874452     0.036151      -0.19730574    -0.00092972693
   4303000   0.049994874   -0.30829983     0.035357577   -0.19795478     0.00072321625
   4304000   0.050260704   -0.30826178     0.035699884   -0.1971757     -3.6882251e-05
   4305000   0.050104327   -0.30789487     0.035511896   -0.19723133    -0.00038427502
   4306000   0.050253518   -0.30830326     0.035714404   -0.19721344    -4.9843206e-05
   4307000   0.049959171   -0.30830708     0.035548291   -0.19782487    -0.00081937199
   4308000   0.050215054   -0.30860543     0.035996251   -0.19729146    -0.00015195509
   4309000   0.049970391   -0.30840013     0.035384495   -0.19806488     0.00094903228
   4310000   0.049935073   -0.30833819     0.035855386   -0.19758503    -1.7985718e-05
   4311000   0.050347221   -0.3087094      0.035666347   -0.19752709    -0.00075539116
   4312000   0.050530793   -0.30851096     0.035602972   -0.19711668     0.001082684  
   4313000   0.049574474   -0.30808786     0.035644377   -0.19808656    -5.6372722e-05
   4314000   0.049940115   -0.30827001     0.035179729   -0.19818495    -0.00012584838
   4315000   0.049684035   -0.30798265     0.035289353   -0.19817205     0.00040110825
   4316000   0.050521352   -0.30856637     0.035670476   -0.19711875     0.00052288751
   4317000   0.049946551   -0.30838534     0.035807883   -0.19766246     0.00044346473
   4318000   0.050183671   -0.30847722     0.03574889    -0.19745768    -0.00012268618
   4319000   0.050214867   -0.30862499     0.035524742   -0.1977828      7.3701376e-06
   4320000   0.050639332   -0.30861021     0.035358104   -0.19729801     0.00087427942
   4321000   0.050029104   -0.30845227     0.036010322   -0.19740313    -0.00084797534
   4322000   0.05014601    -0.30877252     0.035733846   -0.19782451    -0.00023915887
   4323000   0.050154907   -0.30862865     0.03500811    -0.19839303     0.00076656812
   4324000   0.050298558   -0.30887203     0.035308833   -0.19812022    -0.00031119016
   4325000   0.04960231    -0.3086314      0.035442142   -0.19879059     0.00016172904
   4326000   0.049864114   -0.30893154     0.035537391   -0.1986028      0.00025461805
   4327000   0.050254335   -0.30841114     0.035678587   -0.19735591     0.00041121177
   4328000   0.050046159   -0.30875928     0.035965627   -0.19772926     0.00064521909
   4329000   0.049736055   -0.30865361     0.035709566   -0.19834477    -0.00028411852
   4330000   0.050213917   -0.30872297     0.035760757   -0.1976462     -4.9090515e-06
   4331000   0.050071412   -0.30893262     0.035656097   -0.19817425     0.00047665974
   4332000   0.0498098     -0.3088718      0.035614017   -0.1985479     -9.5732359e-05
   4333000   0.049829763   -0.3084257      0.035743964   -0.19794192     0.00067376522
   4334000   0.049906016   -0.30857091     0.036020105   -0.19769661     9.5975668e-05
   4335000   0.050350467   -0.30856552     0.035721097   -0.19732359     0.000615767  
   4336000   0.050427087   -0.30901002     0.035795205   -0.19757906     0.00023559853
   4337000   0.050228847   -0.30871983     0.035869627   -0.1975118      0.00030934046
   4338000   0.049926774   -0.3084405      0.036206494   -0.19734867     0.00047910612
   4339000   0.049954238   -0.30868469     0.035609902   -0.19814827     6.8318217e-05
   4340000   0.049631217   -0.3086891      0.036798819   -0.19744826    -0.00012181657
   4341000   0.050177973   -0.30867944     0.036199518   -0.19721782    -0.00056084353
   4342000   0.050074693   -0.30832867     0.036388924   -0.19683255    -1.0205319e-05
   4343000   0.050211441   -0.30858492     0.036007236   -0.19726538     0.0011632352 
   4344000   0.049924472   -0.30858194     0.036027282   -0.19767278    -7.5227334e-05
   4345000   0.04973589    -0.30893488     0.036090167   -0.19824569     0.00049054032
   4346000   0.050313952   -0.30884198     0.036460833   -0.19691508    -0.0010444303 
   4347000   0.049639605   -0.30843724     0.035364175   -0.19861846    -0.00076698916
   4348000   0.049958023   -0.30874089     0.036065443   -0.19774325     1.2639443e-06
   4349000   0.050015348   -0.30900454     0.035906834   -0.19807953     0.00038673001
   4350000   0.050170913   -0.30876534     0.035921127   -0.1975927      0.00015746611
   4351000   0.050046267   -0.30894176     0.036585438   -0.19729176     0.00017395459
   4352000   0.050641511   -0.30869876     0.035665538   -0.19707586     0.00074856462
   4353000   0.049904086   -0.30867707     0.035247637   -0.19857813     2.816067e-05 
   4354000   0.050274052   -0.3087519      0.035180889   -0.1981648      0.00025955792
   4355000   0.05005764    -0.30868676     0.035883056   -0.19772209     0.0013202692 
   4356000   0.049879754   -0.3087215      0.035970181   -0.19793651    -0.00068908542
   4357000   0.049929978   -0.3083383      0.035262496   -0.19818566    -0.00017714802
   4358000   0.049727453   -0.30875866     0.035399023   -0.19877327    -0.00037547727
   4359000   0.04983286    -0.30879114     0.036010589   -0.19803609    -7.508728e-06 
   4360000   0.049640193   -0.30878223     0.035605169   -0.19872158     0.00012761879
   4361000   0.049949141   -0.30876178     0.035611796   -0.1982311     -0.00040092015
   4362000   0.050199524   -0.30878092     0.035356661   -0.19812983     0.0013212667 
   4363000   0.050204778   -0.30844816     0.0357552     -0.19739065     0.0004790223 
   4364000   0.050292933   -0.30906827     0.036607223   -0.19702651    -0.00051686081
   4365000   0.05009647    -0.30879992     0.036445885   -0.19721418    -0.00039219894
   4366000   0.05015641    -0.30873982     0.035767533   -0.19774253     0.00072025103
   4367000   0.049635631   -0.30857001     0.035695038   -0.19842633    -1.9890968e-05
   4368000   0.050521861   -0.30911179     0.035630026   -0.19770386     0.00076553345
   4369000   0.04969287    -0.30860633     0.036002438   -0.19806939    -1.9652161e-05
   4370000   0.050106666   -0.30898888     0.035486097   -0.19834763    -0.00053357356
   4371000   0.049717179   -0.30889435     0.035778064   -0.19854533     0.00063260606
   4372000   0.04993879    -0.30859503     0.035945341   -0.19774634     4.9713082e-05
   4373000   0.049746841   -0.3088993      0.036185277   -0.19809857     0.00028452765
   4374000   0.049871435   -0.30902678     0.036241482   -0.19798297    -0.00061738188
   4375000   0.050652567   -0.30915152     0.035886917   -0.19729066     0.0001963247 
   4376000   0.049855701   -0.30853291     0.036322763   -0.19743142    -0.00017335231
   4377000   0.050374291   -0.30845209     0.035249649   -0.19764588     0.0010794414 
   4378000   0.049778667   -0.30889095     0.035727942   -0.19849983     8.7257906e-05
   4379000   0.050366197   -0.3090913      0.035575816   -0.19797107    -0.00020017322
   4380000   0.049668693   -0.30876249     0.035326069   -0.19893819    -3.9526108e-06
   4381000   0.050230874   -0.30924901     0.036033414   -0.19787415     1.2956174e-05
   4382000   0.050083177   -0.30893901     0.035951665   -0.19786743     0.0004656086 
   4383000   0.05036222    -0.3094559      0.035575246   -0.1983422     -0.00019384824
   4384000   0.050093337   -0.30915138     0.035634427   -0.19838179     0.00038267486
   4385000   0.04962814    -0.30905977     0.036006118   -0.19861624     0.00014429124
   4386000   0.049945765   -0.30885695     0.036306197   -0.19763694    -0.00016649759
   4387000   0.050083144   -0.30888604     0.035642491   -0.19812368     0.00029105488
   4388000   0.051018048   -0.30898595     0.035686052   -0.19677776    -0.00034282854
   4389000   0.05029345    -0.30881252     0.035712367   -0.19766484     0.0009371609 
   4390000   0.050247707   -0.30922082     0.035745652   -0.19810847    -0.00032267279
   4391000   0.050234386   -0.30869572     0.035836741   -0.19751226     0.00059958883
   4392000   0.050463263   -0.30890882     0.035490191   -0.19772862     0.00083460339
   4393000   0.050252067   -0.30884678     0.03596064    -0.1975129     -0.00097407948
   4394000   0.050174479   -0.30925949     0.0363938     -0.19760883    -0.0006114665 
   4395000   0.050313879   -0.30852522     0.036112344   -0.19694693     0.00046671317
   4396000   0.050559247   -0.30904896     0.036257782   -0.1969572      8.6521251e-05
   4397000   0.049758977   -0.30896362     0.036297129   -0.19803284     0.00077698107
   4398000   0.049769466   -0.30862383     0.035990619   -0.19798383     0.00075458761
   4399000   0.04988445    -0.30934558     0.035449069   -0.19907466     0.00052294088
   4400000   0.049823104   -0.30892008     0.035514279   -0.19867597     0.00049077079
   4401000   0.049564099   -0.3085991      0.035541338   -0.19871641     0.00068596102
   4402000   0.049108912   -0.30844243     0.035931102   -0.19885272     0.00037033244
   4403000   0.049291564   -0.30888201     0.035577429   -0.19937201     0.00047982521
   4404000   0.049976525   -0.30890324     0.035751852   -0.19819143     2.6927214e-05
   4405000   0.049942378   -0.30862315     0.036017977   -0.19769644    -0.00063013401
   4406000   0.050132096   -0.30903572     0.03619062    -0.19765181     0.00034959094
   4407000   0.04987956    -0.30926362     0.036074537   -0.19837457     0.00025173466
   4408000   0.05023355    -0.30922809     0.036366354   -0.19751628    -0.00034570668
   4409000   0.049954371   -0.3085414      0.035937391   -0.19767729     0.00047555468
   4410000   0.049808731   -0.30934881     0.035400012   -0.19924052     0.00017790153
   4411000   0.049784214   -0.30909528     0.035644471   -0.19877931    -0.0002678292 
   4412000   0.050039651   -0.3090068      0.035661034   -0.19829113    -0.00012104272
   4413000   0.050051981   -0.30881901     0.035551913   -0.19819397     0.00013631861
   4414000   0.049899751   -0.30867446     0.036110755   -0.1977189     -0.00013116545
   4415000   0.050269417   -0.30927693     0.036340175   -0.19753749    -0.00039127101
   4416000   0.049960513   -0.30924532     0.036030225   -0.19827916    -0.00021267715
   4417000   0.049947699   -0.30911635     0.03541643    -0.19878321     0.0005091202 
   4418000   0.050196794   -0.30894233     0.035529063   -0.19812293     0.00037488425
   4419000   0.049820575   -0.30903404     0.035540097   -0.1987679      0.00071999603
   4420000   0.049716837   -0.30900762     0.035844665   -0.19859251     0.00074482188
   4421000   0.050084441   -0.30919926     0.035486871   -0.19859057    -0.0003214698 
   4422000   0.049905581   -0.30902202     0.035396264   -0.19877221     0.00023735141
   4423000   0.050359446   -0.3092994      0.035296948   -0.19846816    -5.5076203e-05
   4424000   0.049983208   -0.30921098     0.035636271   -0.19860474     0.00054757954
   4425000   0.049876203   -0.30904685     0.03570334    -0.19853403     0.0006592813 
   4426000   0.04990948    -0.30910873     0.035891098   -0.19835824    -0.00067890317
   4427000   0.050148203   -0.3094519      0.035926599   -0.19830785    -0.00091438956
   4428000   0.049980058   -0.30904107     0.035987657   -0.19808816    -0.00025291621
   4429000   0.050774619   -0.30944205     0.035770579   -0.19751445    -0.00010612246
   4430000   0.049439846   -0.30915756     0.036048009   -0.19895457    -0.00048668683
   4431000   0.049846878   -0.30931752     0.035797571   -0.19875446     0.00016190477
   4432000   0.0498033     -0.30949695     0.035785321   -0.1990115     -9.846389e-05 
   4433000   0.049814567   -0.30910863     0.035439317   -0.19895228     0.00044411659
   4434000   0.04991025    -0.3090374      0.035218503   -0.19895836    -0.00033817948
   4435000   0.049918506   -0.30940939     0.035311873   -0.19922459    -0.00035185592
   4436000   0.049373123   -0.30939293     0.035874169   -0.19946385     0.00010872556
   4437000   0.049677564   -0.3093609      0.035601457   -0.1992479      0.00024846122
   4438000   0.049826194   -0.30919153     0.035571319   -0.19888574    -0.00040180591
   4439000   0.050472939   -0.30909475     0.035767572   -0.19762265     0.00068296781
   4440000   0.050649247   -0.30936206     0.035902618   -0.19749047    -0.00017692983
   4441000   0.050263785   -0.30930858     0.036082365   -0.1978354      0.00053984763
   4442000   0.049883868   -0.30884697     0.035971453   -0.19805454    -4.7926182e-06
   4443000   0.050120307   -0.30934009     0.035927984   -0.19823649     0.00037177405
   4444000   0.050695254   -0.30962486     0.036036573   -0.19755031     0.00053853924
   4445000   0.049700925   -0.30960045     0.035990631   -0.19906324    -1.7403119e-05
   4446000   0.049369723   -0.30950649     0.035439275   -0.20001741     0.00056520586
   4447000   0.049509903   -0.30914606     0.035492406   -0.19939359     0.00022639853
   4448000   0.050048107   -0.30977223     0.035545074   -0.19915983     0.0005279989 
   4449000   0.05022963    -0.30938996     0.036019925   -0.19803046    -0.00028470978
   4450000   0.0503427     -0.30976184     0.036061989   -0.19819067    -0.00038547719
   4451000   0.050418963   -0.30996736     0.035694725   -0.19864907     0.00018686956
   4452000   0.050291516   -0.3097253      0.035905555   -0.19838733     0.00098368844
   4453000   0.049702976   -0.30936641     0.03605663    -0.19876012     0.00050279331
   4454000   0.050203889   -0.30966699     0.035609562   -0.19875645    -1.2183447e-05
   4455000   0.04989074    -0.30955421     0.035869731   -0.1988532     -2.241191e-05 
   4456000   0.049763323   -0.3094668      0.034910827   -0.19991581     0.0010551397 
   4457000   0.049387144   -0.30967182     0.035749855   -0.19984603     0.00043953858
   4458000   0.050219492   -0.30936834     0.035470832   -0.19857313    -9.10152e-05  
   4459000   0.049958176   -0.3093399      0.035228068   -0.19917941     0.00076925755
   4460000   0.049998735   -0.30999293     0.035273212   -0.19972645     0.00029912581
   4461000   0.049822519   -0.30984653     0.035874614   -0.19924295     0.0004527874 
   4462000   0.049925658   -0.30919281     0.036202295   -0.19810686    -0.00064424771
   4463000   0.050129614   -0.30949103     0.03614967    -0.19815179     0.00013254948
   4464000   0.050213596   -0.31002152     0.035919517   -0.19878647     0.00060508559
   4465000   0.050118725   -0.30973488     0.035743921   -0.19881772     0.00046094089
   4466000   0.050173657   -0.30956034     0.035943853   -0.19836085     0.0012115589 
   4467000   0.049804997   -0.30939501     0.036457973   -0.19823436    -0.00032831727
   4468000   0.050271951   -0.30976521     0.035910166   -0.19845198     0.00026759785
   4469000   0.049741463   -0.30999841     0.035953427   -0.19943761    -0.0005396987 
   4470000   0.050223411   -0.30988684     0.035185936   -0.19937065     0.00097192114
   4471000   0.049638472   -0.30986448     0.035694487   -0.19971709    -0.00014356903
   4472000   0.050059604   -0.30969485     0.035795703   -0.19881458     0.00075799177
   4473000   0.050075654   -0.3094974      0.035827464   -0.1985613      9.8926491e-05
   4474000   0.049519447   -0.30954896     0.035927617   -0.19934697     0.00015070965
   4475000   0.05049123    -0.30969218     0.03539241    -0.19856781     0.00012558381
   4476000   0.0508669     -0.30980272     0.035467836   -0.19803946    -0.00016788408
   4477000   0.05017991    -0.30951655     0.035817898   -0.19843364    -6.1878293e-05
   4478000   0.050438548   -0.30968882     0.036039544   -0.19799634    -0.00033660549
   4479000   0.050365307   -0.30967095     0.036277467   -0.1978504     -0.00026021423
   4480000   0.050373022   -0.30934394     0.034890568   -0.19889872     0.00077096388
   4481000   0.049798006   -0.3099103      0.035391742   -0.19982637    -7.636428e-05 
   4482000   0.049909891   -0.30970958     0.035270211   -0.19957936    -0.0002589376 
   4483000   0.050103218   -0.30937099     0.035819247   -0.19840177     0.00033849562
   4484000   0.050155813   -0.30984281     0.03615979    -0.19845415     0.00062369103
   4485000   0.05019229    -0.31023033     0.035740399   -0.19920636     0.00030083388
   4486000   0.050094387   -0.31010196     0.03562595    -0.19933927    -0.00035289941
   4487000   0.050113981   -0.30996713     0.034942843   -0.19985817    -0.000111663  
   4488000   0.050400316   -0.30965781     0.036256558   -0.19780565    -6.6308204e-05
   4489000   0.050925094   -0.30971232     0.036022164   -0.19730744    -0.00052610172
   4490000   0.0494786     -0.30969556     0.035987051   -0.1994954      0.00033160996
   4491000   0.04971192    -0.30941606     0.035509428   -0.19934356    -4.0383171e-05
   4492000   0.050033552   -0.30966607     0.035158353   -0.19946223     0.0002779749 
   4493000   0.049530615   -0.3097759      0.035268611   -0.20021616    -9.3315911e-05
   4494000   0.049725791   -0.30972363     0.036017402   -0.19912235    -0.00046361486
   4495000   0.049963448   -0.31007793     0.035526052   -0.19961154     0.00012044589
   4496000   0.049556686   -0.30964747     0.035366783   -0.19995045     0.00044953196
   4497000   0.050018061   -0.31001695     0.035575238   -0.19941946     0.00012748616
   4498000   0.050013494   -0.30998801     0.035736548   -0.19923606     9.7794196e-05
   4499000   0.049346128   -0.30956729     0.035505721   -0.20004715     0.00024036338
   4500000   0.050288576   -0.30982464     0.035870877   -0.19852577     0.00063269437
   4501000   0.049726311   -0.30969025     0.03564171    -0.19946388     0.00015863433
   4502000   0.049942801   -0.3098877      0.035346818   -0.19963151     0.0005757892 
   4503000   0.049492903   -0.30986043     0.034676071   -0.2009498      0.00010239062
   4504000   0.049496626   -0.31013407     0.035494978   -0.20039894     0.0011293634 
   4505000   0.050079799   -0.30978614     0.035522498   -0.19914879     0.00037285735
   4506000   0.050058498   -0.30997804     0.036108751   -0.19878639    -0.0011632038 
   4507000   0.050441928   -0.30987929     0.035924076   -0.1982972     -0.00022805966
   4508000   0.049709786   -0.30926249     0.035138606   -0.19956401     0.0015027492 
   4509000   0.050360049   -0.3093489      0.035523968   -0.19828973     0.00079800424
   4510000   0.050278923   -0.3098232      0.035910534   -0.19849915    -0.00031114506
   4511000   0.050401554   -0.30966369     0.036318658   -0.19774757    -0.00017416904
   4512000   0.050153289   -0.30936925     0.036245896   -0.19789827     0.00044575424
   4513000   0.0498503     -0.30987263     0.035931461   -0.19917054    -3.3139878e-05
   4514000   0.050184153   -0.30939741     0.035998519   -0.19812752    -0.00069356536
   4515000   0.050018265   -0.30933833     0.035565447   -0.19875033     0.00010383393
   4516000   0.050035278   -0.30941289     0.035956094   -0.19840872    -0.00032723379
   4517000   0.049531769   -0.30988746     0.035720209   -0.19987439     0.00091361947
   4518000   0.049852498   -0.3098385      0.035812385   -0.19925219     0.0002136672 
   4519000   0.050165399   -0.30982298     0.036285503   -0.19829424    -9.8528608e-05
   4520000   0.050581314   -0.30948738     0.036052093   -0.19756821     4.2694755e-05
   4521000   0.050391983   -0.31007271     0.036176881   -0.19831273     0.00052683476
   4522000   0.050484851   -0.30919631     0.035423125   -0.19805079     0.00091355961
   4523000   0.049520943   -0.30964615     0.035710593   -0.19965893    -0.00067049458
   4524000   0.050033849   -0.30970228     0.035952816   -0.19870353     0.0001050635 
   4525000   0.050425837   -0.30945454     0.035954201   -0.19786646     0.00044986105
   4526000   0.050192259   -0.30928202     0.03560486    -0.19839363     0.00071268971
   4527000   0.049241641   -0.30987421     0.035481037   -0.20053548    -0.00010947804
   4528000   0.049340268   -0.30985622     0.035672559   -0.20017804     0.00053696517
   4529000   0.049533728   -0.30994784     0.035591023   -0.20006102     0.00018191182
   4530000   0.050095127   -0.31019052     0.036144437   -0.19890824    -0.00071571404
   4531000   0.050097317   -0.3096955      0.035393762   -0.19916061     0.0010181158 
   4532000   0.049594481   -0.30985106     0.035230014   -0.20023412    -0.0010431984 
   4533000   0.050009634   -0.31008643     0.035598714   -0.1994781      0.00016805053
   4534000   0.049729977   -0.30990868     0.035959623   -0.1993589      0.00019590245
   4535000   0.05036001    -0.30996646     0.035445875   -0.19898544     0.00052689751
   4536000   0.050158773   -0.31007558     0.035808257   -0.19903401     0.0005829304 
   4537000   0.050026398   -0.30991224     0.035199733   -0.19967775    -0.00013838463
   4538000   0.050076179   -0.31018704     0.03561254    -0.19946507    -0.00016382542
   4539000   0.050097613   -0.30999641     0.035922304   -0.19893254     0.00025247964
   4540000   0.050557476   -0.30986711     0.03594034    -0.19809545     0.0002635031 
   4541000   0.050129937   -0.31001962     0.035827706   -0.19900186    -0.00076220964
   4542000   0.05014615    -0.30989807     0.035470401   -0.1992133     -0.00069523101
   4543000   0.049855443   -0.31010482     0.035467834   -0.19985865    -8.8025532e-05
   4544000   0.050211009   -0.31002456     0.035719518   -0.19899339     0.0004080275 
   4545000   0.049820711   -0.30989483     0.035526105   -0.19964248     0.00016114445
   4546000   0.049825035   -0.30995965     0.036135846   -0.19909107    -0.0004776893 
   4547000   0.049621048   -0.30996944     0.035089537   -0.20045313     0.00079288108
   4548000   0.050013      -0.31029214     0.035219206   -0.20005828     0.00036397005
   4549000   0.049809605   -0.31022142     0.03559565    -0.19991618     0.00080154436
   4550000   0.049798835   -0.31017889     0.035831871   -0.19965358    -0.00027376948
   4551000   0.050056718   -0.31001975     0.035471644   -0.19946787     0.00026228984
   4552000   0.049745907   -0.31010336     0.036264715   -0.19922459    -8.5804838e-05
   4553000   0.0503164     -0.31088293     0.036039096   -0.1993741      0.00022486229
   4554000   0.049506878   -0.31005629     0.036252631   -0.19954813     9.7152587e-05
   4555000   0.049459365   -0.31000983     0.035652052   -0.20017351    -0.00093513877
   4556000   0.049800579   -0.31021887     0.035833305   -0.19968951    -0.00054628172
   4557000   0.04975496    -0.31041318     0.035051627   -0.20073393     0.00049615869
   4558000   0.049867961   -0.31039653     0.03623211    -0.19936731     0.00041958903
   4559000   0.05013593    -0.31083786     0.036267662   -0.19937115    -0.0012977391 
   4560000   0.04935904    -0.31060188     0.036346371   -0.20022172    -0.00086178806
   4561000   0.050281291   -0.31021546     0.035644487   -0.1991539      0.00031051864
   4562000   0.0497042     -0.31045472     0.036248592   -0.19965464    -0.00031331276
   4563000   0.049899757   -0.31069406     0.03584291    -0.20000635    -4.2014959e-05
   4564000   0.050560963   -0.31013117     0.035658212   -0.1986364      0.00012669902
   4565000   0.049785639   -0.3101682      0.0356122     -0.19988236    -0.00034986297
   4566000   0.050610167   -0.31019002     0.035398995   -0.19888068    -0.00025926031
   4567000   0.049908786   -0.31075117     0.035815334   -0.20007749    -0.00061087912
   4568000   0.049807852   -0.31060049     0.035471703   -0.20042183     0.00018578522
   4569000   0.049654072   -0.31007322     0.036025885   -0.19957103     0.0003484724 
   4570000   0.0496288     -0.31036725     0.035902521   -0.20002633     8.9162635e-05
   4571000   0.049785321   -0.31024983     0.035830585   -0.19974608    -0.00086518306
   4572000   0.050126442   -0.31022014     0.036036595   -0.19899873     1.4742825e-05
   4573000   0.050628336   -0.31006866     0.035679074   -0.19845198    -1.8297761e-05
   4574000   0.050392912   -0.31041347     0.036037502   -0.19879147    -0.00012949614
   4575000   0.050417451   -0.31027914     0.035683114   -0.19897473     0.00047548826
   4576000   0.050282395   -0.31032404     0.035772528   -0.19913278     0.00026184283
   4577000   0.050332138   -0.31031151     0.03577141    -0.19904676     7.9389338e-05
   4578000   0.049973012   -0.3102256      0.035768823   -0.19950209     0.00013739876
   4579000   0.050250179   -0.3106545      0.035473216   -0.19981088    -0.00014058058
   4580000   0.050067298   -0.3105365      0.035350809   -0.20008959     0.00074293976
   4581000   0.049838134   -0.31044624     0.035537046   -0.20015682     0.00064218839
   4582000   0.050484062   -0.31043573     0.035251307   -0.19946321     0.00043659119
   4583000   0.049958504   -0.31083056     0.035627605   -0.20027003     0.00096371904
   4584000   0.049891864   -0.31057664     0.03562496    -0.20011871    -0.00024227687
   4585000   0.050088251   -0.31029942     0.035695097   -0.19947679     0.00065545049
   4586000   0.050444744   -0.31044738     0.035984853   -0.19880029     0.0004234742 
   4587000   0.050174184   -0.31055274     0.03572211    -0.19957421     0.0004199753 
   4588000   0.05044248    -0.31063457     0.035720786   -0.19925494    -0.00011926466
   4589000   0.049759033   -0.31072873     0.035970057   -0.20012494    -0.00027908375
   4590000   0.050154808   -0.31074577     0.036105051   -0.19941336    -0.00023215048
   4591000   0.050434992   -0.31094927     0.036197773   -0.19910389     1.6950183e-05
   4592000   0.049860685   -0.31056723     0.036387748   -0.19939328     0.00024433035
   4593000   0.049834505   -0.30991998     0.035607041   -0.19956601     0.00055784176
   4594000   0.05020674    -0.31052076     0.03570012    -0.19951539     0.00013934533
   4595000   0.050585551   -0.31030756     0.03583252    -0.19860161     0.00047820566
   4596000   0.050138661   -0.31053582     0.035722399   -0.19961028     1.0994527e-05
   4597000   0.050215024   -0.31044281     0.035768642   -0.19935649     0.0002789014 
   4598000   0.050152519   -0.31013052     0.035438158   -0.19946844     0.00028830881
   4599000   0.049750507   -0.31081687     0.03569716    -0.20049876     0.00053313997
   4600000   0.050735533   -0.31027828     0.03583872    -0.19834117     0.00032832435
   4601000   0.049767853   -0.31073731     0.036087391   -0.20000295     0.00032904766
   4602000   0.050084034   -0.31049976     0.036545725   -0.19883284     0.0001894786 
   4603000   0.050105627   -0.31053678     0.036578063   -0.19880513     0.00045848105
   4604000   0.050255871   -0.31063296     0.035858414   -0.1993956      0.00020128133
   4605000   0.05037641    -0.31056358     0.035437215   -0.19956663     0.00072479298
   4606000   0.049802411   -0.31086667     0.035575184   -0.20059269     0.0011664834 
   4607000   0.049818129   -0.31041676     0.035915924   -0.19977847    -0.00021969924
   4608000   0.049582526   -0.31026306     0.0361661     -0.19972797    -0.000731233  
   4609000   0.049434933   -0.31055592     0.035315763   -0.20109255    -8.6361074e-05
   4610000   0.049496359   -0.3106812      0.036037684   -0.20040377     0.0003751196 
   4611000   0.050069646   -0.31041268     0.03597603    -0.19933702     0.00060525596
   4612000   0.050168558   -0.31048243     0.036048004   -0.19918644    -0.00024572902
   4613000   0.05065638    -0.31070281     0.035874927   -0.19884821     0.0005891361 
   4614000   0.049825986   -0.31053269     0.03618876    -0.19960977    -0.00074785696
   4615000   0.05006805    -0.31070191     0.035145843   -0.20045883    -0.00046691734
   4616000   0.050062872   -0.31066815     0.035776537   -0.19980215    -0.00030062874
   4617000   0.04942637    -0.31065977     0.036200618   -0.20032438     6.7665762e-06
   4618000   0.05072778    -0.31093931     0.035600476   -0.19925208    -0.00023418864
   4619000   0.050370331   -0.3109402      0.035449731   -0.19993985     0.00015341986
   4620000   0.049973659   -0.31116002     0.035912512   -0.20029185    -9.7281999e-05
   4621000   0.049925438   -0.31077593     0.03617327    -0.19971933    -0.000438438  
   4622000   0.050262871   -0.31080529     0.035751798   -0.19966405    -0.00060509786
   4623000   0.050051011   -0.31053984     0.035395451   -0.20007272     0.00073188576
   4624000   0.049762513   -0.31111347     0.035632574   -0.20084194     0.00039346226
   4625000   0.050199386   -0.3109454      0.036193738   -0.19945745    -0.00052101448
   4626000   0.0496612     -0.31052623     0.035459358   -0.20057988     0.0010930342 
   4627000   0.050347042   -0.31115315     0.035254405   -0.20038305     0.00098819093
   4628000   0.050032753   -0.31091827     0.035969571   -0.19990441    -0.0004013357 
   4629000   0.050039007   -0.31119584     0.035680821   -0.20046135    -9.129162e-05 
   4630000   0.050155924   -0.31083725     0.035947453   -0.19966076    -0.0014432276 
   4631000   0.049668462   -0.31101262     0.035444973   -0.20106976    -1.655175e-05 
   4632000   0.04974473    -0.31105706     0.035873352   -0.20057143     0.00048752275
   4633000   0.050144333   -0.31106488     0.035803953   -0.20004928    -0.00017864619
   4634000   0.049780753   -0.31076188     0.036121943   -0.19997362    -0.00066862488
   4635000   0.050227945   -0.31073493     0.035810286   -0.19958759    -0.00048316492
   4636000   0.04955687    -0.31112311     0.035517343   -0.20127526    -0.00015491014
   4637000   0.050382106   -0.31100428     0.035586014   -0.19984998     0.00054681164
   4638000   0.050217976   -0.3109494      0.035673779   -0.19995352    -0.00017302409
   4639000   0.049963435   -0.3114071      0.036595804   -0.19987098    -0.00053791555
   4640000   0.050178018   -0.31083719     0.036207583   -0.19936743     0.00068044324
   4641000   0.050060299   -0.31048693     0.035885495   -0.19951583     4.9004714e-05
   4642000   0.050823078   -0.31094293     0.0359183     -0.19879493     0.00013960908
   4643000   0.050008038   -0.31081118     0.035520164   -0.2002838      0.00027049742
   4644000   0.049584963   -0.31077986     0.036177801   -0.20022941    -0.00032474399
   4645000   0.050586619   -0.31116178     0.035906509   -0.19938024    -0.00022839987
   4646000   0.050118495   -0.31137726     0.036114419   -0.20008995    -0.00046386518
   4647000   0.049959039   -0.31116877     0.035627894   -0.20060715    -0.00043920946
   4648000   0.050108933   -0.31109484     0.035585064   -0.20035123     0.00032862642
   4649000   0.049720185   -0.31112898     0.035303278   -0.20125024     0.00054064788
   4650000   0.049865499   -0.31111501     0.035407239   -0.20091435    -0.0004616709 
   4651000   0.049914881   -0.31146092     0.035416982   -0.20117645     0.00030336829
   4652000   0.049553976   -0.31134093     0.035582247   -0.20143251     0.00096726691
   4653000   0.049833245   -0.31117079     0.035466923   -0.20095882     0.00046536944
   4654000   0.05037607    -0.31117348     0.036108486   -0.19950577     0.00034493585
   4655000   0.049704205   -0.31108018     0.036196261   -0.20033242    -0.00015197564
   4656000   0.050242237   -0.3115766      0.035530033   -0.20068807     0.0007526995 
   4657000   0.050067151   -0.31126805     0.036028534   -0.20014363    -0.00036798298
   4658000   0.049820324   -0.31143723     0.036210212   -0.20050136    -0.00052541586
   4659000   0.04981055    -0.31127954     0.035291579   -0.20127696     0.00011686813
   4660000   0.04970086    -0.31141826     0.035636892   -0.20123488    -0.00010077364
   4661000   0.050341739   -0.31161584     0.035659984   -0.20044812     0.0002980606 
   4662000   0.049702599   -0.3111603      0.035476869   -0.20113434     0.00075587945
   4663000   0.049659477   -0.31132192     0.035393679   -0.20144383    -0.00044723021
   4664000   0.049299414   -0.31133191     0.035931615   -0.20145594    -0.00022950159
   4665000   0.049986834   -0.31135196     0.035449925   -0.20092662     0.00061330139
   4666000   0.050721245   -0.31152354     0.035597842   -0.19984874     0.00046202211
   4667000   0.050447723   -0.31158747     0.035761682   -0.20015909    -0.00066140574
   4668000   0.050538366   -0.31140831     0.035696238   -0.19990942     0.00041922161
   4669000   0.050098479   -0.31126761     0.035713465   -0.20041127    -0.00039552322
   4670000   0.049501777   -0.31125066     0.035862644   -0.20114014    -0.00070617109
   4671000   0.04984181    -0.31165259     0.035616927   -0.20127777    -0.00069948303
   4672000   0.049748266   -0.31178632     0.035664407   -0.20150432    -5.1551218e-05
   4673000   0.050529034   -0.31129901     0.03575759    -0.19975276    -0.00059205979
   4674000   0.049979088   -0.31129513     0.035618792   -0.20071255     0.00090036582
   4675000   0.049756974   -0.31137122     0.035840048   -0.20090053    -0.00028391374
   4676000   0.050197798   -0.31134253     0.035746156   -0.20030453     0.0011421184 
   4677000   0.049995933   -0.31164405     0.035859703   -0.20079529    -0.00018708984
   4678000   0.049748543   -0.31167986     0.036101647   -0.20096021    -4.1047057e-05
   4679000   0.049959107   -0.31154428     0.036057292   -0.20055317     0.00042062612
   4680000   0.050031498   -0.31144059     0.035768626   -0.20062955     0.00055050848
   4681000   0.049860039   -0.31142127     0.035405937   -0.2012301     -0.00020248294
   4682000   0.04964261    -0.31164625     0.035236998   -0.20195014     0.0011762377 
   4683000   0.049462725   -0.31128673     0.035876275   -0.20122115     0.00052842367
   4684000   0.050233962   -0.31185959     0.036237234   -0.20027628     0.00060411512
   4685000   0.050042706   -0.31170026     0.035534583   -0.20110646    -0.00074084887
   4686000   0.05001176    -0.31143163     0.036345315   -0.20007352    -0.00028333906
   4687000   0.050284328   -0.31125736     0.035340036   -0.2004957      0.00076833883
   4688000   0.050492207   -0.31151926     0.03609789    -0.19968794    -0.00040925129
   4689000   0.050166088   -0.31121647     0.035363065   -0.20060913     1.3323215e-05
   4690000   0.049834902   -0.31171186     0.035897109   -0.20106722     0.00049046868
   4691000   0.049646442   -0.31151224     0.035724129   -0.20132325     0.00030764645
   4692000   0.050348302   -0.31153111     0.035593566   -0.20041996     0.00010237649
   4693000   0.05050986    -0.31185212     0.035719976   -0.20037224     0.00086912983
   4694000   0.049912851   -0.31159959     0.035523424   -0.20121172    -0.00052742641
   4695000   0.050326177   -0.31175356     0.035704275   -0.20056489     0.00035084607
   4696000   0.049437951   -0.31144702     0.035756625   -0.20153825     0.00022439064
   4697000   0.049713874   -0.31169997     0.036252863   -0.20088111    -0.00034400033
   4698000   0.049933919   -0.3113058      0.036007366   -0.20040239     0.00019801809
   4699000   0.050350284   -0.311141       0.03609714    -0.1995233      0.00020973689
   4700000   0.049552187   -0.31163476     0.035646943   -0.20166433    -0.0002575051 
   4701000   0.050127275   -0.31167365     0.035675524   -0.20081206     0.00041092138
   4702000   0.050198961   -0.31199275     0.03585011    -0.20084906    -0.00035579403
   4703000   0.049930867   -0.3117821      0.035668531   -0.2012221     -0.00085898172
   4704000   0.050156054   -0.31183484     0.036451607   -0.20015401    -0.00026763997
   4705000   0.049666017   -0.31181762     0.036128102   -0.2011953      4.07997e-06  
   4706000   0.049448163   -0.31186964     0.035672645   -0.20202953     0.00020597624
   4707000   0.049588364   -0.31185913     0.035614257   -0.20186712    -0.00031748921
   4708000   0.050246297   -0.31165168     0.035746666   -0.20054043     0.001362483  
   4709000   0.049879546   -0.31158229     0.035861058   -0.20090674     6.6630383e-05
   4710000   0.050234971   -0.31180197     0.035945921   -0.20050845    -2.4548246e-05
   4711000   0.050370787   -0.31166858     0.035880303   -0.20023697    -0.00048548008
   4712000   0.050265679   -0.31158315     0.036016794   -0.2001727      0.00034433501
   4713000   0.049548781   -0.31141524     0.036124648   -0.20097221    -0.0010246255 
   4714000   0.050366698   -0.31201384     0.035923972   -0.20054469    -1.150841e-05 
   4715000   0.049889029   -0.31197572     0.036409474   -0.20073753    -0.00061558414
   4716000   0.050200964   -0.31201244     0.036167681   -0.20054817     0.0001834765 
   4717000   0.050114907   -0.31203154     0.035991573   -0.20087245    -0.00020428249
   4718000   0.050408344   -0.3117877      0.03595675    -0.20022331    -0.00066989358
   4719000   0.049796359   -0.31174054     0.035828648   -0.20122217    -0.00064284642
   4720000   0.049905012   -0.31170233     0.035792289   -0.20105735     0.0012034688 
   4721000   0.049751829   -0.31208142     0.035702136   -0.20175635     0.0001325345 
   4722000   0.050524243   -0.31163561     0.036037986   -0.19981615     0.00056329335
   4723000   0.05057119    -0.3116353      0.035723359   -0.20006005     0.0001441547 
   4724000   0.050313255   -0.3118004      0.035665501   -0.20066988     0.00027747977
   4725000   0.049886475   -0.31208933     0.036085251   -0.2011792      0.00057463671
   4726000   0.049867879   -0.31176431     0.035211412   -0.20175591     3.3033548e-05
   4727000   0.049867498   -0.31182365     0.035681902   -0.20134533    -0.0003020351 
   4728000   0.049617473   -0.31172472     0.035808982   -0.20149433     0.00015763011
   4729000   0.049436955   -0.31200946     0.03578912    -0.2020697      0.00072310871
   4730000   0.049794135   -0.3118336      0.035552898   -0.20159431    -0.00017179268
   4731000   0.049800418   -0.31196155     0.035926853   -0.20133889    -0.00064102574
   4732000   0.050162802   -0.31156477     0.036182374   -0.20014304     0.00073269591
   4733000   0.050130991   -0.31154847     0.035370213   -0.20098662     7.1949121e-05
   4734000   0.050342064   -0.31183514     0.035064117   -0.2012628      0.00023163939
   4735000   0.049955212   -0.31205081     0.035512888   -0.20160994    -0.00086796823
   4736000   0.049992941   -0.31243124     0.036097417   -0.20134925     0.00036523472
   4737000   0.049943637   -0.31186872     0.035210709   -0.20174739    -0.00033899462
   4738000   0.049943218   -0.31208026     0.035566408   -0.20160386     0.00037306642
   4739000   0.049689887   -0.31183291     0.035977291   -0.2013256     -0.00051043483
   4740000   0.049558927   -0.31197284     0.036436111   -0.20120313    -0.00015931005
   4741000   0.049848425   -0.31206397     0.035723342   -0.20157282    -0.00074051826
   4742000   0.050104258   -0.31187631     0.036334259   -0.20039051     0.00078440599
   4743000   0.05057413    -0.31259836     0.036149309   -0.20059275    -8.6194066e-05
   4744000   0.050343987   -0.31225288     0.035956425   -0.20078535     8.6171625e-05
   4745000   0.050149515   -0.31260041     0.035897437   -0.20148355    -0.00067907906
   4746000   0.050394965   -0.31226158     0.03566679    -0.20100722    -0.00011437652
   4747000   0.050514513   -0.31190809     0.035531075   -0.20061014     0.00055390506
   4748000   0.050033783   -0.31188507     0.035543855   -0.20129538     0.00048830026
   4749000   0.049657238   -0.31245277     0.035778664   -0.20219305    -0.00016817842
   4750000   0.050200529   -0.31237411     0.035908523   -0.20116965     0.00015977028
   4751000   0.050172555   -0.31256954     0.03596707    -0.20134849    -0.0012410111 
   4752000   0.050341122   -0.31249781     0.035465221   -0.20152578    -4.874341e-05 
   4753000   0.049964591   -0.31218738     0.035863855   -0.20138147    -0.00052631491
   4754000   0.05019963    -0.31209648     0.036073039   -0.20072885    -0.00012384121
   4755000   0.050429889   -0.31245987     0.035551706   -0.20126821    -7.2560605e-05
   4756000   0.050092597   -0.31222158     0.03562913    -0.2014584      0.00020852321
   4757000   0.049660121   -0.31264219     0.036150277   -0.20200653    -4.7456103e-05
   4758000   0.050041612   -0.31233576     0.035344942   -0.20193324     0.00013924867
   4759000   0.05022389    -0.31253112     0.035817782   -0.20138236     7.1780327e-05
   4760000   0.050243432   -0.31233687     0.035462236   -0.20151434    -0.00061492987
   4761000   0.05015702    -0.31225158     0.036061526   -0.20095938     0.0012739381 
   4762000   0.050631378   -0.31190002     0.035547514   -0.20041034    -0.00026916843
   4763000   0.050282415   -0.31233088     0.036095798   -0.20081632     1.3326364e-05
   4764000   0.050540714   -0.31206771     0.035670693   -0.20059083    -0.00012034205
   4765000   0.050283959   -0.31245514     0.035714636   -0.20131943     0.00051992506
   4766000   0.049624317   -0.31248088     0.036084482   -0.20196472     0.00021000263
   4767000   0.049950188   -0.31206531     0.03543336    -0.2017115      0.00084678426
   4768000   0.049565701   -0.312583       0.035368327   -0.20287092    -4.8590346e-05
   4769000   0.050334931   -0.31229157     0.035367078   -0.20142696     0.00040782411
   4770000   0.050018027   -0.31232165     0.036070733   -0.20122872     0.0010054449 
   4771000   0.049641326   -0.31244476     0.036027239   -0.20196034    -0.00040652114
   4772000   0.049792397   -0.31280439     0.035333981   -0.20278663     0.00072598398
   4773000   0.049527849   -0.31238921     0.035835175   -0.20226705    -0.00062125844
   4774000   0.05013458    -0.31273439     0.035695107   -0.20184226    -0.0002486791 
   4775000   0.049682573   -0.31229084     0.03545847    -0.20231332     0.0014379545 
   4776000   0.049709031   -0.31264739     0.035499951   -0.2025887      0.00010390664
   4777000   0.04998118    -0.31218802     0.035787863   -0.20143322     0.0004263935 
   4778000   0.050268721   -0.31182708     0.035912756   -0.20051611    -3.6202143e-05
   4779000   0.049842444   -0.31245901     0.035947993   -0.20175218    -0.00020483841
   4780000   0.050088383   -0.31276636     0.035776751   -0.20186188    -9.898673e-05 
   4781000   0.050777412   -0.31242229     0.035343295   -0.20091779    -0.00015605547
   4782000   0.050205576   -0.31268889     0.035748059   -0.20163732     6.4231634e-05
   4783000   0.050204775   -0.31254579     0.035947976   -0.20129551     1.0289257e-05
   4784000   0.050361894   -0.31261695     0.034978397   -0.20210059     0.00061155509
   4785000   0.049444251   -0.31265027     0.035698843   -0.20278983     0.00026331443
   4786000   0.049569242   -0.31221368     0.035404714   -0.2024599      0.0011683739 
   4787000   0.050246493   -0.31240483     0.03545812    -0.20158183    -0.00079878237
   4788000   0.050149385   -0.31245869     0.036389678   -0.20084978     0.0002154007 
   4789000   0.050399498   -0.31280582     0.036858309   -0.20035314    -0.00061346536
   4790000   0.049916306   -0.31258657     0.035671713   -0.20204523    -0.00030025368
   4791000   0.049970891   -0.31218674     0.035834416   -0.20140083     0.00021060803
   4792000   0.049650526   -0.31205289     0.035970633   -0.20161127    -0.00096854216
   4793000   0.049926914   -0.31279898     0.035888926   -0.20202452     0.00060003124
   4794000   0.049938791   -0.31258064     0.036331045   -0.20134624    -0.00041180868
   4795000   0.049728283   -0.31263108     0.035936608   -0.20210686     0.00033598573
   4796000   0.05028176    -0.31280222     0.036223671   -0.20116078    -0.00045049554
   4797000   0.049967419   -0.31256949     0.036061221   -0.20156198    -0.00056619338
   4798000   0.050080986   -0.3129203      0.03626825    -0.20153542     0.00029525812
   4799000   0.050171438   -0.31247258     0.036326508   -0.20089377    -0.00025111933
   4800000   0.050118716   -0.31268508     0.035543189   -0.20196867    -0.00010539843
   4801000   0.050269093   -0.31263304     0.036254817   -0.20097945    -0.00038756956
   4802000   0.050169138   -0.31245336     0.035982444   -0.20122206    -0.00015195837
   4803000   0.050217884   -0.31246949     0.035961951   -0.20118557     0.00044396402
   4804000   0.050126759   -0.31265071     0.03622843    -0.201237      -0.00053870322
   4805000   0.050190766   -0.31221789     0.035803984   -0.20113261     0.00043641176
   4806000   0.050443299   -0.31267864     0.035632021   -0.20138655     0.00015725415
   4807000   0.049770322   -0.31292304     0.035864784   -0.20240759    -0.00029838661
   4808000   0.04981203    -0.31229882     0.03542924    -0.20215635     0.0010684089 
   4809000   0.050319447   -0.31281522     0.035347801   -0.20199312    -0.00092683008
   4810000   0.049720197   -0.31253395     0.035161422   -0.20279704     0.00065419207
   4811000   0.04949987    -0.31272576     0.035617207   -0.20286354    -0.00053820197
   4812000   0.049687558   -0.3128524      0.035808359   -0.20251751     0.00012642737
   4813000   0.050034777   -0.31275019     0.035644629   -0.20205824    -8.3277677e-05
   4814000   0.049941746   -0.31269304     0.0359041     -0.20188115    -0.0014187971 
   4815000   0.049976572   -0.31239199     0.035392841   -0.20203913     0.00021155948
   4816000   0.050223957   -0.31270457     0.036046033   -0.20132746    -0.00072441529
   4817000   0.050345793   -0.31240263     0.036009495   -0.20087931     0.00016723395
   4818000   0.050265674   -0.3123749      0.035580468   -0.20140079     0.00050653405
   4819000   0.050748571   -0.31281552     0.035330401   -0.20136718     0.00044948794
   4820000   0.049672269   -0.3128541      0.036003722   -0.20234678    -0.00052440691
   4821000   0.04994241    -0.31259426     0.035641631   -0.20204385     0.00022382329
   4822000   0.050127256   -0.31275074     0.035970062   -0.20159465     0.00011910167
   4823000   0.050123503   -0.31284336     0.035677444   -0.20198551    -0.00036122847
   4824000   0.050182701   -0.31266947     0.035512975   -0.2018873     -0.00011986295
   4825000   0.049947295   -0.31266008     0.035481495   -0.20226247     0.00025787475
   4826000   0.049885418   -0.31289251     0.035545332   -0.20252388     0.0001370819 
   4827000   0.049420454   -0.3130688      0.03629094    -0.20265197    -0.0001318944 
   4828000   0.049893738   -0.31298961     0.036174166   -0.20197967    -0.00080583171
   4829000   0.050310882   -0.31275817     0.036090842   -0.20120587     2.1129779e-05
   4830000   0.050442306   -0.31272182     0.03598212    -0.20108112    -0.00045629518
   4831000   0.049608966   -0.31305912     0.036143464   -0.20250701    -8.0566836e-05
   4832000   0.049977314   -0.31278942     0.035493519   -0.20233476    -8.4483849e-06
   4833000   0.049650268   -0.31261949     0.035606797   -0.20254209     0.00068784529
   4834000   0.049878291   -0.3127452      0.035645144   -0.20228745     0.00080162121
   4835000   0.049309362   -0.3125059      0.035507015   -0.20303961    -0.00026991322
   4836000   0.049501415   -0.31291424     0.035705306   -0.2029616     -0.0002284374 
   4837000   0.049778909   -0.31272433     0.035845342   -0.20221544     9.6084307e-06
   4838000   0.050368441   -0.3128017      0.035747761   -0.20150615    -0.00014807992
   4839000   0.050298545   -0.31267263     0.035533307   -0.20169637     0.00030225978
   4840000   0.049728545   -0.31283413     0.035118073   -0.20312805     0.00027700377
   4841000   0.049365972   -0.31213034     0.035877574   -0.20220858    -0.00036572647
   4842000   0.049759037   -0.31264069     0.035536941   -0.20247001     0.0010516077 
   4843000   0.049901724   -0.31287535     0.036422378   -0.20160521    -4.0917714e-05
   4844000   0.050242496   -0.31304066     0.035915968   -0.20176581     0.00071587112
   4845000   0.050512203   -0.31263532     0.036281839   -0.20059006    -0.00020357714
   4846000   0.050463955   -0.31279996     0.036037455   -0.20107145    -0.00015088006
   4847000   0.050346952   -0.31241327     0.035411624   -0.20148609     0.0010085446 
   4848000   0.05021094    -0.31249887     0.035993202   -0.20119412     0.00017736592
   4849000   0.050704656   -0.31261643     0.036231059   -0.20033329     0.00028239535
   4850000   0.049985629   -0.31258028     0.036177721   -0.20142896     0.00016340669
   4851000   0.05014647    -0.31298712     0.034960426   -0.20281185     0.00020557538
   4852000   0.049773934   -0.31280533     0.036006533   -0.20214271     0.00022502091
   4853000   0.050048757   -0.31245998     0.035394636   -0.20199706    -0.00014013205
   4854000   0.050700972   -0.31284819     0.03535856    -0.20144308     1.439251e-05 
   4855000   0.049969065   -0.31247972     0.036061167   -0.20146979     0.00033600259
   4856000   0.049967569   -0.31292901     0.035758927   -0.20222357    -0.00059239529
   4857000   0.049858321   -0.31288578     0.035917224   -0.20218589     0.00088910096
   4858000   0.049857693   -0.31269004     0.036123019   -0.20178531    -0.00054444841
   4859000   0.04983557    -0.31280837     0.035987769   -0.20207207     0.00019121687
   4860000   0.050350103   -0.31263476     0.036747037   -0.20036744    -4.0210418e-05
   4861000   0.050034266   -0.31223853     0.035670754   -0.20152122    -8.1057507e-06
   4862000   0.050109551   -0.31267158     0.03580275    -0.20170935    -0.00092110251
   4863000   0.050279052   -0.31275848     0.036023799   -0.20132096    -0.00035085832
   4864000   0.050036024   -0.3130755      0.036155297   -0.20187101     0.00084272385
   4865000   0.049805392   -0.31255974     0.035656415   -0.20220005     0.00052241161
   4866000   0.05005818    -0.31279507     0.03641114    -0.2013015      0.00034935687
   4867000   0.049765371   -0.31280123     0.035905954   -0.20225203     0.00031889918
   4868000   0.05034114    -0.31267499     0.03541395    -0.2017542      0.0013850866 
   4869000   0.049480774   -0.31257633     0.035992266   -0.20236769    -0.00086935387
   4870000   0.050260205   -0.31310077     0.036285406   -0.20142992    -0.00052180378
   4871000   0.050524146   -0.31293564     0.035523624   -0.20163069    -0.00023601742
   4872000   0.050369716   -0.31281139     0.035410786   -0.20185091    -0.00023477401
   4873000   0.050387742   -0.31293569     0.035990271   -0.20136868    -0.0002462906 
   4874000   0.050232499   -0.31260534     0.036025983   -0.20123547    -0.00020515469
   4875000   0.049904384   -0.3127736      0.035390114   -0.20253174     0.00031408554
   4876000   0.049992467   -0.31281389     0.036289747   -0.20154028    -0.00091079526
   4877000   0.050517707   -0.31315609     0.036087354   -0.20129707    -0.00027977251
   4878000   0.049631027   -0.3134311      0.035595084   -0.20339428    -0.00017904876
   4879000   0.049915673   -0.31305772     0.035784124   -0.20240492    -4.5436448e-05
   4880000   0.049894225   -0.31273924     0.035876675   -0.20202605    -0.00050433313
   4881000   0.050428605   -0.31288272     0.035047781   -0.20219691     0.0015641607 
   4882000   0.05005734    -0.31299115     0.035541262   -0.20236873     0.0010201217 
   4883000   0.050129458   -0.31282046     0.036185484   -0.20144564     0.00081960558
   4884000   0.050384046   -0.31243502     0.035965121   -0.20089871    -0.00059578903
   4885000   0.050679798   -0.31248258     0.035805392   -0.2006624      0.0011026198 
   4886000   0.050534578   -0.31276489     0.036033941   -0.20093397    -0.00011508503
   4887000   0.050075466   -0.31254657     0.036354313   -0.2010839      3.7262968e-06
   4888000   0.0497718     -0.31284451     0.036124609   -0.20206702    -0.00052550906
   4889000   0.050199556   -0.3125745      0.036293457   -0.20098657     0.00045290854
   4890000   0.051014444   -0.31291441     0.035507995   -0.20088969     0.00064135653
   4891000   0.04995128    -0.31274282     0.03566586    -0.20215488     0.0002666876 
   4892000   0.049747401   -0.31263819     0.035774506   -0.20224739     0.00067304807
   4893000   0.050340143   -0.31269917     0.035250302   -0.20194353    -0.00055394604
   4894000   0.049862708   -0.31302912     0.035847296   -0.20239258    -0.00013835972
   4895000   0.050246861   -0.31257608     0.035775764   -0.20143488     0.00036987848
   4896000   0.04976089    -0.31250149     0.036086711   -0.20177826     0.00021752769
   4897000   0.049964383   -0.31320315     0.035495102   -0.20276631     0.00061649029
   4898000   0.050017677   -0.31258156     0.035491699   -0.20206818    -0.00032862007
   4899000   0.050340276   -0.31306841     0.035602264   -0.20196061     0.0002251244 
   4900000   0.049997598   -0.31304513     0.035737207   -0.20231637    -4.5879355e-05
   4901000   0.050002935   -0.31334035     0.035859747   -0.20248104    -0.00030129548
   4902000   0.04975809    -0.31309792     0.036088997   -0.2023766      0.00040847422
   4903000   0.05007895    -0.31323549     0.036073919   -0.202048      -0.0002442101 
   4904000   0.050051614   -0.3127319      0.035424542   -0.20223478     0.00074723234
   4905000   0.050490307   -0.31306744     0.035913071   -0.20142379     2.0845352e-05
   4906000   0.049741468   -0.31298828     0.035644798   -0.2027361      0.00059133643
   4907000   0.050014148   -0.31339033     0.036381504   -0.20199244     0.00040603604
   4908000   0.050233195   -0.31326495     0.036010646   -0.20190938    -0.00021801693
   4909000   0.049885179   -0.31336325     0.035613626   -0.20292668    -0.00030249448
   4910000   0.049578814   -0.31344038     0.035729981   -0.20334698    -0.00015713428
   4911000   0.049713662   -0.31367919     0.035888123   -0.20322538    -0.00045493806
   4912000   0.05002918    -0.31308658     0.035764822   -0.20228283     0.0011285682 
   4913000   0.050473504   -0.31312337     0.035705263   -0.20171274    -0.00023004014
   4914000   0.050903642   -0.31289776     0.035850442   -0.20069678     0.00099672129
   4915000   0.050152977   -0.313321       0.035583329   -0.20251305    -0.00012400554
   4916000   0.050107192   -0.31314515     0.035281131   -0.20270808     8.136535e-05 
   4917000   0.050439738   -0.31322982     0.035507851   -0.20206724     8.5025304e-05
   4918000   0.050328295   -0.31312759     0.035539159   -0.20210086     0.00023613395
   4919000   0.049452986   -0.31328403     0.036082608   -0.20302673    -0.00017992658
   4920000   0.049471603   -0.31330243     0.035353548   -0.20374627     0.0004524584 
   4921000   0.049593607   -0.31309778     0.035854594   -0.20285758     6.26574e-05  
   4922000   0.050489751   -0.31370573     0.035727612   -0.20224838     0.00022279731
   4923000   0.050008241   -0.3128032      0.035761579   -0.2020341      9.9601639e-05
   4924000   0.04937113    -0.31307514     0.035710125   -0.20331309     0.00067493761
   4925000   0.05022369    -0.31318842     0.035574067   -0.20228367    -0.00018114023
   4926000   0.049808266   -0.31327756     0.036192015   -0.20237796     0.00010787344
   4927000   0.05027274    -0.31283335     0.036142646   -0.20128646     0.00076578176
   4928000   0.050483831   -0.31311348     0.035813901   -0.20157871     0.0011536159 
   4929000   0.050242843   -0.31326335     0.035995346   -0.2019086     -1.7923878e-05
   4930000   0.050219      -0.31337998     0.036505861   -0.20155048    -0.00026936799
   4931000   0.050389671   -0.31314418     0.03623507    -0.20132948     0.0005369127 
   4932000   0.0497373     -0.31323903     0.035906591   -0.20273131    -0.00024477043
   4933000   0.049580476   -0.31324769     0.035709403   -0.20317238    -0.00031706705
   4934000   0.049037423   -0.31370989     0.035632964   -0.20452554    -4.9941674e-05
   4935000   0.04951613    -0.31352012     0.035758587   -0.20349213     4.1179821e-05
   4936000   0.04938216    -0.3126342      0.035889327   -0.20267641    -6.5698074e-05
   4937000   0.049623394   -0.31330565     0.036293769   -0.20258159     0.00023778117
   4938000   0.050567064   -0.31341813     0.035987246   -0.20158519    -5.7779804e-05
   4939000   0.050034546   -0.31304115     0.035848361   -0.20214581     0.00061374478
   4940000   0.050265386   -0.31295848     0.035896036   -0.20166923    -0.00033172551
   4941000   0.049876161   -0.31333866     0.036718384   -0.20181086    -0.0010283179 
   4942000   0.049846823   -0.31358317     0.035469767   -0.20334799    -0.0003450041 
   4943000   0.050138266   -0.31380977     0.035367571   -0.20323965    -0.00011176231
   4944000   0.049666131   -0.31369108     0.035571718   -0.20362497    -0.00041839123
   4945000   0.04994998    -0.31324698     0.035187693   -0.20313915     0.0009573037 
   4946000   0.050110719   -0.31327835     0.035829868   -0.20228725     0.00026501147
   4947000   0.050117945   -0.31321808     0.036188617   -0.20185739    -0.00090572847
   4948000   0.050297613   -0.31373458     0.035669837   -0.20262319     0.00024632377
   4949000   0.049928708   -0.31355138     0.036075877   -0.20258728    -2.5484321e-06
   4950000   0.050291852   -0.31351605     0.036141821   -0.20194132    -0.00053208181
   4951000   0.049943327   -0.31346806     0.035729844   -0.20282806     0.00075015498
   4952000   0.049512749   -0.31373182     0.035637961   -0.20382953     0.00071456207
   4953000   0.049795876   -0.31353714     0.035685912   -0.20316223    -0.00068817246
   4954000   0.0506611     -0.3135724      0.036252219   -0.20133344     0.00032749898
   4955000   0.050523768   -0.31308081     0.035936793   -0.20136325    -0.00020863431
   4956000   0.050438084   -0.3135426      0.036440372   -0.20144998    -0.00042240874
   4957000   0.050007916   -0.31339385     0.035980139   -0.20240668     0.00016834397
   4958000   0.050463313   -0.31339653     0.035612705   -0.20209373     0.00028699483
   4959000   0.050508248   -0.31344367     0.035217879   -0.20246831     0.00032554764
   4960000   0.050191817   -0.31369199     0.034999353   -0.20340977     0.00074212147
   4961000   0.049751728   -0.31335601     0.03580781    -0.20292542    -0.00043192133
   4962000   0.050063151   -0.31382056     0.035796559   -0.20293412    -0.00024582088
   4963000   0.050179073   -0.31383992     0.035654829   -0.20292134     0.00072697724
   4964000   0.04996797    -0.31382216     0.03557487    -0.20330017    -0.00070407392
   4965000   0.049904113   -0.31371715     0.035980594   -0.20288521     0.00051785942
   4966000   0.049418528   -0.3134978      0.035995691   -0.2033791      0.00045353195
   4967000   0.049622116   -0.31354853     0.035555592   -0.20356456     1.5478124e-05
   4968000   0.049586801   -0.31387363     0.035501509   -0.20399671     4.5826233e-05
   4969000   0.050134801   -0.31381688     0.035425156   -0.20319437    -0.00032838784
   4970000   0.050002221   -0.31366008     0.035740717   -0.20292087     0.0004530357 
   4971000   0.049844874   -0.31378422     0.035646997   -0.20337474     0.00032624944
   4972000   0.049697258   -0.31334518     0.035034737   -0.20376936     0.00062381565
   4973000   0.049818838   -0.31363408     0.035906128   -0.20300452    -0.00036483795
   4974000   0.04996585    -0.31315381     0.035965674   -0.2022442     -0.00034760493
   4975000   0.049967475   -0.31338346     0.036105272   -0.20233182     0.00058813453
   4976000   0.049993233   -0.31400781     0.036778322   -0.20224448    -0.00074898978
   4977000   0.049919366   -0.31353382     0.036117515   -0.20254209     0.00015089699
   4978000   0.049551194   -0.31354441     0.035575461   -0.20364695     7.9696865e-05
   4979000   0.049757946   -0.31353055     0.035997767   -0.20290068     0.00014476209
   4980000   0.050408692   -0.31328099     0.035969022   -0.20170381     9.3467445e-05
   4981000   0.049908111   -0.31395248     0.035983256   -0.20311189     0.00090772066
   4982000   0.049916353   -0.31347351     0.035817762   -0.20278605     0.00092684346
   4983000   0.04995222    -0.31344911     0.035824908   -0.2027007     -0.00043400946
   4984000   0.049944373   -0.31365941     0.035961695   -0.20278598     0.00011330336
   4985000   0.050148694   -0.31367156     0.035869883   -0.20258349     0.00060324275
   4986000   0.050364241   -0.31375762     0.035786043   -0.20243009    -0.00013861278
   4987000   0.049936264   -0.31388441     0.035484363   -0.20350049    -0.0010588494 
   4988000   0.049640001   -0.31406518     0.035956732   -0.20365325     5.2381595e-05
   4989000   0.049900145   -0.31372553     0.035198923   -0.20368121     0.00094206245
   4990000   0.049538116   -0.31357033     0.035688658   -0.20357929    -0.00065231796
   4991000   0.049795898   -0.31389817     0.03605448    -0.20315467     0.0010440088 
   4992000   0.050542657   -0.31411678     0.036117208   -0.20219048    -0.00016594668
   4993000   0.049986854   -0.3140264      0.035624085   -0.20342687    -0.00042856605
   4994000   0.050150149   -0.3142794      0.036337867   -0.20272116    -0.00096581965
   4995000   0.049531275   -0.31409823     0.035617467   -0.20418864    -0.0013762197 
   4996000   0.050230508   -0.31372601     0.035506758   -0.20287835    -0.00047344565
   4997000   0.050087709   -0.31311911     0.03524732    -0.20274507     1.2851912e-05
   4998000   0.050271737   -0.31368346     0.035818156   -0.20246257    -8.943707e-06 
   4999000   0.050207505   -0.31405238     0.035934551   -0.20281143     0.00023512928
   5000000   0.050031964   -0.31385439     0.036019331   -0.20279195    -0.0015985658 
   5001000   0.04978618    -0.31381555     0.035323754   -0.20381734     8.2696127e-05
   5002000   0.049505561   -0.31397844     0.035898027   -0.20382686     0.00013749082
   5003000   0.049679018   -0.31402845     0.035382723   -0.20413201     0.00073908596
   5004000   0.049302022   -0.31385657     0.035767971   -0.20414034     0.00025135464
   5005000   0.049958034   -0.31362513     0.035971908   -0.202721       0.00019559877
   5006000   0.049573345   -0.31355478     0.03611054    -0.20308902    -0.00010908602
   5007000   0.049606661   -0.31366383     0.035828035   -0.2034306      0.0010679906 
   5008000   0.050056412   -0.31326784     0.035214737   -0.20297332     4.2945783e-05
   5009000   0.049365511   -0.31378168     0.036083698   -0.20365449    -0.00033974796
   5010000   0.049805847   -0.31399646     0.036129132   -0.20316338     0.00019429663
   5011000   0.049863296   -0.31391771     0.036155974   -0.20297162     0.00052396329
   5012000   0.050360772   -0.31355361     0.03516273    -0.2028546      0.0010566306 
   5013000   0.050073128   -0.31340267     0.035592392   -0.20270543    -0.00069353476
   5014000   0.050075142   -0.31406032     0.036042612   -0.20290985    -2.4942444e-05
   5015000   0.049623964   -0.31350439     0.035201876   -0.20387137     0.00023868191
   5016000   0.04963601    -0.31386089     0.035483727   -0.20392795     0.00015791702
   5017000   0.049848347   -0.31329601     0.035635764   -0.20289255    -6.4669886e-05
   5018000   0.050095315   -0.31364821     0.035346245   -0.20316384     0.00083652623
   5019000   0.050384201   -0.31380374     0.03578321    -0.20244911     0.00037140714
   5020000   0.049350991   -0.3138405      0.035490994   -0.2043278     -0.00034324445
   5021000   0.049644641   -0.31372196     0.035883041   -0.20337676     0.00012317815
   5022000   0.049832582   -0.31391466     0.035315802   -0.20385481     5.9824805e-05
   5023000   0.049869699   -0.31399331     0.03587135    -0.20332224    -0.0009717968 
   5024000   0.049790323   -0.31339321     0.035053078   -0.20365947     0.00024959488
   5025000   0.049377612   -0.31394133     0.035504394   -0.20437529     0.00018406717
   5026000   0.05039511    -0.31406712     0.035601838   -0.20287749    -0.0013307436 
   5027000   0.050307832   -0.31383507     0.035872024   -0.20250617     7.7477445e-05
   5028000   0.050278294   -0.31379683     0.035970434   -0.20241382     0.00040280582
   5029000   0.050242493   -0.3137126      0.035570649   -0.20278307     9.0602283e-05
   5030000   0.050558166   -0.3136807      0.035289665   -0.20255868    -0.0004341576 
   5031000   0.050409756   -0.31371694     0.035925058   -0.20218213    -0.00045351348
   5032000   0.050409659   -0.31423828     0.035669729   -0.20295894    -0.0002925758 
   5033000   0.049747582   -0.31421781     0.03634618    -0.20325507     0.0005010569 
   5034000   0.049783259   -0.31415089     0.036139901   -0.20334092     0.00040076782
   5035000   0.050122606   -0.31411721     0.036247334   -0.20269082     0.00080914948
   5036000   0.050352132   -0.31440807     0.034969432   -0.20391531     0.00036736543
   5037000   0.050130831   -0.31428703     0.03595634    -0.2031393     -0.00060955432
   5038000   0.049584752   -0.31382949     0.035965568   -0.20349159     0.00057714297
   5039000   0.05021088    -0.31411621     0.035757859   -0.20304689    -0.00029894531
   5040000   0.049873472   -0.3138875      0.035773202   -0.20330891     2.5401568e-05
   5041000   0.050043941   -0.31375445     0.035605565   -0.20308781     5.8336107e-06
   5042000   0.049648801   -0.31409095     0.036070465   -0.20355209    -0.00024762882
   5043000   0.049790213   -0.31401151     0.036397368   -0.20293364     0.00041600711
   5044000   0.050031276   -0.31397377     0.035747252   -0.20318444    -0.00024449468
   5045000   0.050027083   -0.31394653     0.035190827   -0.20371992     0.00020308117
   5046000   0.050391867   -0.31328252     0.035358461   -0.20234114     0.00073509016
   5047000   0.050057597   -0.31383653     0.03635204    -0.20240294    -0.00027048189
   5048000   0.049926885   -0.31403773     0.03601293    -0.2031393      6.7779836e-05
   5049000   0.050151577   -0.31397599     0.035775836   -0.20297764    -0.00025842717
   5050000   0.049915053   -0.31361706     0.035628957   -0.20312035    -0.00031961874
   5051000   0.04967937    -0.31343133     0.035291992   -0.20362509     0.00056447307
   5052000   0.050228976   -0.31389231     0.036015218   -0.20253848     0.0012747079 
   5053000   0.04984512    -0.3137075      0.035078107   -0.20386653     0.00074997547
   5054000   0.050142935   -0.31386077     0.035382001   -0.20326921     0.00038303415
   5055000   0.049732674   -0.31394204     0.035639533   -0.20370831    -0.00024379558
   5056000   0.049782842   -0.31382889     0.035399098   -0.20376035     0.0002365354 
   5057000   0.049903884   -0.31420514     0.035800386   -0.20355375    -0.00049889175
   5058000   0.049678735   -0.31373126     0.035862789   -0.20335518     0.00039535146
   5059000   0.049890513   -0.31376041     0.035489963   -0.2034395      0.0003586229 
   5060000   0.050352054   -0.31394092     0.035953143   -0.20246457     0.00093370388
   5061000   0.050009116   -0.31392245     0.035605119   -0.2033085      0.00060830143
   5062000   0.049994824   -0.31366599     0.036749855   -0.20192874     0.00049915925
   5063000   0.050390588   -0.31358792     0.035861611   -0.2021453      0.0009739274 
   5064000   0.049963596   -0.31378066     0.035679874   -0.20316022    -0.00053462453
   5065000   0.049718523   -0.31392353     0.036424063   -0.2029265     -0.0013867268 
   5066000   0.049884066   -0.3137438      0.035394117   -0.20352841    -0.00044748907
   5067000   0.05025339    -0.31401829     0.035796079   -0.20284699     0.0010945467 
   5068000   0.050297558   -0.31397872     0.035573385   -0.20296387     0.00015648795
   5069000   0.04986937    -0.31397866     0.03607437    -0.20310507    -0.00075429356
   5070000   0.050347594   -0.31396583     0.035884444   -0.20256487    -0.0005095968 
   5071000   0.05026693    -0.3139102      0.035760726   -0.20275394    -8.406758e-05 
   5072000   0.050042647   -0.31347555     0.035807024   -0.2026094      0.00036053103
   5073000   0.04984006    -0.31390085     0.03589351    -0.20325208     0.00029064528
   5074000   0.049996504   -0.31432053     0.035751563   -0.20357905     0.00037265908
   5075000   0.04958357    -0.31429575     0.035413428   -0.20451177     0.00043460734
   5076000   0.049929534   -0.31411077     0.035290132   -0.20393116    -0.00041697124
   5077000   0.049856437   -0.31407092     0.035455801   -0.20383529    -0.00022622428
   5078000   0.049976924   -0.31421433     0.036302549   -0.20295124     0.0010277808 
   5079000   0.049941038   -0.31379581     0.035288411   -0.20360067     0.00074081406
   5080000   0.049787917   -0.31384998     0.035624656   -0.20354827     0.00062732269
   5081000   0.049939915   -0.31397147     0.035953428   -0.20311301     0.00038797084
   5082000   0.050054182   -0.31464661     0.036314804   -0.20325538     4.7247054e-06
   5083000   0.050423307   -0.31406375     0.035986588   -0.20244709     0.00017951678
   5084000   0.050088602   -0.31429508     0.036163242   -0.20300378     0.0005930615 
   5085000   0.050229925   -0.31394429     0.035869014   -0.20273525     0.00087227153
   5086000   0.049776352   -0.31345079     0.035981556   -0.20280952    -0.0006500787 
   5087000   0.050031206   -0.31412099     0.035467563   -0.20361146     0.00042936431
   5088000   0.049697903   -0.31367666     0.036105907   -0.2030287      0.0002561875 
   5089000   0.049754438   -0.31393108     0.035576374   -0.20372787    -0.00022629182
   5090000   0.050240082   -0.31422231     0.035732298   -0.20313475     0.0005479859 
   5091000   0.049475859   -0.31385909     0.035542417   -0.20410767    -0.00022764669
   5092000   0.049741731   -0.31471855     0.036222231   -0.20388854    -0.00068679578
   5093000   0.050296372   -0.31407073     0.035932907   -0.20269814    -0.00041998096
   5094000   0.05048545    -0.314118       0.035626727   -0.20276799     0.00033090993
   5095000   0.049520723   -0.31406506     0.035887714   -0.20390106    -0.00016598056
   5096000   0.04928097    -0.31418718     0.035160631   -0.20510986     0.00045603794
   5097000   0.04940337    -0.3138617      0.035340714   -0.20442071    -0.00028708   
   5098000   0.050446045   -0.3139384      0.035962469   -0.20231175     0.00014695931
   5099000   0.049950874   -0.31387533     0.035329477   -0.20362438     0.0006634679 
   5100000   0.049935415   -0.31406325     0.03516196    -0.204003       0.00087906326
   5101000   0.049723443   -0.31375539     0.035464857   -0.20371018    -0.00028157097
   5102000   0.050125895   -0.31384134     0.035372495   -0.20328485     0.00068131237
   5103000   0.049942185   -0.31402922     0.035724357   -0.20339642     0.00012737664
   5104000   0.050119293   -0.31407428     0.03549894    -0.20340125    -0.00032328814
   5105000   0.05029679    -0.31400419     0.035616139   -0.20294773    -0.00035026586
   5106000   0.049515564   -0.31416141     0.035633437   -0.20425942    -0.00082140201
   5107000   0.050119061   -0.31364743     0.036004341   -0.20246935     0.00066049701
   5108000   0.05034417    -0.31410839     0.035782317   -0.20281469     0.00095026037
   5109000   0.049583219   -0.31398795     0.036109766   -0.20350816     8.0186872e-06
   5110000   0.04947262    -0.31400485     0.03552942    -0.20427129     0.00069758458
   5111000   0.0505103     -0.31433325     0.035124124   -0.20344856     0.0004896777 
   5112000   0.050048324   -0.31416925     0.036696068   -0.20240554     0.00014815041
   5113000   0.050396582   -0.31392489     0.036020741   -0.20231415     0.00037856501
   5114000   0.049970651   -0.31374719     0.035124955   -0.2036711      0.00036460994
   5115000   0.050086376   -0.3141007      0.035927835   -0.20304815    -0.00032529017
   5116000   0.049948201   -0.31412287     0.035861601   -0.2033438      0.00066602626
   5117000   0.049779215   -0.31444498     0.035788787   -0.20399219     0.00098141458
   5118000   0.049750074   -0.31419461     0.035954692   -0.20361962    -0.00062664396
   5119000   0.049397809   -0.31435166     0.036358215   -0.20390151    -0.00026744315
   5120000   0.050357812   -0.31417786     0.036359294   -0.20228672    -0.0006167924 
   5121000   0.049746793   -0.31423388     0.036007491   -0.20361101    -1.4719156e-05
   5122000   0.050302028   -0.31382113     0.035168682   -0.20320427     1.0244464e-05
   5123000   0.050057556   -0.31427501     0.035571015   -0.20362251     0.00012993239
   5124000   0.049722442   -0.31443791     0.036268858   -0.2035902     -0.001038121  
   5125000   0.050311124   -0.31400734     0.035912856   -0.20263267     0.00035043204
   5126000   0.050091723   -0.31403245     0.036367037   -0.20253267     0.00067571589
   5127000   0.049612489   -0.3142576      0.036323408   -0.20352026    -0.00045864872
   5128000   0.050235378   -0.31493868     0.035159838   -0.20443063    -0.00056111634
   5129000   0.050132564   -0.31433429     0.035961851   -0.20317844     0.00023172806
   5130000   0.049909885   -0.31426211     0.035782237   -0.20361988    -0.00090198373
   5131000   0.049478133   -0.31439407     0.035669785   -0.20451187     0.00015979264
   5132000   0.049376455   -0.31403996     0.035827776   -0.20415228    -9.1357034e-05
   5133000   0.049670709   -0.31439055     0.036174949   -0.20371435    -0.00020477346
   5134000   0.049736276   -0.31418492     0.035506706   -0.20407861    -0.00084971881
   5135000   0.050618624   -0.31429386     0.035747651   -0.20262317     0.00091667798
   5136000   0.050605273   -0.3139698      0.035946637   -0.20212015     0.0006044704 
   5137000   0.049454144   -0.31376004     0.036417326   -0.20316629     0.00051657725
   5138000   0.049548242   -0.31445885     0.036187349   -0.20395393     0.00027053521
   5139000   0.050055821   -0.31429896     0.035634113   -0.20358595     8.9930648e-05
   5140000   0.050106572   -0.31426823     0.034972135   -0.20414109     0.00055464217
   5141000   0.049796581   -0.31439631     0.035617417   -0.20408884     0.00036955   
   5142000   0.050161941   -0.31432772     0.035898621   -0.20319104     1.6104381e-05
   5143000   0.050144991   -0.3145357      0.036026064   -0.203297       0.00020750471
   5144000   0.049826681   -0.31403718     0.035801162   -0.20350082     0.00029941349
   5145000   0.050335804   -0.31418303     0.035881935   -0.20280227     0.00015302146
   5146000   0.050540988   -0.31432553     0.035445413   -0.20307353    -8.0848641e-05
   5147000   0.049816328   -0.31421374     0.035918844   -0.20357523    -0.0003270461 
   5148000   0.049427269   -0.31447676     0.035764189   -0.20457645     0.00022377998
   5149000   0.049622883   -0.31417456     0.035186839   -0.2045582      0.00065775689
   5150000   0.050383213   -0.3143336      0.034889651   -0.203874       0.00026534689
   5151000   0.05011636    -0.31400192     0.035683865   -0.20314837    -0.00096931829
   5152000   0.050032659   -0.31420861     0.035457314   -0.20370714     0.0008029967 
   5153000   0.049860828   -0.31386234     0.035982272   -0.20309365    -0.00096540067
   5154000   0.050378317   -0.31442454     0.035012775   -0.20384917     0.0017759525 
   5155000   0.049632633   -0.31401867     0.036167345   -0.20340718    -0.00032689579
   5156000   0.049860475   -0.31383063     0.035925238   -0.20311951     0.00035863843
   5157000   0.050379239   -0.31396421     0.035895088   -0.20250514     0.00014068374
   5158000   0.049872141   -0.31385494     0.035320042   -0.20373151     0.00043274123
   5159000   0.04971407    -0.31404768     0.035864768   -0.20361662    -0.00051455183
   5160000   0.049608495   -0.3146074      0.035597893   -0.20460156    -8.7321506e-05
   5161000   0.049192626   -0.31399643     0.036306219   -0.20390603    -0.00053993681
   5162000   0.050089908   -0.31434832     0.036075806   -0.2031425      0.00065097182
   5163000   0.050006336   -0.31409502     0.035759229   -0.20333112     0.00079620093
   5164000   0.049864048   -0.31465976     0.036231588   -0.20363692     0.00010773138
   5165000   0.049737887   -0.31438922     0.035808245   -0.20397895     5.5302348e-05
   5166000   0.049754985   -0.3142738      0.035610471   -0.20403566     0.00078180073
   5167000   0.049895194   -0.31410408     0.036208579   -0.20305754    -0.00048216566
   5168000   0.050470492   -0.31395778     0.035486022   -0.2027709      0.00034679589
   5169000   0.049968076   -0.31422989     0.035686048   -0.20359657    -0.00035018822
   5170000   0.050433385   -0.31388907     0.035213283   -0.20303059     0.00042528889
   5171000   0.050176368   -0.31379455     0.035411633   -0.20312322     0.00040074375
   5172000   0.050855526   -0.31429463     0.035643837   -0.20237242    -6.5106146e-05
   5173000   0.050187325   -0.31433345     0.036341504   -0.20271581     0.00010321363
   5174000   0.050480794   -0.31456952     0.035792347   -0.20306087    -0.00087571259
   5175000   0.049874089   -0.31384164     0.035397454   -0.20363788    -0.00047658741
   5176000   0.049840891   -0.31387164     0.036039845   -0.20307529     6.4403626e-05
   5177000   0.05007188    -0.3141909      0.035949169   -0.20313876     0.00077535652
   5178000   0.04982422    -0.31433128     0.035760559   -0.20383921     0.00013396535
   5179000   0.049761891   -0.31405757     0.035372992   -0.20404656     0.0011272457 
   5180000   0.049778594   -0.31404123     0.035642974   -0.20373518    -0.0001369363 
   5181000   0.049672432   -0.31417093     0.036096677   -0.20357041    -0.00017262029
   5182000   0.050042841   -0.31432927     0.036231076   -0.20303877    -3.2443371e-05
   5183000   0.050229675   -0.31405772     0.03552204    -0.20319603     0.00049746907
   5184000   0.05023439    -0.31445768     0.035794388   -0.20331657    -0.00022760949
   5185000   0.04969741    -0.31405706     0.0359881     -0.20352766    -0.00097384755
   5186000   0.050219419   -0.31417474     0.036307742   -0.20254273     0.00050137675
   5187000   0.050832509   -0.31413223     0.035741481   -0.2021469      0.00087697136
   5188000   0.049693346   -0.31429869     0.035969353   -0.20379413     7.2301365e-05
   5189000   0.050322004   -0.31463876     0.035821848   -0.20333877     0.00050377903
   5190000   0.05070191    -0.31428679     0.035952686   -0.20228614    -0.00014870367
   5191000   0.050443935   -0.31415788     0.036003222   -0.20249364    -0.00010000463
   5192000   0.050361363   -0.31397241     0.035963284   -0.20247196     0.00033374366
   5193000   0.050220539   -0.31423724     0.03570793    -0.20320336     0.00025870531
   5194000   0.050304025   -0.3141513      0.03597703    -0.2027231      0.00055642895
   5195000   0.050577919   -0.31411715     0.035348917   -0.20290625    -0.00024114578
   5196000   0.050425754   -0.31456352     0.035913325   -0.20301644     0.00026329462
   5197000   0.049892968   -0.31405941     0.035568486   -0.2036563     -0.00048845792
   5198000   0.050539527   -0.31455971     0.036440219   -0.20231509    -0.00086059176
   5199000   0.049804035   -0.3141053      0.036148146   -0.20325592    -0.00066309776
   5200000   0.050153203   -0.31392779     0.035292402   -0.20341044     0.00026609942
   5201000   0.04994972    -0.31454871     0.035494408   -0.20413455     0.00031671569
   5202000   0.049797865   -0.31442014     0.036142526   -0.20358563    -0.00046987308
   5203000   0.050117622   -0.3140559      0.03593692    -0.2029474      0.00032750025
   5204000   0.050481854   -0.31397116     0.035914079   -0.20233919    -0.00020011932
   5205000   0.049579712   -0.3144215      0.035723228   -0.2043335      9.7171551e-05
   5206000   0.050633413   -0.31456313     0.035613111   -0.20300479     0.00062135499
   5207000   0.050198852   -0.31457944     0.035574175   -0.20371185    -0.00075405318
   5208000   0.050362421   -0.31448079     0.035510025   -0.20343201    -0.00012545845
   5209000   0.050482543   -0.31463602     0.035727451   -0.20318964     0.00062210632
   5210000   0.0498344     -0.31423032     0.035922937   -0.20356061     0.0002796039 
   5211000   0.049697232   -0.3141928      0.036426571   -0.20322519    -0.00048787606
   5212000   0.050552948   -0.31476682     0.035619111   -0.20332318     0.0002558725 
   5213000   0.049623338   -0.31443342     0.035620482   -0.20438273     2.7252903e-05
   5214000   0.050126671   -0.31432684     0.035324898   -0.20381679    -0.00028897455
   5215000   0.049739065   -0.31440124     0.035958805   -0.20383865     2.7618064e-05
   5216000   0.049476524   -0.31466374     0.035899806   -0.20455394     5.1547445e-05
   5217000   0.050271205   -0.31460321     0.035894262   -0.20330701    -0.00013502745
   5218000   0.050053244   -0.31432813     0.036429796   -0.20282331    -0.00016235201
   5219000   0.050869254   -0.31477078     0.035802386   -0.20266943    -2.5933795e-05
   5220000   0.049866952   -0.31444863     0.03626074    -0.20339229    -0.00071489458
   5221000   0.049344876   -0.31433346     0.035817595   -0.20450333    -0.00040181583
   5222000   0.049829847   -0.31444899     0.035928143   -0.2037809     -0.0008126069 
   5223000   0.050047907   -0.31450008     0.035869018   -0.20356404     0.00013293227
   5224000   0.049918634   -0.31400997     0.035453521   -0.20368333     0.00061041407
   5225000   0.050200473   -0.31449985     0.034959645   -0.20424435     0.00024098247
   5226000   0.049781019   -0.31464428     0.035367206   -0.20461037     0.00040941756
   5227000   0.050062252   -0.31474985     0.036492778   -0.20316854    -0.00022982614
   5228000   0.050029435   -0.31438317     0.035933874   -0.20340998     0.00085208901
   5229000   0.050506286   -0.31471605     0.036400207   -0.20256131    -0.00048269416
   5230000   0.050566711   -0.31427589     0.035685141   -0.20274558    -4.9207415e-05
   5231000   0.050037104   -0.31481524     0.036171029   -0.2035934     -0.00046065842
   5232000   0.050463578   -0.31412795     0.036153748   -0.20228372     0.00015901081
   5233000   0.049584945   -0.31452619     0.035770077   -0.2043835     -8.4178375e-05
   5234000   0.050529095   -0.31443595     0.036049696   -0.2025975      0.0003308846 
   5235000   0.050208911   -0.31443332     0.035786473   -0.20333834     0.0007333331 
   5236000   0.050403491   -0.31464874     0.035472055   -0.20357633    -0.00010683926
   5237000   0.049991977   -0.31468462     0.035367179   -0.20433431    -2.9257784e-05
   5238000   0.049687433   -0.31457996     0.035979665   -0.20407395    -0.00068437178
   5239000   0.050085114   -0.31464576     0.035913222   -0.20360971    -0.0006485354 
   5240000   0.050703147   -0.31515008     0.036596987   -0.20250328    -0.0002558972 
   5241000   0.049956836   -0.31430721     0.035468602   -0.20390818    -9.3814273e-05
   5242000   0.049546622   -0.31447203     0.036049147   -0.20410775     0.0001422233 
   5243000   0.049966607   -0.31465935     0.035953536   -0.20376074     7.8935217e-05
   5244000   0.049143455   -0.31446487     0.036103961   -0.20465048    -0.00064015666
   5245000   0.049820538   -0.3144946      0.035593541   -0.20417507    -0.00012691185
   5246000   0.05072647    -0.3149269      0.035914831   -0.20292728     5.5269718e-05
   5247000   0.050439408   -0.31476342     0.035849223   -0.20325997     0.0006244143 
   5248000   0.049961412   -0.31461104     0.035842509   -0.20383125     0.00014705499
   5249000   0.049918944   -0.31472493     0.035543225   -0.20430812     0.00057196692
   5250000   0.050129773   -0.31465831     0.036065171   -0.20340333     0.00079445317
   5251000   0.049630118   -0.31497705     0.036183561   -0.20435311    -0.00054410962
   5252000   0.050018478   -0.31474543     0.036124748   -0.20359781     0.00033045906
   5253000   0.050203583   -0.31487307     0.035629786   -0.20394276     0.00017878022
   5254000   0.049881579   -0.31449304     0.035685597   -0.2039899      0.00086023097
   5255000   0.049766325   -0.31482264     0.035898962   -0.20427901    -0.00067290394
   5256000   0.050175821   -0.31510062     0.035961959   -0.20387978     0.00093596432
   5257000   0.049450301   -0.31485276     0.03583319    -0.20484891     0.00074275678
   5258000   0.049559884   -0.31470049     0.035665866   -0.2046996     -0.0004746823 
   5259000   0.050096254   -0.31475023     0.035293895   -0.2043168     -0.00071852638
   5260000   0.049639532   -0.31487099     0.036352595   -0.2040639     -8.988798e-05 
   5261000   0.050052704   -0.31466333     0.035468329   -0.20412079     0.00081676519
   5262000   0.05017012    -0.31489988     0.035226477   -0.20442308     0.00045744308
   5263000   0.049198838   -0.31457078     0.035978145   -0.20479914     0.0007212979 
   5264000   0.050206129   -0.31482863     0.036213988   -0.20331031    -0.00026516707
   5265000   0.049904361   -0.31488704     0.035419232   -0.20461609    -0.0005317717 
   5266000   0.049145299   -0.31476086     0.03624567    -0.204802      -5.6653583e-05
   5267000   0.049994492   -0.31508706     0.035106437   -0.20499372     1.6220571e-05
   5268000   0.050031778   -0.31509906     0.036264977   -0.20379126    -0.00015751209
   5269000   0.049962685   -0.3149499      0.036242819   -0.20376789    -0.00059388283
   5270000   0.050497411   -0.31521466     0.035541394   -0.20393203     8.1236746e-05
   5271000   0.050101407   -0.31472797     0.035844585   -0.20373612    -0.00051305545
   5272000   0.049903087   -0.31445667     0.036049732   -0.20355713    -0.00051584018
   5273000   0.050161047   -0.31529752     0.036112078   -0.20394872    -0.00062921306
   5274000   0.050055873   -0.31440989     0.035892925   -0.203438       0.00035369808
   5275000   0.050091175   -0.31454368     0.035929048   -0.20348272     7.8555014e-05
   5276000   0.050183674   -0.31485446     0.036127391   -0.20345641     0.00044636807
   5277000   0.049211351   -0.31479177     0.035639959   -0.20533955     0.0013202217 
   5278000   0.050021214   -0.31523033     0.035909036   -0.20429431     0.00060103356
   5279000   0.05061077    -0.31480516     0.036055705   -0.2028382      0.00044710186
   5280000   0.050245558   -0.31447672     0.035882721   -0.20323053    -0.0005463862 
   5281000   0.050092718   -0.31486869     0.035783524   -0.20395094    -0.00014079638
   5282000   0.049857445   -0.3146698      0.03624142    -0.20364704     1.5097569e-05
   5283000   0.050403922   -0.31430883     0.035449081   -0.20325875     0.0011965374 
   5284000   0.05050972    -0.3146393      0.035855804   -0.2030238      0.0011864323 
   5285000   0.050133229   -0.31507068     0.036358522   -0.20351717    -0.00026259729
   5286000   0.049819912   -0.31451341     0.036229397   -0.20355896     0.0012102021 
   5287000   0.04970938    -0.31466288     0.035703033   -0.20440059     6.2819343e-06
   5288000   0.050098015   -0.31522854     0.035727924   -0.20435844     0.00011069942
   5289000   0.050038306   -0.31510073     0.035740474   -0.20430764     0.0006245446 
   5290000   0.049746758   -0.31505277     0.035949234   -0.20448821     0.00044675963
   5291000   0.049571618   -0.31504545     0.035965925   -0.2047269     -0.0006562233 
   5292000   0.049876232   -0.31458474     0.035341807   -0.20443341     0.00028094012
   5293000   0.050047359   -0.31489986     0.035708643   -0.20412502    -0.00048096764
   5294000   0.049735248   -0.31487776     0.036745531   -0.20353416     3.5137086e-06
   5295000   0.050577127   -0.31453588     0.036164605   -0.20251048     0.00048519084
   5296000   0.050239734   -0.31506782     0.036274161   -0.20343892     0.00016288291
   5297000   0.050847173   -0.31499645     0.036135994   -0.20259461     0.00016352898
   5298000   0.04983383    -0.31489577     0.036007942   -0.20414191    -0.00076267639
   5299000   0.049934598   -0.31517706     0.035524883   -0.20475511     0.0005354753 
   5300000   0.04987361    -0.31504588     0.035714075   -0.20452622     0.00062063471
   5301000   0.049991465   -0.31528768     0.035867864   -0.20443745     0.00051228935
   5302000   0.049723263   -0.31487407     0.03631092    -0.20398307    -4.5526312e-05
   5303000   0.050624547   -0.31489025     0.035868132   -0.20309019    -2.4723872e-05
   5304000   0.050167264   -0.31535645     0.035657885   -0.20445252     1.8366188e-06
   5305000   0.049844503   -0.31510437     0.035589621   -0.20475281    -0.0002570194 
   5306000   0.049680237   -0.31488582     0.03586       -0.20451027     0.0002277071 
   5307000   0.049706217   -0.31482857     0.03609153    -0.20418253     0.00027364822
   5308000   0.049598428   -0.31472817     0.03612203    -0.20421329     0.00026445927
   5309000   0.049479936   -0.31490976     0.035629463   -0.20506519    -5.5706731e-05
   5310000   0.050179646   -0.31473577     0.035969163   -0.203502      -0.00024855374
   5311000   0.050476204   -0.31496458     0.035714551   -0.20354061    -5.3558995e-05
   5312000   0.050127358   -0.31469472     0.035800929   -0.2037076      0.00019711009
   5313000   0.049935669   -0.31480491     0.035794594   -0.20411164    -0.00035831853
   5314000   0.049804043   -0.31503647     0.035191545   -0.20514368     0.00082709985
   5315000   0.049784781   -0.31465187     0.035114674   -0.20486484     0.00041349283
   5316000   0.049778446   -0.31500351     0.035103671   -0.20523698     0.00032002212
   5317000   0.049498718   -0.3151224      0.035491019   -0.20538809    -3.4162161e-05
   5318000   0.050197377   -0.31525668     0.035704994   -0.20426047    -0.00046484225
   5319000   0.04983556    -0.31549333     0.035495183   -0.20524963    -8.8728702e-05
   5320000   0.050145753   -0.3148653      0.035438206   -0.20421332     0.00073097486
   5321000   0.050303566   -0.31514641     0.035706479   -0.20398945     0.00065665121
   5322000   0.049946069   -0.31469433     0.035614357   -0.20416571    -0.0001607754 
   5323000   0.050269265   -0.31495375     0.035778272   -0.20377644    -0.00059793483
   5324000   0.050595836   -0.31520088     0.035358929   -0.2039531     -4.6378844e-05
   5325000   0.050162161   -0.31512788     0.035947578   -0.20394191     0.00010217888
   5326000   0.049429966   -0.31517673     0.035712153   -0.20532442     3.7765191e-05
   5327000   0.049924217   -0.31534832     0.035683445   -0.20478338    -0.00013382415
   5328000   0.049952721   -0.31473336     0.035938427   -0.20387069     0.00035418363
   5329000   0.050357041   -0.31504767     0.036300952   -0.20321603    -0.0011243951 
   5330000   0.05010327    -0.31481576     0.036073526   -0.20359218    -0.00037698001
   5331000   0.05012693    -0.31506108     0.036400445   -0.20347509     0.00022154921
   5332000   0.0500382     -0.31490055     0.035392582   -0.20445551    -0.00014735724
   5333000   0.050377622   -0.31476718     0.035474019   -0.2037316      0.00034166208
   5334000   0.050028674   -0.31551954     0.035828878   -0.20465249    -0.00087983932
   5335000   0.049879683   -0.31490383     0.035774295   -0.20431484     0.0010257852 
   5336000   0.050386187   -0.31495832     0.036456371   -0.20292755    -0.00012540064
   5337000   0.049823351   -0.31513655     0.036114275   -0.20429207    -9.9602365e-06
   5338000   0.049314505   -0.31498468     0.035582371   -0.20543532    -0.00013926466
   5339000   0.049156935   -0.31528626     0.036369109   -0.20518651    -0.00077230745
   5340000   0.049245103   -0.31508895     0.036011176   -0.20521488     0.0003345657 
   5341000   0.049471969   -0.31509892     0.035814671   -0.20508108     0.00048764397
   5342000   0.050311349   -0.31507581     0.036164307   -0.20344935     0.00019026406
   5343000   0.049760491   -0.31505508     0.036147601   -0.20427156    -0.00026836043
   5344000   0.05065367    -0.31512874     0.036054014   -0.20309913    -1.0144763e-05
   5345000   0.050632671   -0.31538039     0.035323637   -0.20411264     0.00078603582
   5346000   0.050562178   -0.31515519     0.036222547   -0.20309427    -0.00057269875
   5347000   0.049873223   -0.31549924     0.036178192   -0.20451604     0.0002544016 
   5348000   0.050379953   -0.31555409     0.035613171   -0.20437587     0.0011675288 
   5349000   0.049966245   -0.31554123     0.035934493   -0.20466221     0.00013768655
   5350000   0.049881596   -0.31536972     0.036172297   -0.20437985    -7.4505469e-05
   5351000   0.050529776   -0.3151972      0.036192367   -0.20321505    -0.00068147869
   5352000   0.050006754   -0.31542593     0.035555825   -0.20486481     0.00070112563
   5353000   0.050323766   -0.31546769     0.035436838   -0.20455007     0.00021055604
   5354000   0.050036231   -0.31545524     0.03585324    -0.2045525      0.0001497325 
   5355000   0.049993094   -0.31518471     0.035913189   -0.20428672     6.6729974e-05
   5356000   0.049519044   -0.31529192     0.03631259    -0.20470556     0.00026631941
   5357000   0.049418334   -0.3155352      0.035556976   -0.20585551     0.00069117872
   5358000   0.04995744    -0.31529847     0.035783337   -0.20458381    -0.00027056612
   5359000   0.05055901    -0.31503914     0.03589841    -0.20330711    -5.1161083e-05
   5360000   0.050560814   -0.3153321      0.036378217   -0.20311755    -0.00019307875
   5361000   0.050181213   -0.31534898     0.035684397   -0.20439762     0.00044602804
   5362000   0.050303267   -0.31529618     0.035925261   -0.20392088    -0.00064157166
   5363000   0.050274503   -0.31542418     0.035954322   -0.20406297    -0.0003730109 
   5364000   0.050196165   -0.31551131     0.035689167   -0.20453276     0.00040815013
   5365000   0.050222583   -0.31513581     0.03562368    -0.20418311     0.00076090571
   5366000   0.049755953   -0.31568983     0.035655461   -0.20540525    -0.00011781282
   5367000   0.049948111   -0.31528332     0.036063174   -0.20430281    -0.00061393909
   5368000   0.04987631    -0.31514551     0.035860232   -0.20447564    -0.00064909988
   5369000   0.050506228   -0.31567282     0.036065937   -0.20385243    -1.3895714e-05
   5370000   0.049943515   -0.31522729     0.036194351   -0.2041225     -0.0003824419 
   5371000   0.049904557   -0.31526524     0.035945513   -0.20446772     0.00033227309
   5372000   0.049706033   -0.3154713      0.035753923   -0.20516314    -0.00016463775
   5373000   0.050356918   -0.31536851     0.036009426   -0.20382858     0.00052597654
   5374000   0.049811227   -0.31555849     0.036092509   -0.20475396     0.00016989702
   5375000   0.049349151   -0.31506672     0.036050675   -0.20499709    -0.0011569389 
   5376000   0.049806824   -0.31541981     0.035992434   -0.20472196    -0.00053261281
   5377000   0.04995812    -0.31513742     0.036017861   -0.20418722    -0.00065948163
   5378000   0.050756785   -0.31497958     0.03571517    -0.20313414     0.00053206418
   5379000   0.049652503   -0.31519209     0.035995109   -0.20472303     0.00029605863
   5380000   0.050287709   -0.3155137      0.036163572   -0.20392343    -0.00011718049
   5381000   0.049706003   -0.31509609     0.035603216   -0.20493868     0.00070389919
   5382000   0.049964012   -0.31536656     0.035871391   -0.20455399    -0.0010756243 
   5383000   0.04991796    -0.31537229     0.035619633   -0.20488054    -0.00028065192
   5384000   0.049739789   -0.31520149     0.035687668   -0.20490895     0.00053000964
   5385000   0.04959913    -0.31552739     0.035096624   -0.20603687     0.00051514318
   5386000   0.049953498   -0.31558529     0.03566965    -0.20499022     2.7994331e-05
   5387000   0.050024621   -0.31548446     0.035973344   -0.20447903     9.5976319e-05
   5388000   0.050199971   -0.31543985     0.036246668   -0.20389808    -0.00023283576
   5389000   0.050356014   -0.31513338     0.035865347   -0.20373889     0.00067243085
   5390000   0.049781828   -0.31538427     0.035976372   -0.20473997    -0.00026633135
   5391000   0.050243108   -0.31534177     0.035823557   -0.20415842     0.00058323221
   5392000   0.050158191   -0.31513087     0.035848846   -0.20404959     0.00025319442
   5393000   0.050117297   -0.31533094     0.03559793    -0.20456191    -0.00016379943
   5394000   0.050201148   -0.3156254      0.035768593   -0.20455994    -0.00016134487
   5395000   0.049949909   -0.31513742     0.036311497   -0.20390589    -9.90745e-05  
   5396000   0.049802733   -0.31505609     0.036350995   -0.20400581     0.0001954581 
   5397000   0.049769447   -0.31554282     0.036534902   -0.20435856    -0.00077140747
   5398000   0.049854385   -0.31538501     0.035734913   -0.20487334    -0.00046100199
   5399000   0.050006834   -0.31538837     0.036230876   -0.20415209    -0.00015046928
   5400000   0.049989624   -0.31531161     0.03564377    -0.20468824    -0.00012499479
   5401000   0.049961244   -0.31587327     0.036198227   -0.20473801    -0.0014407552 
   5402000   0.05004087    -0.31533316     0.03606034    -0.20421636    -0.00058614351
   5403000   0.049341819   -0.31502496     0.0357204     -0.20529661     6.9412088e-05
   5404000   0.049463927   -0.31540898     0.035338941   -0.20587893    -0.00049622016
   5405000   0.050134535   -0.31574255     0.035346745   -0.20519885     0.00057683203
   5406000   0.049888491   -0.3157222      0.035948771   -0.20494552    -0.00014089459
   5407000   0.049700161   -0.31547582     0.035424334   -0.20550605     0.0010776434 
   5408000   0.050058977   -0.31584519     0.035825211   -0.20493635     0.00053160644
   5409000   0.050026668   -0.31522634     0.03603914    -0.20415204     9.328522e-05 
   5410000   0.050653852   -0.31549532     0.036126366   -0.20339307    -7.511883e-05 
   5411000   0.050267476   -0.31579192     0.03605747    -0.2043381      0.0002941957 
   5412000   0.050390288   -0.31546908     0.036451754   -0.20343677    -0.00030940007
   5413000   0.050388796   -0.31567522     0.035778277   -0.20431862    -0.0004843923 
   5414000   0.049409536   -0.31508445     0.035287045   -0.20568788     0.00068964982
   5415000   0.049730819   -0.31546287     0.035867607   -0.20500385    -0.00014145117
   5416000   0.050019822   -0.31599576     0.035439688   -0.20553118     3.0232742e-05
   5417000   0.050440098   -0.31569854     0.03583485    -0.20420842    -0.00014878607
   5418000   0.049576715   -0.31554124     0.03624689    -0.20493408     0.00065329381
   5419000   0.049983947   -0.31583012     0.036234486   -0.20462455    -0.00044587853
   5420000   0.049654249   -0.31510448     0.035728894   -0.20489902     0.00043515162
   5421000   0.049519827   -0.31521996     0.035599039   -0.20534597    -0.00034998598
   5422000   0.049972736   -0.31551593     0.035464332   -0.20509733     1.2451994e-05
   5423000   0.049521462   -0.31541459     0.035754663   -0.20538253     0.00057056677
   5424000   0.049643161   -0.31576048     0.035931074   -0.20536947     9.7174229e-05
   5425000   0.049821616   -0.31505159     0.035982955   -0.20434104     0.00048946232
   5426000   0.050337458   -0.31549792     0.036392508   -0.20360409    -0.00062712995
   5427000   0.050407323   -0.31531365     0.03642175    -0.20328579    -0.0001315636 
   5428000   0.05020514    -0.31525199     0.035687766   -0.20426137     0.00059094074
   5429000   0.04959221    -0.3156626      0.035817589   -0.2054615     -0.00034627119
   5430000   0.049523337   -0.31558781     0.035127778   -0.20617981     0.00065731035
   5431000   0.049621648   -0.31568215     0.035471989   -0.20578249     0.00037020867
   5432000   0.050032535   -0.31570458     0.035606165   -0.20505446     0.00027824817
   5433000   0.050307659   -0.31588521     0.035575194   -0.20485339    -0.0010017673 
   5434000   0.049676717   -0.31537155     0.036083134   -0.20477815    -0.00041711769
   5435000   0.049765361   -0.31547513     0.035309553   -0.20552235     0.00063633886
   5436000   0.049367708   -0.31521078     0.035553237   -0.20561076     3.1290552e-06
   5437000   0.050015555   -0.31551354     0.036031125   -0.20446392    -0.00035249449
   5438000   0.049765001   -0.31541027     0.035748627   -0.20501896    -4.449048e-05 
   5439000   0.050202085   -0.31534596     0.03544207    -0.20460562     0.00033571675
   5440000   0.050325013   -0.3153661      0.035576645   -0.20430681     0.00078977081
   5441000   0.049928763   -0.31530347     0.035592576   -0.20482258    -0.0003687964 
   5442000   0.050028973   -0.31562242     0.035677419   -0.20490639     0.00021079863
   5443000   0.049968128   -0.31558859     0.035393535   -0.20524769     7.607189e-05 
   5444000   0.049533121   -0.31553771     0.036150262   -0.20509256     0.00020097405
   5445000   0.050205087   -0.31544029     0.035458398   -0.20467912     0.00062117905
   5446000   0.049449147   -0.31559242     0.035320902   -0.20610259     0.00022105541
   5447000   0.049950556   -0.31537466     0.035217447   -0.20523622    -0.00055763767
   5448000   0.049741147   -0.31547779     0.035501168   -0.20536971    -0.00021130522
   5449000   0.050068897   -0.31542967     0.035106628   -0.20522455     0.00018557195
   5450000   0.049267862   -0.31549592     0.035831618   -0.20576727     0.00027610045
   5451000   0.049986207   -0.31519087     0.03561134    -0.20460505     0.0011413803 
   5452000   0.050325561   -0.31560391     0.03602737    -0.20409307    -0.00025441573
   5453000   0.049378758   -0.31540477     0.035752529   -0.20558888     0.00023628908
   5454000   0.050102206   -0.3156235      0.035560319   -0.20491472     0.00023017442
   5455000   0.049747892   -0.31595057     0.036109864   -0.20522368    -0.00097184311
   5456000   0.049529326   -0.31497565     0.035435669   -0.20525079    -0.00053297956
   5457000   0.050108656   -0.31586937     0.035201949   -0.20550929     0.00023766471
   5458000   0.049559164   -0.31577503     0.036101544   -0.20533954     3.5512866e-06
   5459000   0.049455482   -0.31552334     0.035254334   -0.20609057     0.00011548532
   5460000   0.049677532   -0.31558157     0.035177493   -0.20589258    -0.00025076252
   5461000   0.049958392   -0.31561209     0.036191048   -0.20448829    -0.00013097428
   5462000   0.049727123   -0.31552074     0.036158424   -0.20477644     0.00011711525
   5463000   0.049487927   -0.31534713     0.036015081   -0.20510494    -0.00013362253
   5464000   0.049521168   -0.31571084     0.036150692   -0.20528319    -0.00037606342
   5465000   0.049416127   -0.31528661     0.035356751   -0.20581045    -0.00010054107
   5466000   0.050129038   -0.31576979     0.03590789    -0.2046732      0.00031346587
   5467000   0.049928063   -0.31551288     0.03603274    -0.20459288    -0.00011124001
   5468000   0.050020105   -0.31523419     0.035927977   -0.2042809      0.00060336866
   5469000   0.049785779   -0.31494593     0.035915881   -0.2043562     -0.00076917677
   5470000   0.050101781   -0.31542976     0.035786779   -0.20449516     0.00056843037
   5471000   0.05003962    -0.31550612     0.036236908   -0.20421463    -5.8575589e-05
   5472000   0.050520753   -0.3156985      0.035966076   -0.20395618     0.00012415304
   5473000   0.049901402   -0.3152653      0.036250799   -0.20416723     0.00086311336
   5474000   0.050125191   -0.31544307     0.035996283   -0.20426385     0.0001181789 
   5475000   0.049700532   -0.31578321     0.035908013   -0.20532921     0.00081975545
   5476000   0.050051079   -0.31552566     0.035518868   -0.20493502     9.8540593e-05
   5477000   0.049536364   -0.31574676     0.035379753   -0.20606725    -0.00092684496
   5478000   0.049823594   -0.31577242     0.035421977   -0.20561988     0.00039084439
   5479000   0.050014391   -0.31590922     0.036120569   -0.20477191    -0.00036821298
   5480000   0.050030235   -0.31491931     0.035881522   -0.20399727     0.00049231391
   5481000   0.049882851   -0.31500808     0.035502744   -0.20468589     0.0012312147 
   5482000   0.050557176   -0.31515329     0.03562436    -0.20369805     0.00098683992
   5483000   0.050151865   -0.31544773     0.035822962   -0.20440182     8.4695666e-05
   5484000   0.050188485   -0.31538871     0.03560972    -0.20450112     0.00029726248
   5485000   0.04965132    -0.31569554     0.035337668   -0.2058857      0.00078053202
   5486000   0.049963083   -0.31550727     0.035711448   -0.20485603     0.00019472861
   5487000   0.050104229   -0.31531127     0.035717177   -0.2044426     -0.00060718539
   5488000   0.049753898   -0.31572406     0.036175848   -0.20492218    -0.00030230202
   5489000   0.050143591   -0.31541005     0.035640007   -0.20455951     0.00057316715
   5490000   0.050125408   -0.31548193     0.035604672   -0.204694       0.00019970171
   5491000   0.049623505   -0.31563116     0.035765377   -0.20543533     0.00010156479
   5492000   0.049779061   -0.31554965     0.035338152   -0.20554772     0.00067096207
   5493000   0.049035947   -0.31557912     0.035016388   -0.20701356    -0.00031388202
   5494000   0.050158105   -0.31542015     0.035968369   -0.20421947     0.0003584132 
   5495000   0.050501827   -0.31567094     0.035484517   -0.20443857    -4.9324736e-05
   5496000   0.050061161   -0.31572588     0.036113241   -0.20452574    -0.00060290619
   5497000   0.0502953     -0.3156376      0.035850778   -0.20434874     0.00035889928
   5498000   0.050031383   -0.3159142      0.036218937   -0.20465303     1.0636416e-06
   5499000   0.050267659   -0.3154855      0.035183791   -0.20490509     0.0011127183 
   5500000   0.049881497   -0.31555088     0.035602844   -0.20513062    -0.0013848446 
   5501000   0.050284628   -0.31569792     0.035561193   -0.20471465     0.00066535403
   5502000   0.049824769   -0.31624087     0.035780746   -0.20572779     0.00068541622
   5503000   0.049768826   -0.31548216     0.036068522   -0.20476522     0.00034247422
   5504000   0.050595156   -0.31574806     0.035876673   -0.20398355     0.00022324159
   5505000   0.050261371   -0.31599955     0.036748077   -0.20386428     0.00061270811
   5506000   0.049519175   -0.31568975     0.035749026   -0.20566675     9.2095637e-05
   5507000   0.049994683   -0.31602932     0.035577684   -0.20546445    -0.00013769298
   5508000   0.049981539   -0.31567435     0.03554319    -0.20516369     0.00037529782
   5509000   0.049928762   -0.31545998     0.035993567   -0.2045781      9.161375e-05 
   5510000   0.050177802   -0.31535411     0.036243862   -0.2038484     -0.00039434092
   5511000   0.049701612   -0.31570813     0.035742785   -0.20541774     0.00055877612
   5512000   0.050218989   -0.31571096     0.035474408   -0.20491293     0.0009787541 
   5513000   0.049934156   -0.3157147      0.03571664    -0.20510166    -0.00067093213
   5514000   0.04941646    -0.31560898     0.036606179   -0.20488289    -0.00040503175
   5515000   0.050196857   -0.31576688     0.03531794    -0.20515851     0.00053080841
   5516000   0.050881227   -0.3157558      0.036213757   -0.20322513     0.00016533554
   5517000   0.04956716    -0.31591306     0.036162429   -0.20540469    -7.6931752e-05
   5518000   0.050312163   -0.31574509     0.035937451   -0.20434427     0.0005758683 
   5519000   0.050150593   -0.31558997     0.035777696   -0.20459123     0.0002869766 
   5520000   0.050651844   -0.3159615      0.036639026   -0.20334961    -0.00058987849
   5521000   0.050039319   -0.31563148     0.036287829   -0.20428952    -0.00060866722
   5522000   0.050481045   -0.31580027     0.035529426   -0.20455416    -0.00036519678
   5523000   0.049674861   -0.31577959     0.036399785   -0.20487232     1.8050509e-05
   5524000   0.049695706   -0.31572228     0.035073945   -0.20610958    -0.00093989511
   5525000   0.04972123    -0.31621021     0.035690102   -0.20594308    -0.00034756728
   5526000   0.049528707   -0.31578677     0.035743831   -0.20575468    -0.00044340179
   5527000   0.050014613   -0.31596367     0.035523644   -0.20542294     0.0006838633 
   5528000   0.049763176   -0.3156812      0.035932939   -0.20510832     1.2865118e-05
   5529000   0.049384998   -0.31599086     0.035846145   -0.20607199     0.00017388881
   5530000   0.049722834   -0.31551616     0.036132065   -0.20480465     7.9657433e-05
   5531000   0.049704149   -0.31602238     0.035642206   -0.20582876     0.0003695619 
   5532000   0.049423358   -0.31591814     0.035312501   -0.20647539     0.00013588562
   5533000   0.050265432   -0.31578128     0.034815376   -0.20557262     0.00063679584
   5534000   0.049810383   -0.3154988      0.035195988   -0.20559206     0.00061687148
   5535000   0.049866753   -0.31598428     0.0359362     -0.20525278     0.00035900306
   5536000   0.05084093    -0.31544451     0.036434933   -0.20275311     0.00043061468
   5537000   0.050374858   -0.31589262     0.035998662   -0.20433654     0.00054697613
   5538000   0.049686556   -0.31565718     0.03652686    -0.2046053     -0.00066045661
   5539000   0.05001263    -0.31572568     0.035607456   -0.20510412     0.00027443513
   5540000   0.049839146   -0.31546        0.035268758   -0.20543735     0.00042733171
   5541000   0.050440307   -0.31580311     0.035760777   -0.20438675    -0.00026895987
   5542000   0.04983551    -0.31580365     0.03603465    -0.20502055     0.00094571374
   5543000   0.050056697   -0.31593375     0.036385832   -0.20446772     0.00068603132
   5544000   0.050088039   -0.3156784      0.036447807   -0.20410338    -0.00045927513
   5545000   0.050321195   -0.3159869      0.036151881   -0.20435809    -0.00033092772
   5546000   0.049692733   -0.31538408     0.035715224   -0.20513457     0.00047148099
   5547000   0.049806212   -0.31569025     0.035993056   -0.2049927     -0.00011201909
   5548000   0.049934384   -0.31574613     0.035917226   -0.20493216     0.00021147064
   5549000   0.049942424   -0.31587089     0.035422764   -0.20553932     0.00073065269
   5550000   0.049838718   -0.31567688     0.035905445   -0.20501819     0.00018413139
   5551000   0.050414352   -0.31554623     0.035133745   -0.20479583     0.00032672458
   5552000   0.050288728   -0.31580538     0.035364952   -0.2050122      0.0003861574 
   5553000   0.050134167   -0.31607439     0.036081676   -0.20479631    -0.00032786207
   5554000   0.049984588   -0.31569185     0.035655875   -0.20506393     7.658148e-05 
   5555000   0.050388308   -0.31623789     0.035845039   -0.20481527    -0.00033774726
   5556000   0.049814602   -0.31591703     0.035846832   -0.20535312     6.2443174e-05
   5557000   0.049714409   -0.31585171     0.035898147   -0.20538676    -0.00017346348
   5558000   0.050585475   -0.31611931     0.036404124   -0.20384187     0.00019619563
   5559000   0.049848981   -0.31629482     0.035355737   -0.20617044     0.0003379975 
   5560000   0.04993081    -0.31591861     0.036069885   -0.20495734    -0.00015725708
   5561000   0.049448139   -0.31619622     0.035964035   -0.20606476     0.00040359724
   5562000   0.049679983   -0.3162909      0.036190046   -0.20558569     0.00032730171
   5563000   0.04955861    -0.31574876     0.0361705     -0.20524514     0.00086546156
   5564000   0.049882573   -0.31599496     0.036298466   -0.20487746     5.1310267e-05
   5565000   0.050584592   -0.31560812     0.034848906   -0.20488723     0.00074771729
   5566000   0.049828784   -0.31559701     0.035859175   -0.20499948     0.00038756225
   5567000   0.050409117   -0.31619661     0.03657115    -0.20401667    -0.0004389807 
   5568000   0.049946117   -0.31577685     0.036021935   -0.20484057     0.00029802236
   5569000   0.050432244   -0.31565729     0.036105839   -0.20390797     0.00021104888
   5570000   0.050082707   -0.3156081      0.03590604    -0.20458285    -5.2720814e-05
   5571000   0.050293774   -0.31612784     0.036000647   -0.2046914      0.00037863048
   5572000   0.050032747   -0.31602109     0.036171987   -0.20480483     0.00041965626
   5573000   0.050360528   -0.31610227     0.035951315   -0.20461503    -0.00014183783
   5574000   0.050234266   -0.3159069      0.035942741   -0.20461762     0.00047660133
   5575000   0.050282557   -0.31584065     0.035379394   -0.20504229     0.00057377144
   5576000   0.050486084   -0.31604969     0.03542928    -0.20489617     0.00052967102
   5577000   0.049949281   -0.31608556     0.035912059   -0.20525441    -0.00071534251
   5578000   0.050544503   -0.31594548     0.036121103   -0.20401251    -0.00033095716
   5579000   0.049750609   -0.31576152     0.035895225   -0.20524519    -2.0068554e-05
   5580000   0.050166635   -0.31604231     0.035847864   -0.20494935     8.3556574e-05
   5581000   0.049826388   -0.31600625     0.035211678   -0.20605981     0.00031729006
   5582000   0.050438499   -0.31583073     0.035655866   -0.20452199     0.00096377159
   5583000   0.049676065   -0.31590586     0.03556024    -0.20583633     0.0015462457 
   5584000   0.049925392   -0.31605048     0.035925377   -0.20524185    -0.0010275825 
   5585000   0.049723088   -0.31613626     0.035496439   -0.20606        0.00043376557
   5586000   0.050001909   -0.31653356     0.035755814   -0.20577972    -0.00029468483
   5587000   0.049968402   -0.31595349     0.035836952   -0.20516877     0.00081040537
   5588000   0.050304322   -0.31609417     0.03550738    -0.20513518     0.00012118686
   5589000   0.05001322    -0.31631737     0.035741642   -0.20556074    -9.3209085e-06
   5590000   0.0500939     -0.31647584     0.03591383    -0.20542601     2.8813562e-05
   5591000   0.050629268   -0.31630072     0.035699995   -0.20466172     0.00030922645
   5592000   0.050414755   -0.31628282     0.035562116   -0.20510345    -4.2595903e-05
   5593000   0.050289013   -0.31615501     0.035859702   -0.20486665     0.0012946291 
   5594000   0.050432112   -0.31587266     0.035815315   -0.20441406    -0.00046028649
   5595000   0.050181281   -0.31641678     0.036093857   -0.20505586    -0.00047366294
   5596000   0.049892069   -0.31618924     0.035149496   -0.20620647    -0.0002836364 
   5597000   0.049252669   -0.3162182      0.036403956   -0.20594001    -7.8096946e-05
   5598000   0.050123207   -0.31629286     0.035611718   -0.20550119    -0.00049569044
   5599000   0.04996493    -0.31622257     0.03569198    -0.20558803    -0.00030078659
   5600000   0.05005235    -0.31665762     0.03586036    -0.20572358    -0.00031969363
   5601000   0.050141457   -0.31584101     0.035867638   -0.20476604     0.0005374263 
   5602000   0.050221118   -0.31634693     0.035757676   -0.20526243     0.00022603459
   5603000   0.050724783   -0.31592234     0.035961504   -0.20387857     0.00034079833
   5604000   0.050383361   -0.31606247     0.035752783   -0.20473952    -0.00034522155
   5605000   0.049591775   -0.31643043     0.036252052   -0.20579551    -0.00029037149
   5606000   0.050081918   -0.31665806     0.035975338   -0.20556469    -0.00030133959
   5607000   0.050374752   -0.3164193      0.036088893   -0.20477315     0.0002669908 
   5608000   0.050238617   -0.31618061     0.036235978   -0.20459156     0.00050159898
   5609000   0.050414443   -0.3162759      0.035333664   -0.20532545     0.00018210798
   5610000   0.050563636   -0.31615453     0.036331364   -0.20398261     0.00029235844
   5611000   0.049983404   -0.31594712     0.035962374   -0.20501448    -0.00020737941
   5612000   0.050413089   -0.3163386      0.035899979   -0.20482386    -0.00031861654
   5613000   0.050133592   -0.31645668     0.035882591   -0.20537855    -0.00048706055
   5614000   0.049754904   -0.31638481     0.036251597   -0.20550567    -0.00042385078
   5615000   0.049782658   -0.31624665     0.035769357   -0.20580813     3.6586693e-05
   5616000   0.049887154   -0.31634697     0.036007785   -0.20551328     0.00015456724
   5617000   0.050120807   -0.31614562     0.03561747    -0.20535179     0.00091486945
   5618000   0.049625082   -0.31622141     0.035780724   -0.20600786    -0.00028056173
   5619000   0.049901938   -0.3161258      0.035915139   -0.20536258     0.00035019334
   5620000   0.049811334   -0.31659549     0.035496132   -0.20638718     0.00052188189
   5621000   0.050143347   -0.31624667     0.035845061   -0.20519144     0.0010068594 
   5622000   0.050142697   -0.31648963     0.036083063   -0.20519738     0.00039761615
   5623000   0.050169562   -0.3163615      0.03512357    -0.20598844     0.0012684509 
   5624000   0.050323859   -0.3161763      0.035556303   -0.20513908     0.00040904325
   5625000   0.049618226   -0.31602537     0.036211651   -0.20539118    -2.355788e-05 
   5626000   0.049542897   -0.31620841     0.03591991    -0.20597895    -0.00086893939
   5627000   0.049694336   -0.31659991     0.035799917   -0.2062633      2.1972425e-05
   5628000   0.049499917   -0.31676685     0.036110121   -0.20641164    -0.0014189535 
   5629000   0.050214134   -0.31656069     0.035702675   -0.20554167    -0.00024585363
   5630000   0.050501015   -0.31616104     0.036160746   -0.20425366    -0.0004561938 
   5631000   0.05000727    -0.31647586     0.036732556   -0.20473724     0.00010188764
   5632000   0.049844502   -0.3162231      0.03601294    -0.20544823     0.00072496837
   5633000   0.04954438    -0.3161181      0.036088921   -0.2057174     -0.00027989794
   5634000   0.050315898   -0.31597886     0.035904481   -0.2046054     -0.00014599113
   5635000   0.050265392   -0.31641356     0.035699457   -0.20532088    -0.00052320638
   5636000   0.049736162   -0.3160724      0.035938236   -0.20553474    -0.0004865081 
   5637000   0.050132132   -0.31648823     0.035693902   -0.20560098     0.00050307926
   5638000   0.050299884   -0.31643735     0.035227499   -0.2057649     -0.00023967033
   5639000   0.050119157   -0.3163935      0.035281461   -0.20593815    -3.4175339e-06
   5640000   0.04983107    -0.3164101      0.035727368   -0.20594095    -0.00040093872
   5641000   0.050273223   -0.31642191     0.03590122    -0.20511573     0.00058431302
   5642000   0.050091551   -0.31662692     0.035870602   -0.20562384     0.00060699061
   5643000   0.049909303   -0.3163936      0.035726535   -0.20580794     0.00018957804
   5644000   0.049949473   -0.31641333     0.035620285   -0.20587367     0.00091633044
   5645000   0.050171405   -0.31700585     0.035794952   -0.20595865    -0.00080355962
   5646000   0.05016517    -0.31650405     0.035619612   -0.20564154    -0.0003637103 
   5647000   0.0502416     -0.31654537     0.035536021   -0.20565181     0.00033737878
   5648000   0.04983449    -0.31632879     0.035881258   -0.20570062    -0.00012635222
   5649000   0.05048543    -0.31644452     0.036173319   -0.20454794     0.00013568083
   5650000   0.049959969   -0.31668902     0.035153721   -0.20660018    -4.0988863e-05
   5651000   0.050337657   -0.31669519     0.035768977   -0.2054246     -0.00012341486
   5652000   0.049588903   -0.31646422     0.036335167   -0.2057505      0.00024586609
   5653000   0.050010514   -0.3166654      0.035361143   -0.20629332     0.0008800851 
   5654000   0.05005321    -0.31686043     0.035884114   -0.20590134    -0.00088485087
   5655000   0.0505299     -0.31653771     0.035513166   -0.20523458     0.00025707899
   5656000   0.050311843   -0.31663973     0.035912344   -0.20526449     0.00025484862
   5657000   0.050219684   -0.31635834     0.035976277   -0.2050574     -0.00040790473
   5658000   0.050276904   -0.31676863     0.035925047   -0.20543309    -0.00048913305
   5659000   0.050690251   -0.31669786     0.03582038    -0.20484701    -1.0443346e-05
   5660000   0.050468411   -0.31651691     0.036222974   -0.2045962      0.00093178793
   5661000   0.050240902   -0.31673894     0.035831273   -0.20555118     0.00023464032
   5662000   0.050139193   -0.31696066     0.035494324   -0.20626239     0.0005966796 
   5663000   0.050093383   -0.31673685     0.035807364   -0.20579426    -0.00045431737
   5664000   0.049549704   -0.31675848     0.035794201   -0.20664451     0.00078262926
   5665000   0.04997261    -0.31655616     0.035618162   -0.20598392     0.00074281303
   5666000   0.049582557   -0.31658437     0.035937959   -0.20627737    -0.00046516273
   5667000   0.050189259   -0.31655026     0.035648447   -0.20562278    -0.00064771216
   5668000   0.050129329   -0.31673776     0.036350438   -0.20519818    -0.00025426339
   5669000   0.050063829   -0.31634874     0.035717798   -0.20554004     0.0009883264 
   5670000   0.050467449   -0.31665543     0.035856467   -0.20510267     4.6345863e-05
   5671000   0.050157282   -0.31670532     0.035284379   -0.20618987     0.00096702634
   5672000   0.049390408   -0.3170525      0.035431391   -0.20754028    -0.00015692292
   5673000   0.050119047   -0.31679797     0.035860405   -0.20576384     0.00031115011
   5674000   0.04997683    -0.31701539     0.036146898   -0.20590809     0.00044882351
   5675000   0.049888643   -0.31695984     0.035863997   -0.20626771    -0.0011145158 
   5676000   0.050076531   -0.31701843     0.035372295   -0.20653618     0.00023083277
   5677000   0.050104323   -0.31676194     0.036098971   -0.20551133    -0.00028448966
   5678000   0.049905979   -0.31669327     0.036103715   -0.20573542     0.0005246741 
   5679000   0.049506323   -0.31659906     0.035731943   -0.20661242    -0.00018455671
   5680000   0.050107544   -0.31645836     0.035840315   -0.20546158    -1.1555816e-05
   5681000   0.049970395   -0.31670154     0.035580701   -0.20617008    -4.5850792e-05
   5682000   0.049571672   -0.31696589     0.035610887   -0.20700229    -3.6639462e-05
   5683000   0.049923318   -0.31682536     0.0357403     -0.20620491    -3.5974317e-05
   5684000   0.049555482   -0.31694663     0.035964843   -0.20665336     0.00041287804
   5685000   0.049295833   -0.31666785     0.035441114   -0.20728776     0.00035897299
   5686000   0.049752686   -0.31721818     0.036151404   -0.20644257     7.8221485e-05
   5687000   0.050346491   -0.31672415     0.035965826   -0.20524346     6.6099359e-05
   5688000   0.050475682   -0.31660663     0.035988524   -0.20490947     0.00010183622
   5689000   0.05041642    -0.31682222     0.03576675    -0.20543572    -0.00040017749
   5690000   0.049794069   -0.31698564     0.03583098    -0.20646837     0.00091929705
   5691000   0.050237141   -0.31668336     0.036090769   -0.20524175     0.00030373579
   5692000   0.050452463   -0.31704942     0.036215227   -0.20516038    -0.00032673676
   5693000   0.050431772   -0.31666396     0.035490485   -0.20553069     5.2018698e-05
   5694000   0.050335037   -0.31704235     0.035789092   -0.20575557     0.00060608081
   5695000   0.04988497    -0.31705538     0.035818933   -0.20641382    -0.00084997949
   5696000   0.049710467   -0.31688013     0.035783512   -0.20653572     0.0011150514 
   5697000   0.049724011   -0.31702479     0.035282661   -0.20716093     0.00018907697
   5698000   0.050088214   -0.31722099     0.035734518   -0.20635899     0.00092038602
   5699000   0.050042567   -0.3169081      0.035755871   -0.20609322     7.4517992e-05
   5700000   0.050104299   -0.31709057     0.035433407   -0.20650557     0.00029988095
   5701000   0.050518024   -0.31732989     0.035724817   -0.20583292    -0.00032817018
   5702000   0.050453054   -0.31664127     0.036142484   -0.20482408    -0.00024035593
   5703000   0.049878585   -0.31651051     0.035650529   -0.20604693    -9.2573231e-05
   5704000   0.050357891   -0.31673799     0.036005538   -0.20520049     0.00086743857
   5705000   0.049928291   -0.31657624     0.036403656   -0.20528498     2.2909222e-05
   5706000   0.050184354   -0.31701202     0.036116027   -0.20562432     0.00030418219
   5707000   0.049893779   -0.31751407     0.036195479   -0.20648275    -0.00046848928
   5708000   0.049921462   -0.31725994     0.036279672   -0.2061029     -0.00077561708
   5709000   0.050541461   -0.31641936     0.035579875   -0.20503218    -0.00025047462
   5710000   0.05013345    -0.31690811     0.035620615   -0.20609217    -0.00039777559
   5711000   0.04911902    -0.31698713     0.036925523   -0.20638783     0.00032634498
   5712000   0.049731933   -0.31684499     0.035737348   -0.20651456    -0.00025213529
   5713000   0.049860694   -0.31687389     0.035837282   -0.2062504     -0.0012800985 
   5714000   0.050180218   -0.31690446     0.035809931   -0.20582906    -0.00057076247
   5715000   0.049870774   -0.31666657     0.035835502   -0.20602974    -0.0007696906 
   5716000   0.049932073   -0.31657931     0.035222301   -0.20646374     3.669531e-05 
   5717000   0.049942289   -0.31684041     0.035575989   -0.20635582    -0.00058899496
   5718000   0.049991899   -0.31695229     0.03566696    -0.20630232    -0.00024508526
   5719000   0.049944648   -0.31739808     0.036268588   -0.20621735     0.00025971277
   5720000   0.050103921   -0.31706381     0.035716958   -0.20619581     0.00047963209
   5721000   0.050206756   -0.31687388     0.035484582   -0.20608403     0.00086365456
   5722000   0.049438167   -0.31710933     0.035997526   -0.20695934    -0.00013025719
   5723000   0.049685189   -0.31715692     0.035734947   -0.206899       0.00032371791
   5724000   0.049855713   -0.31699398     0.035490772   -0.20672447    -0.000362935  
   5725000   0.049792068   -0.31726993     0.035532287   -0.20705436     0.00010709266
   5726000   0.049911166   -0.3168394      0.036014996   -0.20596248     0.00020000488
   5727000   0.049933222   -0.31660205     0.035610559   -0.20609649    -0.00018044045
   5728000   0.049817051   -0.31698223     0.036308627   -0.20595285     0.00036947723
   5729000   0.050228288   -0.31676792     0.035454874   -0.20597548    -0.00012608246
   5730000   0.050280228   -0.31711549     0.035901071   -0.20579894    -0.00028275871
   5731000   0.049670769   -0.31665374     0.035843713   -0.20630868     2.9378005e-06
   5732000   0.049916868   -0.31681106     0.036268706   -0.20567188     2.3455635e-05
   5733000   0.050253226   -0.31630658     0.036470931   -0.20446068     0.00047968776
   5734000   0.050465318   -0.3167785      0.035717641   -0.20536776     0.00040780553
   5735000   0.050002984   -0.31675094     0.03584317    -0.20590813     0.00021280669
   5736000   0.050035307   -0.31690089     0.0357157     -0.20613707     0.00087269845
   5737000   0.050026416   -0.31687163     0.03622126    -0.20561559     0.00011032619
   5738000   0.050009203   -0.31713446     0.036011911   -0.20611359     0.00012995563
   5739000   0.049870501   -0.3171915      0.036486438   -0.20590413    -0.00028645129
   5740000   0.049611078   -0.31712575     0.036485302   -0.20622863    -0.00036114676
   5741000   0.049982305   -0.31681707     0.035448397   -0.20640005     0.0011460506 
   5742000   0.050422977   -0.31709426     0.035899705   -0.20556496     0.00045172544
   5743000   0.050437268   -0.31714903     0.036010061   -0.20548794    -0.00025687034
   5744000   0.050142309   -0.31648209     0.035940645   -0.20533284     0.00037931589
   5745000   0.050298946   -0.31711546     0.036139262   -0.20553265     0.00013915803
   5746000   0.049397514   -0.31687889     0.035817019   -0.20697038    -0.00027238789
   5747000   0.049886679   -0.31699695     0.035263674   -0.20690808    -0.00043610228
   5748000   0.049437822   -0.31643144     0.035836997   -0.20644249    -0.000260073  
   5749000   0.050041381   -0.31735748     0.036125072   -0.20617518    -0.00060122977
   5750000   0.050443669   -0.317022       0.035782881   -0.2055785      0.00024757732
   5751000   0.049888607   -0.31671218     0.036030804   -0.20585329    -0.00019554427
   5752000   0.05012931    -0.31686797     0.035048171   -0.20663069     5.8806264e-05
   5753000   0.050143942   -0.31670949     0.035810432   -0.20568799     0.00018883194
   5754000   0.050457452   -0.31652965     0.035889645   -0.20495871     0.00040447073
   5755000   0.049929438   -0.31685446     0.036153212   -0.20581193     0.00017196601
   5756000   0.050101776   -0.31720485     0.036336523   -0.20572052    -0.00058314116
   5757000   0.049492206   -0.31723445     0.035768777   -0.20723216     0.00018891323
   5758000   0.050143071   -0.3167391      0.035260396   -0.20626895     0.00040440309
   5759000   0.049526435   -0.31700508     0.036802989   -0.20591723    -0.00067133894
   5760000   0.05072945    -0.31715334     0.035802948   -0.20526113     0.0013271767 
   5761000   0.050523108   -0.31703995     0.03587714    -0.20538304    -0.00030469369
   5762000   0.049523856   -0.31673264     0.036187741   -0.20626391     0.0010730738 
   5763000   0.050318314   -0.31733056     0.035930053   -0.2059279     -0.00012425862
   5764000   0.049941724   -0.31732267     0.036205577   -0.20620934    -0.0015822537 
   5765000   0.04983845    -0.31700631     0.036393566   -0.20585989     0.00013954837
   5766000   0.049935432   -0.31727446     0.036183187   -0.20619296    -0.00055734102
   5767000   0.050376697   -0.3170299      0.035860282   -0.20560945     9.4883058e-05
   5768000   0.05015063    -0.31720769     0.036066771   -0.20591982     0.00065292271
   5769000   0.049729153   -0.31726777     0.035835282   -0.20684357    -0.00019318663
   5770000   0.050052047   -0.31696388     0.036129729   -0.20576092     0.00031186568
   5771000   0.050207148   -0.31761267     0.036121754   -0.20618505    -0.00080981202
   5772000   0.050242443   -0.31749132     0.036335263   -0.20579725     0.0002214266 
   5773000   0.050131106   -0.31753305     0.035676372   -0.20666487    -0.00013453164
   5774000   0.049499481   -0.31740678     0.035828412   -0.20733394    -0.00034288083
   5775000   0.050305626   -0.31741119     0.035840987   -0.20611663    -0.00011114977
   5776000   0.050197336   -0.3176031      0.035547766   -0.20676419    -0.00060252441
   5777000   0.049440164   -0.31709561     0.035885582   -0.20705457     0.00014013236
   5778000   0.050205736   -0.31743647     0.035767936   -0.20636479    -0.0013468078 
   5779000   0.050173649   -0.31736634     0.035487447   -0.20662327     0.00018878244
   5780000   0.050036179   -0.31738219     0.035749079   -0.20658368     0.00016439619
   5781000   0.050132152   -0.31757677     0.035698013   -0.20668538     0.0002512773 
   5782000   0.050269013   -0.31760453     0.036076757   -0.20612911     6.609468e-05 
   5783000   0.049389116   -0.31750257     0.036667644   -0.20675603     0.00076844435
   5784000   0.049800172   -0.31690264     0.035802605   -0.2064046     -0.00040928935
   5785000   0.049970907   -0.31729366     0.036184213   -0.20615792    -0.00018188744
   5786000   0.050564821   -0.31730153     0.036373995   -0.2050852     -0.00067222467
   5787000   0.050696141   -0.31752522     0.035981166   -0.20550475    -9.2717147e-05
   5788000   0.05008511    -0.31686081     0.036680516   -0.20505748    -1.3951571e-05
   5789000   0.049961135   -0.31699396     0.036220207   -0.20583688    -0.0002209182 
   5790000   0.050678034   -0.31746265     0.035801681   -0.20564883     5.7804246e-05
   5791000   0.050563579   -0.31748134     0.0356099     -0.20603097     0.0003365264 
   5792000   0.049024928   -0.31697242     0.035736165   -0.20770361     0.00034952956
   5793000   0.049265439   -0.31743261     0.036346449   -0.20719277    -0.00027038329
   5794000   0.050124285   -0.3174017      0.035266385   -0.20695373     0.0008989639 
   5795000   0.04986881    -0.31791354     0.036108329   -0.20700683    -0.0002074306 
   5796000   0.049703202   -0.31774077     0.035615136   -0.20757564     0.00075149946
   5797000   0.050128592   -0.31722696     0.035247756   -0.20679116     0.00078146306
   5798000   0.050295269   -0.31731622     0.0362005     -0.20567768    -0.00079089682
   5799000   0.050319087   -0.3174955      0.035933175   -0.20608856     0.00023441741
   5800000   0.049616254   -0.3175918      0.036047585   -0.20712464    -0.00045877927
   5801000   0.049360585   -0.31735991     0.035817223   -0.20750659    -0.00035218193
   5802000   0.049995233   -0.31738393     0.035883583   -0.20651234     0.00019279815
   5803000   0.049638018   -0.31756359     0.036067741   -0.20704362     0.00021517604
   5804000   0.049596797   -0.31736636     0.035859163   -0.2071168     -0.00090468796
   5805000   0.049955789   -0.31730209     0.036274861   -0.20609838    -0.00035464324
   5806000   0.050516225   -0.31765849     0.036138003   -0.20575104     0.00021417815
   5807000   0.049851      -0.31781705     0.035938301   -0.20710707    -0.00021232309
   5808000   0.049912098   -0.31755972     0.035898932   -0.20679747     0.00016231633
   5809000   0.050274018   -0.31767225     0.035641665   -0.20662443     0.00021871926
   5810000   0.049366273   -0.31759923     0.035164242   -0.20839036     0.00049491853
   5811000   0.049264422   -0.31787989     0.035554832   -0.20843319    -0.00065299565
   5812000   0.049842998   -0.31761711     0.03571784    -0.2071396     -0.00037143689
   5813000   0.050210858   -0.3177457      0.035853433   -0.20658084    -0.00094612068
   5814000   0.049654356   -0.31776067     0.03601249    -0.20727145    -0.00040176071
   5815000   0.049448836   -0.31787832     0.036090099   -0.20761975    -8.8607922e-05
   5816000   0.050302193   -0.31777834     0.035464451   -0.20686546    -0.0005276409 
   5817000   0.049650512   -0.31765751     0.035377735   -0.20780882     1.7936853e-05
   5818000   0.0501339     -0.31762143     0.035153862   -0.20727157    -0.00093185004
   5819000   0.050027112   -0.31765327     0.03547418    -0.20714327    -0.00039040198
   5820000   0.050016452   -0.31722344     0.03579581    -0.20640779     0.00021397766
   5821000   0.050012056   -0.31734325     0.035880197   -0.20644981     0.00028184875
   5822000   0.049662213   -0.31778139     0.036444667   -0.20684821    -0.00011876471
   5823000   0.049858821   -0.31759422     0.035513343   -0.20729747    -0.00062295677
   5824000   0.049682439   -0.31775199     0.035785203   -0.20744793    -0.00043650497
   5825000   0.049684311   -0.31769528     0.035413945   -0.20775967     0.00019825627
   5826000   0.049523978   -0.31772797     0.03569167    -0.20775512    -0.00021785964
   5827000   0.049988998   -0.31720481     0.035902941   -0.20632321     0.00072334421
   5828000   0.050176493   -0.3175322      0.035931087   -0.20634123    -0.00015504014
   5829000   0.049622461   -0.31757728     0.036320366   -0.20682802    -9.5461912e-05
   5830000   0.050136987   -0.31761943     0.035717574   -0.20670123    -0.00020020085
   5831000   0.050236      -0.31725376     0.035749379   -0.20615524     0.00014011362
   5832000   0.049811081   -0.3173773      0.035695896   -0.2069696      0.00037502374
   5833000   0.050232448   -0.31721451     0.0354991     -0.2063716      0.00082670399
   5834000   0.050204983   -0.31736669     0.035749013   -0.20631506     2.9941388e-05
   5835000   0.049820779   -0.31753849     0.035695442   -0.20711671     2.6366597e-05
   5836000   0.049871338   -0.31778452     0.035278795   -0.20770354    -0.00018597361
   5837000   0.049591146   -0.31763574     0.03585797    -0.20739585    -0.00035271961
   5838000   0.049782441   -0.31794991     0.035039459   -0.20824161    -0.0010377023 
   5839000   0.049758736   -0.31762977     0.035532535   -0.20746395    -0.00015127899
   5840000   0.049480915   -0.31730442     0.035963285   -0.20712455     0.00068293897
   5841000   0.049674271   -0.31769994     0.036090151   -0.20710319    -0.00053726011
   5842000   0.050133024   -0.31786337     0.035621007   -0.20704768    -1.7892588e-05
   5843000   0.049992174   -0.31769706     0.035688648   -0.20702499     0.00034097612
   5844000   0.050238226   -0.31784735     0.035960908   -0.20653396    -0.000101378  
   5845000   0.050060837   -0.31746048     0.035601644   -0.20677242     0.00019320752
   5846000   0.050617759   -0.3175907      0.035349099   -0.20631986     6.8102526e-05
   5847000   0.050222957   -0.31771928     0.035594083   -0.20679562     0.00026266084
   5848000   0.049839371   -0.31718558     0.036120687   -0.20631066     0.00092275002
   5849000   0.050249624   -0.31731619     0.036067509   -0.20587911    -0.00043332002
   5850000   0.050014985   -0.31762219     0.036506179   -0.20609837    -0.00035401432
   5851000   0.050316295   -0.31709051     0.035690135   -0.20593081     0.00069396708
   5852000   0.05075819    -0.31779657     0.035834377   -0.20582982     0.00023676883
   5853000   0.0499259     -0.3173968      0.035849671   -0.20666311    -6.9994904e-05
   5854000   0.049309482   -0.31719151     0.035713984   -0.20751807     0.00057545511
   5855000   0.049733242   -0.31760309     0.035155925   -0.20785211     0.00062993552
   5856000   0.049804834   -0.31755151     0.035320966   -0.20752811    -1.0237196e-05
   5857000   0.050010203   -0.31745052     0.035231509   -0.20720855     0.00015021505
   5858000   0.050063848   -0.31763831     0.035834358   -0.20671302     1.3677954e-05
   5859000   0.050623975   -0.31799349     0.036181284   -0.20588114    -0.00055325298
   5860000   0.050120452   -0.31758828     0.036506576   -0.20590587     0.00052541401
   5861000   0.05060751    -0.31805294     0.035900648   -0.20624592    -8.9670024e-05
   5862000   0.050250907   -0.317849       0.035965745   -0.20651176    -0.00031896254
   5863000   0.05056338    -0.31748904     0.035832955   -0.20581591     4.7007461e-05
   5864000   0.050012579   -0.31768193     0.035660471   -0.20700743     0.00099168389
   5865000   0.049959057   -0.31745737     0.035826162   -0.20669746    -0.00035161049
   5866000   0.050138973   -0.31740307     0.035414679   -0.20678478     0.00020810077
   5867000   0.050265846   -0.31738122     0.035732365   -0.20625495     0.00078028601
   5868000   0.050692324   -0.31759865     0.035648013   -0.20591705     0.00080742342
   5869000   0.050519563   -0.31756592     0.035886916   -0.20590455    -0.00067133659
   5870000   0.050396042   -0.3174042      0.035463034   -0.20635199     0.00084021229
   5871000   0.050611494   -0.31725921     0.035883186   -0.20546368     0.00051011023
   5872000   0.049838946   -0.31804416     0.035739139   -0.20755143     0.00018829765
   5873000   0.050225285   -0.31767764     0.035130682   -0.20721389     0.00044882442
   5874000   0.049803156   -0.3176665      0.036269993   -0.20669659    -0.0011404511 
   5875000   0.050464871   -0.31768015     0.036055135   -0.20593259    -0.00016215626
   5876000   0.049591637   -0.31739903     0.036228158   -0.20678822     0.00028625101
   5877000   0.049688424   -0.31758169     0.035805359   -0.2072485     -0.00026638351
   5878000   0.049763752   -0.3173784      0.035891455   -0.20684613     4.9169484e-05
   5879000   0.049850675   -0.31761325     0.035430972   -0.20741109    -0.00023131117
   5880000   0.050263643   -0.31810756     0.036204245   -0.20651271     0.00039041999
   5881000   0.050090404   -0.31748693     0.035669468   -0.2066867      0.0010172887 
   5882000   0.049655805   -0.31763882     0.036268258   -0.20689166     0.00023872224
   5883000   0.049373698   -0.31807481     0.036599403   -0.20741964    -0.00053406977
   5884000   0.050092613   -0.31815579     0.035209862   -0.20781185     0.00022635825
   5885000   0.050148515   -0.31767755     0.03578013    -0.2066795      0.00083385187
   5886000   0.050263809   -0.31783377     0.036496942   -0.20594597     0.00011863012
   5887000   0.050550718   -0.31747802     0.036177016   -0.20547982     0.00032011205
   5888000   0.05052722    -0.31814638     0.036302802   -0.20605764     0.00027921851
   5889000   0.050005432   -0.3177422      0.035144379   -0.20759451    -0.0003455007 
   5890000   0.049711524   -0.31773298     0.03527451    -0.20789599    -0.0002984701 
   5891000   0.049518712   -0.31795541     0.035889355   -0.20779278     0.0001587389 
   5892000   0.050541776   -0.31781049     0.036052221   -0.2059505      0.00028610899
   5893000   0.050350846   -0.31790401     0.035568156   -0.20681445     5.8482763e-05
   5894000   0.050356324   -0.31770985     0.035734341   -0.2064459     -0.0007193427 
   5895000   0.049660394   -0.31798182     0.036242477   -0.20725356     0.00020787716
   5896000   0.049942532   -0.31765857     0.035516753   -0.20723285     0.00066236357
   5897000   0.050422564   -0.31775936     0.036099531   -0.20603086     0.0005430292 
   5898000   0.050461282   -0.31778846     0.03571274    -0.20638868     7.0041333e-05
   5899000   0.049964905   -0.31783647     0.035868861   -0.20702509     0.00060937518
   5900000   0.049751562   -0.31765296     0.03591719    -0.20711324     3.625406e-05 
   5901000   0.049989674   -0.3179612      0.036067634   -0.20691389    -0.00050844619
   5902000   0.049570854   -0.31834119     0.035553803   -0.20843591    -0.00085180529
   5903000   0.050130591   -0.31791749     0.035580752   -0.20714571     0.00032659251
   5904000   0.049831581   -0.31790168     0.035599919   -0.20755921    -0.001101477  
   5905000   0.050258661   -0.31809815     0.035734244   -0.20698078     0.00020138179
   5906000   0.049715458   -0.3177972      0.036995824   -0.206233       0.00034475466
   5907000   0.050963665   -0.31769464     0.035619075   -0.205635       0.00072376182
   5908000   0.05004478    -0.31772902     0.036075234   -0.20659146     0.001091263  
   5909000   0.050336937   -0.31778777     0.036577519   -0.20570972     0.00072051507
   5910000   0.050508366   -0.3178683      0.035814263   -0.20629638     0.00010697845
   5911000   0.05013566    -0.31760715     0.036697014   -0.20571149    -0.00024207822
   5912000   0.049663928   -0.31733151     0.035948578   -0.20689185    -0.00025257045
   5913000   0.050156878   -0.31782758     0.035805185   -0.20679193    -0.00021332965
   5914000   0.049756915   -0.31802459     0.035745611   -0.20764842    -0.00047689034
   5915000   0.05001608    -0.3179892      0.035883345   -0.20708658     0.0004075775 
   5916000   0.049748676   -0.31761402     0.036059527   -0.20693629     0.0005411007 
   5917000   0.050156369   -0.31788045     0.035581048   -0.2070697      0.00083250581
   5918000   0.050024569   -0.31786229     0.03563163    -0.20719865     0.00021812048
   5919000   0.050254403   -0.31780046     0.035463333   -0.20696038    -0.00029081332
   5920000   0.049850558   -0.31798382     0.036164063   -0.20704874    -5.7406556e-05
   5921000   0.050294361   -0.31765775     0.036232507   -0.20598857    -0.00016381852
   5922000   0.050134276   -0.31808972     0.03558339    -0.20730977     0.00014625476
   5923000   0.050556124   -0.3179733      0.035675108   -0.2064689     -0.00034322649
   5924000   0.050214627   -0.31763751     0.03597767    -0.20634276    -0.00042013309
   5925000   0.05023455    -0.31807631     0.036117479   -0.20661187     9.7142332e-05
   5926000   0.050170296   -0.31741009     0.035621568   -0.20653794    -0.00027130924
   5927000   0.04981953    -0.31761673     0.035939849   -0.20695241    -2.2629818e-05
   5928000   0.050120217   -0.31764957     0.036475279   -0.20599882    -0.0002470243 
   5929000   0.050206067   -0.31789583     0.035582653   -0.20700893     0.00043139925
   5930000   0.049516801   -0.31787755     0.03568221    -0.20792493     0.00069777595
   5931000   0.049497894   -0.31747565     0.036171208   -0.20706239    -0.00040717954
   5932000   0.049932874   -0.31782102     0.035418371   -0.20750818    -7.5746883e-07
   5933000   0.049664519   -0.31767147     0.036051121   -0.20712838    -0.00084144636
   5934000   0.049817592   -0.31790483     0.035196941   -0.20798632    -0.00016931639
   5935000   0.049991083   -0.31805021     0.036232386   -0.20683604    -0.0004343661 
   5936000   0.049712471   -0.31781858     0.035655498   -0.20759918     0.00010511883
   5937000   0.049913121   -0.31784265     0.035725044   -0.20725276     4.12847e-05  
   5938000   0.049478847   -0.31814456     0.035984929   -0.20794615     0.00037988396
   5939000   0.049934561   -0.31821155     0.035392476   -0.20792206     0.00044398429
   5940000   0.049872309   -0.31765764     0.035531623   -0.20732237     0.00043159477
   5941000   0.048956498   -0.31802657     0.036055537   -0.20854102    -0.00097893223
   5942000   0.049969383   -0.31781544     0.035812957   -0.20705325     0.00062680491
   5943000   0.049954993   -0.31752619     0.036402811   -0.20619573     7.7366697e-05
   5944000   0.049799458   -0.31809982     0.036387549   -0.2070179     -0.00024824283
   5945000   0.049788539   -0.31779514     0.03602619    -0.20709096     2.369341e-05 
   5946000   0.050339551   -0.31805964     0.035595975   -0.20695921    -0.00018303465
   5947000   0.049971324   -0.31817485     0.035687229   -0.20753547    -0.00065172851
   5948000   0.049500476   -0.31778717     0.035889337   -0.20765191     0.00025620601
   5949000   0.049984792   -0.31806655     0.035652547   -0.20744166    -0.00033177533
   5950000   0.049477951   -0.31764996     0.036023062   -0.20741476    -0.00028279318
   5951000   0.049522843   -0.3181357      0.036024826   -0.2078314     -0.00011122629
   5952000   0.049869258   -0.31783394     0.036483301   -0.20655158     0.00039177644
   5953000   0.049903711   -0.31787677     0.035981954   -0.20704408    -0.00029800033
   5954000   0.049934748   -0.31807644     0.036238657   -0.20694049     1.6342892e-05
   5955000   0.049394004   -0.31801442     0.035486238   -0.20844195    -0.00063545448
   5956000   0.049821625   -0.31795823     0.035532929   -0.20769769    -0.00025191773
   5957000   0.049660792   -0.31825237     0.035920781   -0.20784521     0.00074612061
   5958000   0.050193939   -0.31807846     0.035285498   -0.20750692     5.6796954e-06
   5959000   0.050154535   -0.31815578     0.035926377   -0.20700245     4.6710312e-05
   5960000   0.050144523   -0.31798561     0.035513553   -0.20726012     0.0011793629 
   5961000   0.050369585   -0.31814245     0.036527113   -0.20606584    -0.00031855874
   5962000   0.050308719   -0.31833557     0.036404517   -0.20647285     0.00027921256
   5963000   0.050118943   -0.31809533     0.036834947   -0.20608682    -0.00028728622
   5964000   0.050145994   -0.31807707     0.036156572   -0.20670636     2.24101e-05  
   5965000   0.049836455   -0.31787586     0.036477656   -0.20664834     0.00029401171
   5966000   0.050804836   -0.3177043      0.035709268   -0.2057927      0.00033570404
   5967000   0.050361397   -0.31811991     0.03583779    -0.2067449     -0.000341158  
   5968000   0.050348481   -0.31797425     0.035515331   -0.20694107    -0.00074505264
   5969000   0.049578595   -0.31808169     0.036030003   -0.20768859     0.00036977825
   5970000   0.049529918   -0.31811398     0.035858528   -0.20796537     0.00023232725
   5971000   0.049550307   -0.31828024     0.035652158   -0.20830742    -0.00057538585
   5972000   0.049492077   -0.31798201     0.03546709    -0.2082816      0.00021513315
   5973000   0.050090372   -0.31800123     0.036117272   -0.20675325    -0.001053544  
   5974000   0.049582804   -0.31799382     0.035717533   -0.20790688    -4.2158397e-05
   5975000   0.050280763   -0.3180758      0.035667107   -0.20699241     0.0002565842 
   5976000   0.049936087   -0.31865313     0.035784597   -0.20796923     0.00092036565
   5977000   0.049934459   -0.31815681     0.035551534   -0.20770842     0.00025940359
   5978000   0.050206042   -0.31802459     0.035395355   -0.20732503    -2.8025721e-05
   5979000   0.04978494    -0.31813696     0.036437701   -0.20702667    -0.00012594992
   5980000   0.049848346   -0.31823519     0.036203298   -0.2072642      0.00087603555
   5981000   0.050095746   -0.31804832     0.035758339   -0.20715121     0.00033699961
   5982000   0.050021419   -0.31782643     0.035949604   -0.20684954    -0.00040542705
   5983000   0.049695077   -0.31774561     0.036077016   -0.20713079    -0.00048119143
   5984000   0.050468354   -0.31844508     0.036036491   -0.20671094    -3.2734838e-05
   5985000   0.050088854   -0.31769828     0.035757085   -0.20681276     5.4903579e-05
   5986000   0.050274598   -0.31830079     0.036027679   -0.20686608     7.209455e-05 
   5987000   0.050473799   -0.31823606     0.035558217   -0.20697203     0.00055426282
   5988000   0.049727188   -0.31810375     0.036313364   -0.20720441     0.00070860042
   5989000   0.049272925   -0.31805947     0.035942374   -0.20821247     9.9417701e-05
   5990000   0.049812348   -0.3182472      0.035774776   -0.20775872     0.00073036489
   5991000   0.04936996    -0.31821562     0.035151583   -0.20901388    -0.00068458767
   5992000   0.049467258   -0.31790891     0.035900213   -0.20781259     0.00026623141
   5993000   0.050508329   -0.3182149      0.035569561   -0.20688773    -0.00035507447
   5994000   0.050463406   -0.31786231     0.035696676   -0.20647541     0.0005742044 
   5995000   0.050179643   -0.31741024     0.035891203   -0.20625443    -0.00027300736
   5996000   0.049678636   -0.31787756     0.035210299   -0.20815412     7.1770478e-05
   5997000   0.050138311   -0.31831012     0.036167113   -0.20694039     0.00042915278
   5998000   0.049771246   -0.31828756     0.035716203   -0.2079193      0.00042429968
   5999000   0.050333413   -0.3179242      0.03558587    -0.20684308    -0.00014891344
   6000000   0.049976943   -0.3180415      0.036049236   -0.20703169    -0.00052317245
   6001000   0.050216782   -0.31832096     0.035961767   -0.20703888     3.3101508e-05
   6002000   0.050409568   -0.31827552     0.035840892   -0.20682515     0.0002214233 
   6003000   0.049695231   -0.31784015     0.03600666    -0.20729546    -0.00025101876
   6004000   0.050053922   -0.31889122     0.035616691   -0.20819849     0.00067427911
   6005000   0.050109285   -0.31851762     0.035426007   -0.20793253     0.00013959642
   6006000   0.049849683   -0.31862613     0.035279427   -0.20857701    -0.00046792291
   6007000   0.050219994   -0.31806127     0.03573373    -0.20700241    -9.5550086e-05
   6008000   0.050049539   -0.31847371     0.035982742   -0.2074215     -4.3201227e-05
   6009000   0.049899499   -0.31773168     0.035830565   -0.2070567     -0.00038637748
   6010000   0.050016696   -0.31835285     0.03625159    -0.20708105     0.00027135268
   6011000   0.049950713   -0.31812058     0.035319332   -0.20788001    -0.00013011894
   6012000   0.0494163     -0.31872291     0.036342168   -0.20826107    -0.00070661575
   6013000   0.049943411   -0.3181141      0.035485837   -0.20771798    -0.00028815208
   6014000   0.049495278   -0.31827992     0.036549923   -0.20749188    -0.00096686905
   6015000   0.050197519   -0.3184434      0.036525897   -0.20662608    -0.00016052024
   6016000   0.051004776   -0.3188515      0.035436512   -0.20691276     0.00022307551
   6017000   0.049941551   -0.31783742     0.03585486    -0.20707507    -0.00036167646
   6018000   0.050736278   -0.31806694     0.03596108    -0.20600636    -0.0006076441 
   6019000   0.050444324   -0.31809769     0.035981019   -0.20645506    -0.00011037597
   6020000   0.049741335   -0.3185374      0.035399681   -0.20853053    -1.8920093e-05
   6021000   0.049297746   -0.31816455     0.035213559   -0.20900915     0.00062773185
   6022000   0.049817054   -0.31865734     0.035780983   -0.2081556      0.00014576003
   6023000   0.049876675   -0.31835675     0.035940008   -0.20760656     0.00055667413
   6024000   0.049520811   -0.31846747     0.035528487   -0.20866256    -0.00061598671
   6025000   0.049710531   -0.31841963     0.035559137   -0.20829951     5.3602288e-05
   6026000   0.050141409   -0.31841582     0.03574304    -0.20746551    -0.0005134197 
   6027000   0.049993824   -0.31833318     0.035893298   -0.20745398     0.00054003645
   6028000   0.050607978   -0.3186925      0.036008411   -0.20677702    -0.00015743035
   6029000   0.050100381   -0.31818249     0.036157637   -0.20687913    -6.7049854e-05
   6030000   0.049619256   -0.31854097     0.035856788   -0.2082601     -0.00040296278
   6031000   0.049491611   -0.31840692     0.036784762   -0.20738954    -0.0011235884 
   6032000   0.050336152   -0.31845608     0.03557808    -0.20737864     0.00051351952
   6033000   0.049500861   -0.3182979      0.035687347   -0.20836405    -7.6973676e-05
   6034000   0.049846606   -0.31881386     0.035207344   -0.20884143    -0.00045639637
   6035000   0.049785856   -0.31836778     0.035653515   -0.2080403      9.0987172e-05
   6036000   0.050325928   -0.31806        0.035617786   -0.20695819    -0.00016838937
   6037000   0.050086674   -0.31840203     0.03594969    -0.20732717     0.00044592766
   6038000   0.049642428   -0.31856735     0.03596553    -0.20814298    -0.00028142547
   6039000   0.049848696   -0.31823766     0.035623932   -0.20784551     0.00056620877
   6040000   0.050102146   -0.3182532      0.034862648   -0.20824218     0.00048010573
   6041000   0.050129517   -0.31838077     0.036032718   -0.20715863     0.00024982869
   6042000   0.049952657   -0.3184451      0.036195922   -0.20732502    -0.00049093351
   6043000   0.049749743   -0.31844391     0.035940552   -0.20788356    -0.00019829737
   6044000   0.049666911   -0.31869499     0.035590055   -0.20860938     0.00091197675
   6045000   0.050796988   -0.31870061     0.035368319   -0.20714172     0.00048422006
   6046000   0.049813043   -0.31846479     0.036041935   -0.20770811     0.00039520608
   6047000   0.050362743   -0.31871394     0.036333804   -0.20684089    -7.3584705e-05
   6048000   0.050374656   -0.31818397     0.03544848    -0.20717838     0.0003811786 
   6049000   0.050028586   -0.31845308     0.035523377   -0.20789166    -0.00012753402
   6050000   0.049626276   -0.31849949     0.036597872   -0.207467      -0.00055947522
   6051000   0.050383265   -0.31857448     0.03606193    -0.20694253    -0.00042170298
   6052000   0.049977852   -0.31847948     0.035827329   -0.20769021    -7.1468005e-05
   6053000   0.049943341   -0.31842584     0.036265491   -0.20725017     0.00076895363
   6054000   0.049760873   -0.31830747     0.035601755   -0.20806922     0.00011200878
   6055000   0.049872018   -0.31818604     0.03621901    -0.20716383    -0.00091530073
   6056000   0.049917053   -0.31824753     0.035443379   -0.2079334     -0.0004980122 
   6057000   0.049870918   -0.31830876     0.035921795   -0.20758542     3.2843444e-05
   6058000   0.049810766   -0.31839276     0.035580652   -0.20810078    -8.8037258e-05
   6059000   0.049443004   -0.31814467     0.036513313   -0.20747164    -0.0011051702 
   6060000   0.049645226   -0.31825299     0.035727878   -0.20806208     0.000807404  
   6061000   0.049781511   -0.31863471     0.035728747   -0.20823851     0.0014322165 
   6062000   0.050091215   -0.31837908     0.035246988   -0.20800012     0.0011850531 
   6063000   0.050009231   -0.31856457     0.035729231   -0.20782633     0.0002691516 
   6064000   0.049586134   -0.31828607     0.035979587   -0.20793208    -7.7744979e-05
   6065000   0.049377694   -0.31850695     0.036525653   -0.20791954    -0.00037509494
   6066000   0.050196409   -0.31848967     0.036356551   -0.20684336    -0.00014614309
   6067000   0.050049755   -0.31849894     0.035616308   -0.20781284    -0.00046252312
   6068000   0.049694069   -0.31858806     0.036276612   -0.20777515     0.00013008326
   6069000   0.049831956   -0.31856051     0.036084791   -0.20773261     2.8439592e-05
   6070000   0.050117761   -0.31874522     0.035848234   -0.2077252      0.0006528313 
   6071000   0.050057389   -0.31871635     0.035840389   -0.20779472     0.00027171168
   6072000   0.049894262   -0.31851932     0.035611024   -0.20807173     2.524086e-05 
   6073000   0.049699196   -0.31880748     0.035949952   -0.20831355    -1.8694703e-05
   6074000   0.049605441   -0.31846536     0.036038111   -0.20802389    -0.00047756405
   6075000   0.050329923   -0.31863632     0.035777131   -0.20736918     0.00011029364
   6076000   0.050358407   -0.31864965     0.035664741   -0.20745217     0.00021058366
   6077000   0.050225372   -0.31874751     0.03504826    -0.20836606    -6.2619104e-05
   6078000   0.049769401   -0.3188009      0.035776678   -0.20837494     0.00014633167
   6079000   0.050401319   -0.31880205     0.035597951   -0.20760699    -0.0001056944 
   6080000   0.050212562   -0.31855934     0.03630596    -0.20693939    -0.00075172587
   6081000   0.049877009   -0.31856505     0.035591441   -0.20816292     0.00027715341
   6082000   0.050097939   -0.31900039     0.035904865   -0.20795346    -0.00034881191
   6083000   0.050491272   -0.31869354     0.035589821   -0.2073717      0.0004015572 
   6084000   0.04998484    -0.31846078     0.035508843   -0.20797951     0.00014381077
   6085000   0.050153388   -0.31870082     0.036189644   -0.20728595    -0.00030816967
   6086000   0.049548422   -0.31897743     0.036375808   -0.20828379    -0.00061644731
   6087000   0.049922213   -0.31858961     0.03574562    -0.2079655     -0.00072463568
   6088000   0.050106381   -0.31887006     0.035854902   -0.20786044     0.00035106086
   6089000   0.049485121   -0.31834819     0.035591474   -0.20853382     0.00081545664
   6090000   0.050513657   -0.31869465     0.035351714   -0.20757734     7.8387271e-05
   6091000   0.050356981   -0.31893633     0.036051852   -0.20735388     0.00041056929
   6092000   0.050357163   -0.31870227     0.035662834   -0.20750857     0.00058137768
   6093000   0.049840506   -0.31888406     0.035814881   -0.20831324     0.00043454098
   6094000   0.049583928   -0.31885152     0.036161498   -0.20831893     0.00038166964
   6095000   0.0498795     -0.31877514     0.035703166   -0.20825755     0.0001359653 
   6096000   0.050176777   -0.31848396     0.03570243    -0.20752123     7.2180315e-05
   6097000   0.049845045   -0.31907651     0.03613762    -0.20817615    -0.00049031105
   6098000   0.049960369   -0.31864086     0.035747067   -0.20795807     0.0007478602 
   6099000   0.050032203   -0.31858141     0.036272026   -0.20726592    -0.00038103195
   6100000   0.049834837   -0.31864673     0.035806935   -0.20809236     3.80294e-05  
   6101000   0.049898213   -0.31862536     0.036524386   -0.20725848     0.00021792804
   6102000   0.050416808   -0.31877934     0.036159947   -0.20699906    -8.4437796e-05
   6103000   0.050346552   -0.3186544      0.036230252   -0.20690919     7.668094e-06 
   6104000   0.050068027   -0.31850543     0.035380671   -0.20802756     0.00022617507
   6105000   0.049786728   -0.31868682     0.035797168   -0.20821438     0.00013468613
   6106000   0.050412397   -0.31853884     0.035302035   -0.20762308     0.00073416012
   6107000   0.050168474   -0.31844727     0.035552705   -0.20764671     0.00098741619
   6108000   0.05012684    -0.31876964     0.035717665   -0.20786657    -0.00055331426
   6109000   0.050532974   -0.31880865     0.036119164   -0.20689491    -0.0005658429 
   6110000   0.050114804   -0.31914423     0.036049625   -0.20792725    -0.00070354127
   6111000   0.050464996   -0.3189457      0.036068954   -0.20718413    -4.2164589e-05
   6112000   0.050407682   -0.31863071     0.035462408   -0.20756165     5.9444291e-06
   6113000   0.050184837   -0.31882931     0.035855017   -0.20770189    -0.00021680154
   6114000   0.050187732   -0.31898574     0.03505498    -0.20865402     0.00014603206
   6115000   0.049696834   -0.31872503     0.035623878   -0.20856071    -0.00025710847
   6116000   0.050004299   -0.31875241     0.035891728   -0.20785907     2.8015962e-05
   6117000   0.050055233   -0.31865375     0.035526604   -0.20804914    -0.00020818039
   6118000   0.050142298   -0.31872174     0.035949534   -0.20756361     0.00064506635
   6119000   0.049858874   -0.31853498     0.036168174   -0.20758332    -0.00024907921
   6120000   0.05049172    -0.31877751     0.036368267   -0.20667655     0.00082883676
   6121000   0.050899424   -0.31850991     0.035496998   -0.2066687      0.00081452463
   6122000   0.05039854    -0.31889008     0.036252326   -0.20704482    -0.00028596357
   6123000   0.050010023   -0.31901773     0.036261634   -0.2077459      0.000713856  
   6124000   0.049551617   -0.31879742     0.036211046   -0.20826374    -7.471227e-05 
   6125000   0.050449063   -0.31888059     0.035678574   -0.20753331     0.00030300856
   6126000   0.050292648   -0.31873734     0.035605225   -0.20769801    -0.00046320101
   6127000   0.050298729   -0.31899466     0.036023209   -0.20752823    -6.4125702e-05
   6128000   0.049934115   -0.31849709     0.0361164     -0.20748435     0.00071833668
   6129000   0.050269342   -0.31869865     0.035910667   -0.20738884    -0.00045591385
   6130000   0.049978776   -0.31880405     0.036310463   -0.20753026    -0.00068105377
   6131000   0.050131206   -0.31891248     0.035353398   -0.20836713     0.00043043101
   6132000   0.049375667   -0.3190856      0.036286469   -0.20874041    -0.0012165356 
   6133000   0.050013764   -0.31884488     0.035749301   -0.20807977     0.00015143272
   6134000   0.0502888     -0.31900136     0.035669254   -0.20790377    -7.1719759e-05
   6135000   0.050262905   -0.31882019     0.035749248   -0.20768145     0.00029146744
   6136000   0.049918965   -0.3187601      0.03531857    -0.20856792     0.00070426527
   6137000   0.050586639   -0.3187248      0.035475677   -0.20737406    -0.00045399292
   6138000   0.050411926   -0.31871715     0.035613412   -0.20749073     0.00053394644
   6139000   0.050186963   -0.31852845     0.035475168   -0.20777769     0.00012828582
   6140000   0.050326142   -0.31866894     0.035735102   -0.20744949     0.00069188006
   6141000   0.049599528   -0.31870914     0.036207983   -0.20810666    -9.9726272e-05
   6142000   0.050053032   -0.31922622     0.036456974   -0.20769454    -6.2296223e-05
   6143000   0.049857212   -0.31866723     0.036114143   -0.20777209     7.5230962e-05
   6144000   0.04992699    -0.3188409      0.036625345   -0.2073299      0.00038845715
   6145000   0.050237343   -0.31903892     0.035194881   -0.20849288     5.5211599e-05
   6146000   0.049874695   -0.31895432     0.035990472   -0.20815663     0.00091112849
   6147000   0.049877349   -0.31867251     0.036271522   -0.20758979    -0.00039837026
   6148000   0.05029313    -0.31870886     0.035490247   -0.20778379     0.00046700293
   6149000   0.04990362    -0.31857745     0.035727258   -0.20799959    -0.0004354634 
   6150000   0.049782637   -0.31902814     0.035656619   -0.20870239     0.00057038055
   6151000   0.049910716   -0.31891735     0.035912927   -0.20814318    -4.5940095e-05
   6152000   0.050162598   -0.31907152     0.036133435   -0.20769904    -0.00088102011
   6153000   0.050156544   -0.31907752     0.035469505   -0.20837805     0.00031432065
   6154000   0.049961776   -0.31872717     0.035899987   -0.20788935    -0.00019600952
   6155000   0.049692103   -0.31926072     0.035985416   -0.20874196     0.00088602434
   6156000   0.049691266   -0.31892691     0.035939447   -0.20845537     0.00040019394
   6157000   0.050144541   -0.31882599     0.035898831   -0.2077152     -0.00032586283
   6158000   0.050417687   -0.31874964     0.035431569   -0.20769642     8.574056e-05 
   6159000   0.049344989   -0.31876318     0.036023364   -0.20872711     7.65798e-06  
   6160000   0.049001404   -0.31877461     0.036207028   -0.20907022    -0.00059863215
   6161000   0.049745853   -0.31890854     0.035837142   -0.20845743     0.00017906097
   6162000   0.049965885   -0.31910417     0.035495683   -0.20866449     0.00063715917
   6163000   0.049855962   -0.31857977     0.03556012    -0.20824053     0.0010913044 
   6164000   0.050037703   -0.3187503      0.035559886   -0.2081387      0.00061820699
   6165000   0.049797993   -0.31885313     0.036057769   -0.20810319     0.00048564869
   6166000   0.049593485   -0.31862938     0.035877783   -0.20836617     0.00015125135
   6167000   0.049927712   -0.31852918     0.035892108   -0.20775034     0.00062655735
   6168000   0.050291809   -0.31926539     0.036247079   -0.20758547     0.00027370949
   6169000   0.049849781   -0.31924568     0.035867886   -0.20860795     0.00040919303
   6170000   0.049989298   -0.31870251     0.035594839   -0.20812857     0.00031234864
   6171000   0.049881033   -0.31878559     0.035414407   -0.20855446     0.00014622718
   6172000   0.050356387   -0.31889942     0.035527502   -0.20784221     0.00064835889
   6173000   0.05029332    -0.31900669     0.036153905   -0.20741768    -0.00022342329
   6174000   0.050264913   -0.31900887     0.036207998   -0.20740837    -0.0004276934 
   6175000   0.049437904   -0.31869509     0.035838646   -0.20870438    -0.00052556823
   6176000   0.049805718   -0.31876213     0.035174584   -0.20888379     6.9185773e-05
   6177000   0.049550658   -0.31886296     0.035743253   -0.20879851     0.00029014294
   6178000   0.049909089   -0.31888255     0.035470485   -0.20855326     0.00087656514
   6179000   0.049472797   -0.31881        0.035425761   -0.20917983     0.00056432911
   6180000   0.049972257   -0.31899705     0.035356558   -0.20868695     0.00016800124
   6181000   0.050397231   -0.31845774     0.03565948    -0.20720729    -0.0002809907 
   6182000   0.050062959   -0.31875494     0.035634223   -0.20803112    -8.4434057e-05
   6183000   0.04958548    -0.31895618     0.036380872   -0.20820188     0.00038050858
   6184000   0.049729631   -0.318663       0.035899612   -0.20817375    -7.2200508e-05
   6185000   0.050654188   -0.31900242     0.036293838   -0.2067322     -0.00015011374
   6186000   0.050348307   -0.31873866     0.035875185   -0.20734588     0.00073062019
   6187000   0.050294359   -0.31906027     0.036052593   -0.20757101     0.00012775836
   6188000   0.049617998   -0.31882969     0.036094556   -0.20831294    -0.00036675668
   6189000   0.049620457   -0.31871965     0.035737572   -0.20855619     0.00063229472
   6190000   0.049735672   -0.31891461     0.035501508   -0.2088144      0.00056857715
   6191000   0.050158471   -0.31881501     0.035987017   -0.20759514    -0.00065538064
   6192000   0.050767748   -0.31899928     0.036197338   -0.20665523    -8.6322328e-05
   6193000   0.05015106    -0.31858736     0.036344582   -0.20702104     0.00037133217
   6194000   0.050441338   -0.31903295     0.036120402   -0.20725542    -2.0113262e-05
   6195000   0.050064696   -0.31875087     0.036213197   -0.20744547    -0.0007080999 
   6196000   0.050160639   -0.31913738     0.036551851   -0.20734942    -0.00021350713
   6197000   0.049430287   -0.31914547     0.03568567    -0.20931915     0.00070113394
   6198000   0.04950442    -0.31915509     0.036148786   -0.20875446     0.00013665264
   6199000   0.050444426   -0.31913253     0.036253997   -0.20721678     0.00072431062
   6200000   0.050379926   -0.31893163     0.035973921   -0.2073927      0.00017611693
   6201000   0.050129271   -0.31882354     0.036208243   -0.20742624    -0.00075870862
   6202000   0.0495764     -0.31878294     0.035848764   -0.20857437    -0.0004270711 
   6203000   0.04968009    -0.31917136     0.036096014   -0.20856002    -0.00018874351
   6204000   0.049839909   -0.31895392     0.035100022   -0.20909886     0.00057444294
   6205000   0.049479722   -0.31913444     0.035636784   -0.20928286    -0.00043957607
   6206000   0.050008078   -0.31897161     0.035883398   -0.20808094     0.00039494039
   6207000   0.049910947   -0.31879419     0.03596886    -0.20796374     0.00031432817
   6208000   0.049961401   -0.31930289     0.037143341   -0.20722228    -0.00060333974
   6209000   0.050323879   -0.31893007     0.035653028   -0.2077961     -6.0460136e-05
   6210000   0.050261695   -0.31895244     0.035760947   -0.20780381    -0.00029623485
   6211000   0.0501114     -0.31880955     0.03614313    -0.20750417    -0.00040434483
   6212000   0.050582066   -0.31945395     0.035712015   -0.20787373    -0.00012256311
   6213000   0.049657591   -0.31901949     0.036513575   -0.20802433    -9.2989464e-05
   6214000   0.050092078   -0.31902624     0.03544937    -0.2084436      0.00011798331
   6215000   0.049939236   -0.31895821     0.036051254   -0.20800294     0.00065177341
   6216000   0.050217086   -0.31895002     0.035944922   -0.20768432     0.00015666017
   6217000   0.04965012    -0.31894795     0.035897055   -0.20858052     0.00047422778
   6218000   0.050283471   -0.31904081     0.035962909   -0.20765756    -7.1158425e-05
   6219000   0.050322136   -0.31907674     0.035558081   -0.20804032     0.00042238044
   6220000   0.049700961   -0.31905577     0.036113803   -0.20839533    -0.00039986303
   6221000   0.050064703   -0.31899372     0.036083912   -0.2078176      3.8164155e-05
   6222000   0.050287945   -0.31906676     0.036004453   -0.20763525     0.00028100349
   6223000   0.050109899   -0.31911519     0.036019705   -0.20793549    -3.1252278e-05
   6224000   0.05039525    -0.31923747     0.036077739   -0.20757173    -0.00030317501
   6225000   0.050092428   -0.31896216     0.035785921   -0.20804244     0.00020080303
   6226000   0.049679473   -0.31956466     0.036078358   -0.2089719      0.00044906285
   6227000   0.04996106    -0.31913679     0.036336139   -0.20786389    -0.00010994428
   6228000   0.050258532   -0.3188192      0.035656161   -0.2077801      0.00015734333
   6229000   0.049948606   -0.31925857     0.035928017   -0.20841248    -0.00048969785
   6230000   0.050128943   -0.31930134     0.036209825   -0.20790295     0.00069909049
   6231000   0.049383006   -0.31917168     0.035843937   -0.20925801    -9.3292128e-05
   6232000   0.049512659   -0.31922758     0.036234572   -0.20872881     0.0001151739 
   6233000   0.049814004   -0.31896803     0.035991038   -0.2082608      0.00031503668
   6234000   0.050242618   -0.31891193     0.035735697   -0.20781717    -0.00038108288
   6235000   0.049933063   -0.3193818      0.036157959   -0.20832908    -1.6294439e-05
   6236000   0.049523921   -0.3193999      0.035868167   -0.20925064    -0.00014857508
   6237000   0.050039078   -0.31985871     0.036248932   -0.208556      -3.2468603e-05
   6238000   0.05016719    -0.31964725     0.035970054   -0.20843126     0.00043227894
   6239000   0.050276337   -0.31944571     0.03578702    -0.20824905     0.00026442063
   6240000   0.049956158   -0.31895792     0.035817066   -0.20821145     0.00091550698
   6241000   0.050101692   -0.31926961     0.036351122   -0.2077708      0.0001636164 
   6242000   0.049882712   -0.31926047     0.035795135   -0.20864609     0.00081273403
   6243000   0.049893196   -0.31920413     0.035736022   -0.20863314     0.00091989291
   6244000   0.050322118   -0.31933407     0.035764279   -0.20809149     0.00033155295
   6245000   0.04973428    -0.31913804     0.035548231   -0.2089932     -0.00055264555
   6246000   0.049956134   -0.31954818     0.035364724   -0.20925409    -0.00072620762
   6247000   0.049846508   -0.31922741     0.036069081   -0.20839339     0.00085331859
   6248000   0.050061094   -0.31953977     0.035860053   -0.20859292     0.00023271936
   6249000   0.049757664   -0.31956343     0.03582132    -0.20911043     0.00058418726
   6250000   0.049552667   -0.31942116     0.036001871   -0.20909508    -2.3493428e-05
   6251000   0.050195228   -0.31985812     0.035911356   -0.20865878    -0.00065584938
   6252000   0.050229877   -0.31945214     0.035545486   -0.2085667      0.001007536  
   6253000   0.050095526   -0.31936776     0.035824326   -0.20840499     0.00053505253
   6254000   0.050039521   -0.31938279     0.036235267   -0.20809309     0.00083159199
   6255000   0.050466036   -0.31972673     0.036529107   -0.20750345    -0.00054370102
   6256000   0.050193569   -0.31938009     0.035696236   -0.20839836    -2.0622117e-05
   6257000   0.050582222   -0.31943812     0.035582386   -0.20798729     8.2916621e-05
   6258000   0.050017117   -0.31915088     0.036278144   -0.2078519     -0.00075512252
   6259000   0.050654835   -0.3196912      0.036215626   -0.20749822     0.00067696328
   6260000   0.04970674    -0.31944071     0.035607949   -0.20927747    -0.00021966183
   6261000   0.049972963   -0.31946838     0.036102203   -0.20841156     0.00023179298
   6262000   0.050405724   -0.31940431     0.03544814    -0.20835246    -0.00069734289
   6263000   0.049814829   -0.31990746     0.035750161   -0.20943988     0.00035550028
   6264000   0.049991045   -0.31996824     0.035919462   -0.20906705    -0.00079839382
   6265000   0.049555067   -0.31949383     0.03574679    -0.20941923     0.00052919843
   6266000   0.050443258   -0.3195291      0.035690867   -0.20817822     0.00035677695
   6267000   0.049798921   -0.31935825     0.035704534   -0.20896016     6.7107298e-05
   6268000   0.049565112   -0.32007261     0.036081182   -0.20964856    -5.3434353e-05
   6269000   0.04979227    -0.31946925     0.03527555    -0.20951011     0.00045651106
   6270000   0.049602375   -0.31975197     0.035145339   -0.21020787    -0.0001212129 
   6271000   0.049015114   -0.31952372     0.035601537   -0.21040426     0.00093194934
   6272000   0.049816254   -0.31976441     0.035460724   -0.20958413     0.00051697312
   6273000   0.050137226   -0.31998154     0.035918452   -0.2088621     -0.00060263891
   6274000   0.049907352   -0.31936414     0.036068229   -0.20843971    -0.00075558451
   6275000   0.050229695   -0.31930793     0.03609163    -0.20787662    -0.00020696782
   6276000   0.050362036   -0.31945081     0.035774031   -0.20813859     0.00077916019
   6277000   0.050462647   -0.31970358     0.036091066   -0.20792343    -0.00054420806
   6278000   0.050039792   -0.31959762     0.035628006   -0.20891477    -1.6334244e-06
   6279000   0.049442086   -0.31971285     0.03559184    -0.20996267     0.00051515117
   6280000   0.049724525   -0.31945398     0.035330863   -0.20954114    -0.00022148501
   6281000   0.050378158   -0.31983739     0.03597497    -0.20830006    -0.00106144   
   6282000   0.049572592   -0.31986697     0.035972544   -0.20954033    -0.00066633429
   6283000   0.049459415   -0.31974593     0.036014687   -0.2095469     -0.00046948257
   6284000   0.049696728   -0.31967969     0.036398857   -0.20874055    -0.00028694262
   6285000   0.049712281   -0.31999948     0.035523604   -0.20991227    -3.9764309e-05
   6286000   0.050490441   -0.31981937     0.035578992   -0.20850961     0.0018912585 
   6287000   0.049867378   -0.3194111      0.036287729   -0.20832713     0.00090189169
   6288000   0.049787251   -0.31963812     0.035755846   -0.20920622    -5.2729214e-05
   6289000   0.050437496   -0.31946603     0.035966885   -0.20784778    -0.00061391825
   6290000   0.049787446   -0.31966741     0.036131059   -0.20886        2.7248058e-05
   6291000   0.049800897   -0.32007756     0.036088377   -0.20929266    -0.00029674547
   6292000   0.049862946   -0.31996648     0.035891284   -0.2092856      0.0011277961 
   6293000   0.049553601   -0.31948064     0.03571099    -0.20944404     5.5569623e-06
   6294000   0.049449386   -0.31945902     0.035032133   -0.21025759     6.6072186e-05
   6295000   0.050028611   -0.31989483     0.035876959   -0.2089798      9.5955919e-05
   6296000   0.050361936   -0.31974677     0.035588981   -0.20861976     0.00067291467
   6297000   0.050024191   -0.31972588     0.036076516   -0.20861792    -0.00091000546
   6298000   0.050896973   -0.32008262     0.035691609   -0.20805047     0.00039142249
   6299000   0.049722669   -0.31994544     0.036267522   -0.20909872    -0.00044207394
   6300000   0.050289808   -0.31965673     0.035816508   -0.20841037    -0.00028444156
   6301000   0.049979756   -0.31937937     0.035444304   -0.20897026     0.00021117509
   6302000   0.050345617   -0.32021022     0.036395163   -0.20830151     8.8116136e-05
   6303000   0.049768454   -0.32013273     0.035735108   -0.20974976     0.00088748426
   6304000   0.050006487   -0.31998804     0.036220842   -0.20876231    -0.0004916174 
   6305000   0.050029452   -0.32026406     0.035716067   -0.20950866     0.0014391143 
   6306000   0.049542945   -0.32005772     0.036035992   -0.2097121      0.0012806793 
   6307000   0.049512727   -0.31987505     0.036454499   -0.20915625    -0.0007304739 
   6308000   0.050458016   -0.32011057     0.03605013    -0.2083783     -5.4488343e-05
   6309000   0.049715786   -0.3195685      0.035695159   -0.20930447     0.0010952094 
   6310000   0.049900158   -0.32014611     0.035394985   -0.20990572     0.0012956555 
   6311000   0.049503096   -0.31956766     0.035872719   -0.20944509    -0.00044012037
   6312000   0.049396974   -0.31997794     0.034937968   -0.21094929     0.00038112225
   6313000   0.049396679   -0.3201389      0.035805083   -0.21024358    -0.00032191067
   6314000   0.049994822   -0.32009079     0.035455221   -0.20964818     0.00030156188
   6315000   0.049675692   -0.3202918      0.035506855   -0.21027621     5.9150939e-05
   6316000   0.050236876   -0.31986571     0.035308809   -0.20920645     0.00051759244
   6317000   0.050230898   -0.32016534     0.035585905   -0.20923795     0.00055521218
   6318000   0.049651378   -0.31991508     0.035418824   -0.210024       0.00010829368
   6319000   0.049665147   -0.31983315     0.035886691   -0.20945354    -0.00024256527
   6320000   0.050308598   -0.3200824      0.036049307   -0.20857507    -0.00075132615
   6321000   0.050132392   -0.31978699     0.03633982    -0.20825344     0.00028574042
   6322000   0.050259638   -0.32001351     0.03605905    -0.20856987    -0.0010067703 
   6323000   0.050025077   -0.31984435     0.035884678   -0.20892689     0.00063962469
   6324000   0.049814426   -0.31994916     0.035704203   -0.20952814    -0.00029759632
   6325000   0.049926719   -0.32004141     0.035902032   -0.20925413    -0.00042952058
   6326000   0.050222133   -0.31992215     0.03585255    -0.20874126    -0.00014765586
   6327000   0.050249084   -0.32003213     0.035957555   -0.20870581    -0.00019885196
   6328000   0.050476072   -0.3199666      0.03556074    -0.20869664     2.7396125e-05
   6329000   0.050536318   -0.31995063     0.036411475   -0.20773957    -0.00018310308
   6330000   0.050713804   -0.31997946     0.036265921   -0.20764774     0.00070025602
   6331000   0.050264133   -0.31996217     0.035862127   -0.20870871    -0.00075858073
   6332000   0.050515838   -0.31999928     0.036569565   -0.20766085    -9.6604127e-05
   6333000   0.050412285   -0.31956237     0.035688734   -0.20826009    -0.00028053734
   6334000   0.050023214   -0.32031688     0.036818779   -0.20846812    -0.00046578356
   6335000   0.050343324   -0.3200532      0.036166198   -0.20837689    -0.00075226795
   6336000   0.050239339   -0.32001473     0.03634562    -0.20831496    -0.0002443423 
   6337000   0.050127727   -0.32025893     0.035880603   -0.20919159     0.00048841414
   6338000   0.049678592   -0.32001578     0.035896593   -0.2096061      0.00057589373
   6339000   0.049782157   -0.32017466     0.035964881   -0.20954136    -0.00021083739
   6340000   0.050221071   -0.31997889     0.035583727   -0.20906842     0.00059622012
   6341000   0.049996646   -0.31995086     0.036595927   -0.2083648     -0.00061492639
   6342000   0.050062711   -0.31991702     0.036235081   -0.20859272    -0.00026316635
   6343000   0.049867976   -0.31978647     0.035973468   -0.20901586     7.7986329e-05
   6344000   0.050343648   -0.3204957      0.036510697   -0.2084744      0.00015684438
   6345000   0.050038621   -0.31974762     0.035882257   -0.20881227    -0.0004263977 
   6346000   0.049822562   -0.31984972     0.035819232   -0.20930146     0.00079698616
   6347000   0.050104397   -0.32004221     0.035602625   -0.20928784     0.00071255981
   6348000   0.050199188   -0.32012874     0.036025505   -0.20880931    -0.00018957771
   6349000   0.049905935   -0.32004485     0.036198457   -0.20899232    -0.00090421944
   6350000   0.049637159   -0.31988375     0.036771765   -0.20866105    -0.00049098864
   6351000   0.04925008    -0.32009815     0.036150137   -0.21007766    -6.4869536e-05
   6352000   0.05008111    -0.32013035     0.035174667   -0.20983886     0.00034307713
   6353000   0.050404302   -0.31977798     0.036421383   -0.20775503    -0.00081824462
   6354000   0.049928182   -0.31990391     0.035672762   -0.2093437      0.00022466944
   6355000   0.049809799   -0.32008644     0.036308261   -0.2090683      0.00012041006
   6356000   0.049498738   -0.3200211      0.036075816   -0.20970196    -0.00058454329
   6357000   0.04991683    -0.31957455     0.035696624   -0.20900752    -0.00022999752
   6358000   0.050135385   -0.32064193     0.036094143   -0.20934956    -0.0007044744 
   6359000   0.049927462   -0.32003588     0.036075261   -0.20907426     0.00073726273
   6360000   0.0499525     -0.31999832     0.036055749   -0.20901866    -0.00050116102
   6361000   0.049935728   -0.31984782     0.035998332   -0.20895073    -0.00031764419
   6362000   0.049694307   -0.31976239     0.035669118   -0.20955662     0.00063767166
   6363000   0.050106828   -0.31979043     0.035669366   -0.20896567    -0.00022802522
   6364000   0.050123979   -0.31969807     0.035975933   -0.20854102     0.00023857074
   6365000   0.050154198   -0.32027766     0.036399229   -0.20865199     0.00038686152
   6366000   0.050234442   -0.32014551     0.035493071   -0.20930563     0.0010158122 
   6367000   0.050633928   -0.31994157     0.035836297   -0.20815928    -0.00060849128
   6368000   0.050421527   -0.31954309     0.035823793   -0.20809188     0.0005557541 
   6369000   0.050347373   -0.32016849     0.035534894   -0.20911741    -0.00060061573
   6370000   0.050494246   -0.3200038      0.035890913   -0.2083764     -0.00098362961
   6371000   0.05054202    -0.31998547     0.035755503   -0.20842183    -0.0013044745 
   6372000   0.050498923   -0.32018579     0.035971189   -0.20847111     7.4158186e-05
   6373000   0.049705021   -0.31993604     0.035860728   -0.20952259    -3.7376414e-05
   6374000   0.050142616   -0.3205559      0.036049112   -0.20929771    -0.0006829719 
   6375000   0.049627037   -0.32051781     0.035600038   -0.21048202    -0.00023874088
   6376000   0.049585808   -0.32031447     0.035260215   -0.21068034    -0.0002239488 
   6377000   0.049690399   -0.32013106     0.036467491   -0.20913278    -0.00089656371
   6378000   0.049888798   -0.32035166     0.035649352   -0.20987394     1.6084151e-05
   6379000   0.04980585    -0.32004614     0.03620776    -0.20913442    -0.00018431936
   6380000   0.050017201   -0.31993006     0.036073865   -0.20883523     0.0002605849 
   6381000   0.049871105   -0.31999337     0.035517486   -0.20967405     3.5119994e-05
   6382000   0.050422058   -0.32003277     0.035635495   -0.20876906     0.00051743026
   6383000   0.050306401   -0.32018752     0.036313323   -0.20841947    -0.00015183387
   6384000   0.049632379   -0.32009403     0.035979291   -0.20967097     0.00089277871
   6385000   0.050088623   -0.32018047     0.035872109   -0.20918027     0.00060449626
   6386000   0.049793587   -0.32003885     0.035981973   -0.20937132    -0.00029650465
   6387000   0.04948269    -0.3202179      0.03592396    -0.2100747     -0.00078657015
   6388000   0.049496118   -0.32042803     0.036118604   -0.21007004     0.00094543683
   6389000   0.049704122   -0.32002009     0.035381468   -0.21008725    -2.7799276e-05
   6390000   0.049829835   -0.32015327     0.035567737   -0.2098456      0.00069351844
   6391000   0.050068537   -0.32006624     0.035313297   -0.20965498     0.00091002565
   6392000   0.050234384   -0.32027602     0.036557392   -0.20837192    -0.00039408979
   6393000   0.050411755   -0.32006554     0.035976342   -0.20847645     0.00015387697
   6394000   0.050107856   -0.32063408     0.036087052   -0.20939009    -0.00055357685
   6395000   0.050469624   -0.31965509     0.036255037   -0.20770051     0.00018821538
   6396000   0.050575476   -0.31962354     0.036167773   -0.20759745     0.0002810185 
   6397000   0.049931565   -0.32018502     0.035416999   -0.20987551    -0.00031763434
   6398000   0.049697733   -0.32042658     0.036055476   -0.20982931     5.4664923e-05
   6399000   0.050304107   -0.32008406     0.036192714   -0.20844005     0.00058369324
   6400000   0.050311224   -0.32027173     0.035501065   -0.20930869     0.00023007479
   6401000   0.050353275   -0.32021166     0.035746488   -0.20894014    -0.00060552513
   6402000   0.050114311   -0.32010379     0.03647981    -0.20845736     0.00035129489
   6403000   0.050067754   -0.32019744     0.03597755    -0.20912311     0.00031943769
   6404000   0.049876908   -0.31999119     0.035162594   -0.21001806     0.0005570364 
   6405000   0.049809048   -0.32007269     0.035979604   -0.20938433     0.00026543917
   6406000   0.050292692   -0.3202218      0.035949085   -0.20883854     0.00020809515
   6407000   0.050397277   -0.3201322      0.035780924   -0.20876024    -0.00040756295
   6408000   0.050063752   -0.31999865     0.035908547   -0.20899932    -0.00030814071
   6409000   0.049706402   -0.32052121     0.036131096   -0.20983532     0.00063090419
   6410000   0.049480663   -0.32005395     0.036129078   -0.20970867     0.0014336968 
   6411000   0.049467457   -0.31979904     0.035448126   -0.21015451     0.00079504393
   6412000   0.049681211   -0.31968827     0.035736715   -0.20943455    -0.0004377693 
   6413000   0.049956185   -0.31992884     0.036342503   -0.20865689     2.9251228e-05
   6414000   0.050581523   -0.32035894     0.036242185   -0.20824937    -0.00020649042
   6415000   0.05041638    -0.32064661     0.035974769   -0.20905215    -0.0001834367 
   6416000   0.049901226   -0.32005248     0.036274197   -0.20893127    -3.1494214e-05
   6417000   0.050199527   -0.32037056     0.036040188   -0.20903594     0.00018283486
   6418000   0.049839387   -0.32036294     0.036043208   -0.20956548    -0.00048289026
   6419000   0.049991959   -0.32019129     0.036051953   -0.20915624    -0.00043073885
   6420000   0.049815345   -0.32008553     0.035456899   -0.20991043     0.0002747941 
   6421000   0.049778748   -0.3199333      0.036270366   -0.20899963     0.0013397471 
   6422000   0.050663363   -0.31985129     0.036043632   -0.20781751    -0.00016524716
   6423000   0.050061034   -0.32008132     0.036018578   -0.20897604     0.0005044831 
   6424000   0.049894699   -0.32007674     0.035380616   -0.2098589      0.00058305988
   6425000   0.049511042   -0.31986301     0.035368584   -0.21023265     0.00070942078
   6426000   0.049749187   -0.32023299     0.035489466   -0.21012456     0.0012255942 
   6427000   0.049772175   -0.32041185     0.035553308   -0.2102051      0.00010087752
   6428000   0.04970613    -0.32028105     0.036288275   -0.20943839    -1.2444586e-05
   6429000   0.050058622   -0.32046567     0.035086428   -0.21029616     0.00040703877
   6430000   0.049781501   -0.32053928     0.03544961    -0.21042224    -0.00038506336
   6431000   0.049854592   -0.32028879     0.035519918   -0.20999181     0.00038481842
   6432000   0.049557164   -0.32054236     0.035944359   -0.21026705     6.2550324e-05
   6433000   0.049773594   -0.32006611     0.035942989   -0.20946754     0.00072241478
   6434000   0.049886115   -0.32027864     0.035896793   -0.2095575      0.00014568809
   6435000   0.049943706   -0.31999168     0.036602188   -0.20847877     0.00029515611
   6436000   0.050182981   -0.320315       0.035365692   -0.20967969     0.00087456078
   6437000   0.04935106    -0.32015218     0.035561943   -0.21056842     0.00053610067
   6438000   0.049504468   -0.32018705     0.035831522   -0.21010361    -0.00038341761
   6439000   0.049536667   -0.32079795     0.036059555   -0.21043819     0.00023285276
   6440000   0.050605022   -0.32019034     0.035378677   -0.20890902     0.00040563407
   6441000   0.050199123   -0.32041711     0.035997129   -0.20912616    -0.00011413819
   6442000   0.050090652   -0.32021682     0.036065982   -0.2090197      0.00013830933
   6443000   0.050429629   -0.32009944     0.035825061   -0.20863482     0.00022713847
   6444000   0.050372746   -0.32043378     0.035859254   -0.20902028     0.00011835095
   6445000   0.050387998   -0.32022395     0.036337616   -0.20830921    -0.00040113879
   6446000   0.050430426   -0.31965798     0.035919922   -0.2080973      0.00045983615
   6447000   0.050136371   -0.32006508     0.035735889   -0.20912949    -0.00042988704
   6448000   0.050511437   -0.32020956     0.036025025   -0.20842227    -0.00031887251
   6449000   0.049837349   -0.32060889     0.035691737   -0.21016595     0.00045507339
   6450000   0.049965585   -0.32087285     0.035438063   -0.21049124    -3.8738255e-05
   6451000   0.049796016   -0.32030063     0.035925495   -0.20968593    -3.821424e-05 
   6452000   0.049993081   -0.32057182     0.035527535   -0.2100595     -0.00061918252
   6453000   0.049508758   -0.32063034     0.035894811   -0.21047719     0.00074175059
   6454000   0.050486669   -0.32013485     0.035751662   -0.20865807     0.00087782634
   6455000   0.049958991   -0.32056753     0.036084501   -0.20954938    -0.00036799883
   6456000   0.049776522   -0.32044903     0.035621217   -0.21016785    -0.0002744871 
   6457000   0.049893656   -0.3201053      0.036062916   -0.20920672     0.00048028197
   6458000   0.050111601   -0.32047837     0.035458737   -0.20985708     0.00045532015
   6459000   0.049952176   -0.32023701     0.035080586   -0.21023299     0.00018031935
   6460000   0.049560999   -0.3199811      0.036185854   -0.20945854     0.00050895845
   6461000   0.049275194   -0.32035756     0.035645793   -0.21080374    -0.00055447231
   6462000   0.050176294   -0.32049742     0.035559468   -0.20967837     0.00068805265
   6463000   0.049923686   -0.32032224     0.035498325   -0.20994322     0.00015538797
   6464000   0.050490671   -0.32056699     0.035757472   -0.2090784      0.00079974126
   6465000   0.04956822    -0.32015973     0.035818882   -0.20999332     0.0011988174 
   6466000   0.05017301    -0.32025268     0.035692633   -0.20930539     0.00088170131
   6467000   0.04970181    -0.32059266     0.035707382   -0.21033737    -8.0231431e-05
   6468000   0.050184094   -0.32043848     0.035297973   -0.20986922     0.0011405471 
   6469000   0.049840369   -0.32052727     0.035748668   -0.21002287     0.00089600393
   6470000   0.05050213    -0.32076834     0.03535627    -0.20966376     0.00083888816
   6471000   0.049928008   -0.32062423     0.035928719   -0.20980833     0.0002185685 
   6472000   0.050227431   -0.32049683     0.036142264   -0.20901828    -0.0007283734 
   6473000   0.050226402   -0.31997699     0.036205488   -0.20843676    -9.6107985e-05
   6474000   0.049385629   -0.32047917     0.036707885   -0.20969762     0.00041025522
   6475000   0.049910146   -0.32054067     0.035558476   -0.21012181     0.00040810681
   6476000   0.050460848   -0.32086131     0.036469788   -0.20870513    -0.00022422772
   6477000   0.05001206    -0.32094281     0.036316327   -0.20961323    -0.00072360093
   6478000   0.050121217   -0.32065364     0.036589715   -0.20888695    -0.00049816895
   6479000   0.050332484   -0.32075415     0.035969778   -0.20929052     3.9448906e-05
   6480000   0.050219453   -0.32040044     0.035621818   -0.2094543      0.00029242323
   6481000   0.049970333   -0.32084181     0.03542372    -0.21046743     0.00034966693
   6482000   0.049552278   -0.32069109     0.036211049   -0.21015642     8.7849091e-05
   6483000   0.050009899   -0.32035536     0.035285325   -0.21006002     0.00083607283
   6484000   0.049863955   -0.32094801     0.035571211   -0.21058569    -0.00020579145
   6485000   0.049879322   -0.32079332     0.035733582   -0.21024559     0.00068466628
   6486000   0.050084162   -0.32049964     0.036486787   -0.20889145     0.00051416566
   6487000   0.049757445   -0.32088964     0.036464715   -0.20979357     0.00011731545
   6488000   0.050304417   -0.32085729     0.03588515    -0.20952039     0.00081752541
   6489000   0.05005979    -0.32089015     0.035988995   -0.20981631    -3.6477894e-05
   6490000   0.050376769   -0.32046415     0.036469828   -0.20843404    -0.00041712124
   6491000   0.050302911   -0.32072278     0.036335502   -0.20893778     0.00092573113
   6492000   0.050218872   -0.32091365     0.035876168   -0.20971404    -0.00058114874
   6493000   0.049946091   -0.32093239     0.036246162   -0.20977193    -0.00074401873
   6494000   0.049999006   -0.32057919     0.035949011   -0.20963651     5.7409035e-07
   6495000   0.049480017   -0.32062665     0.036259122   -0.21015229     0.00010141211
   6496000   0.049836081   -0.3207464      0.036171302   -0.2098258      0.00037871558
   6497000   0.049618479   -0.32110878     0.036499879   -0.21018598    -4.7764586e-05
   6498000   0.049793078   -0.32062183     0.035782964   -0.21015407     0.00047525764
   6499000   0.049986961   -0.32091565     0.035934616   -0.21000543     0.00042081587
   6500000   0.04998308    -0.32080092     0.036565384   -0.20926575    -0.00027053737
   6501000   0.049860318   -0.32076705     0.035900247   -0.21008115     2.7921791e-05
   6502000   0.050162384   -0.32064768     0.036019523   -0.20938943     0.00065305688
   6503000   0.049576043   -0.32083398     0.035917682   -0.21055703     0.0010404432 
   6504000   0.05024927    -0.32100225     0.035932351   -0.20970085     0.00054730467
   6505000   0.050163421   -0.32067607     0.036202366   -0.20923343    -2.6718649e-05
   6506000   0.050171717   -0.32078632     0.036454241   -0.20907936     0.0012071248 
   6507000   0.049876078   -0.32064533     0.036071812   -0.20976423     0.00034045297
   6508000   0.050341982   -0.32064566     0.035629035   -0.20950853     0.00036868236
   6509000   0.050436091   -0.32086121     0.035465755   -0.2097462      0.0006976932 
   6510000   0.050409308   -0.32078659     0.035925903   -0.2092516     -0.00012596209
   6511000   0.050615609   -0.32046081     0.036127537   -0.20841476    -0.00013830867
   6512000   0.049906898   -0.32083445     0.035976159   -0.21000277     0.0012619577 
   6513000   0.049863935   -0.32118792     0.036057079   -0.21033976     0.0010508981 
   6514000   0.04968905    -0.32108217     0.036008607   -0.2105448     -0.00051190376
   6515000   0.049871539   -0.32128381     0.035831636   -0.21064969    -0.00041202651
   6516000   0.049900087   -0.32110317     0.03603814    -0.21021973    -0.00033980778
   6517000   0.049973274   -0.32115641     0.036052966   -0.21014836    -0.00073751794
   6518000   0.049938396   -0.32073464     0.035883682   -0.2099482     -0.0001409064 
   6519000   0.049700784   -0.32095578     0.036294399   -0.21011501     0.0001606691 
   6520000   0.049761832   -0.32082838     0.036089162   -0.21010129     5.0390017e-05
   6521000   0.04961466    -0.32050736     0.035374938   -0.21071523     0.0011796583 
   6522000   0.049461655   -0.32079076     0.03617799    -0.21042508     0.00019602675
   6523000   0.050262897   -0.3209045      0.035785987   -0.20972904    -0.00029287056
   6524000   0.050067027   -0.32101234     0.035911465   -0.21000518    -0.00018521463
   6525000   0.050328014   -0.32077057     0.035568716   -0.2097147      0.00028654947
   6526000   0.050186731   -0.3210057      0.03571349    -0.21001697    -0.00010592551
   6527000   0.049472997   -0.32118593     0.035767377   -0.21121384    -2.701036e-05 
   6528000   0.049193492   -0.32123943     0.035579732   -0.21187422     0.00083770928
   6529000   0.049737252   -0.32097773     0.035754714   -0.21062195     0.00049851275
   6530000   0.049922431   -0.32100806     0.035607281   -0.21052196    -0.00041497155
   6531000   0.050160491   -0.32110978     0.036218428   -0.20965547    -0.00046597145
   6532000   0.050027591   -0.32124694     0.036173794   -0.2100366     -3.6703506e-05
   6533000   0.050580869   -0.32178328     0.036422079   -0.2094948     -0.00051310044
   6534000   0.049778085   -0.32113904     0.035701665   -0.21077506    -0.00028065642
   6535000   0.049926717   -0.32146468     0.03647084    -0.2101086     -0.00067778342
   6536000   0.049637775   -0.32111124     0.035957127   -0.21070225     0.0010946889 
   6537000   0.049775574   -0.32101436     0.035484819   -0.210871       0.00021071383
   6538000   0.049905048   -0.32146181     0.036267285   -0.21034178    -0.00070074793
   6539000   0.050249467   -0.32081579     0.035343264   -0.21010319    -0.00030187924
   6540000   0.050401411   -0.3209975      0.035652535   -0.20974773     0.00026258435
   6541000   0.049957185   -0.32107318     0.035564349   -0.21057789     0.0006104048 
   6542000   0.04974951    -0.32136247     0.035971138   -0.21077188     0.00040423363
   6543000   0.049576001   -0.32138529     0.035854367   -0.21117172    -0.0015681675 
   6544000   0.049677714   -0.32109948     0.035897227   -0.21069049     0.00039573659
   6545000   0.049395295   -0.32148625     0.035561337   -0.21183675    -6.213434e-05 
   6546000   0.049720451   -0.32088497     0.035719206   -0.2105899     -0.00061772625
   6547000   0.050419626   -0.3209304      0.035568823   -0.20973701     0.00061902883
   6548000   0.049576073   -0.32124226     0.036010764   -0.21087218    -0.00087656266
   6549000   0.050556814   -0.32079885     0.036335174   -0.20863334     0.00025350984
   6550000   0.050182781   -0.32080253     0.03606819    -0.20946502     0.00049360837
   6551000   0.049816302   -0.32109706     0.03629379    -0.21008364     0.00023448579
   6552000   0.050051686   -0.32098725     0.035841949   -0.21007262    -0.00066186781
   6553000   0.050075549   -0.32116876     0.036432684   -0.2096276     -0.00045894672
   6554000   0.050029814   -0.32088433     0.035826403   -0.21001805     2.0615012e-05
   6555000   0.049931427   -0.32107174     0.036134453   -0.21004498    -0.00056784582
   6556000   0.050585173   -0.32087588     0.036006247   -0.20899677     0.00040315899
   6557000   0.050142901   -0.32098323     0.036130434   -0.2096433      0.00086417441
   6558000   0.050198431   -0.32109913     0.036024696   -0.20978165     0.0007088999 
   6559000   0.050626748   -0.32117263     0.035742261   -0.20949515     0.00059149417
   6560000   0.050332619   -0.32078296     0.036043896   -0.20924501     0.0010280014 
   6561000   0.050278637   -0.32103445     0.035682681   -0.20993868     0.00076803768
   6562000   0.050172089   -0.32116765     0.035907318   -0.21000705    -0.00017640231
   6563000   0.050149015   -0.32077445     0.035725257   -0.20983053     0.00075040794
   6564000   0.049359484   -0.32099209     0.035674239   -0.2112834      0.0001314113 
   6565000   0.050028013   -0.32068361     0.03571633    -0.20993011     0.00016115213
   6566000   0.050545627   -0.32110061     0.036039737   -0.20924732     0.00016265924
   6567000   0.049554123   -0.3214016      0.036054899   -0.21102031     0.00013165546
   6568000   0.050251213   -0.32141365     0.036087024   -0.20995467     0.00073479176
   6569000   0.050779725   -0.32134064     0.036204076   -0.20897189     0.00049220694
   6570000   0.049897947   -0.32077281     0.036203428   -0.20972729     0.00040165759
   6571000   0.050388423   -0.32095999     0.035773883   -0.20960834    -0.00015403626
   6572000   0.049992013   -0.32148888     0.035730619   -0.21077507     0.00059166655
   6573000   0.049699969   -0.32118125     0.036254645   -0.21038146    -5.4022224e-05
   6574000   0.049854936   -0.32116307     0.035639504   -0.21074599     0.00034350191
   6575000   0.049311991   -0.32133484     0.035864902   -0.21150672     0.00018051378
   6576000   0.05044457    -0.3209191      0.035880482   -0.20937664    -0.00024050279
   6577000   0.049639005   -0.32122505     0.035987403   -0.21078394    -0.00015047104
   6578000   0.049666739   -0.32110757     0.035695334   -0.21091694    -9.2285128e-05
   6579000   0.049582203   -0.32133233     0.035611505   -0.21135232    -0.00065308641
   6580000   0.049749337   -0.32101301     0.036223452   -0.21017037     0.00012488495
   6581000   0.049234818   -0.32093757     0.036158307   -0.2109318      0.00019861287
   6582000   0.049692995   -0.32126219     0.036279676   -0.21044783     0.00031831746
   6583000   0.050786858   -0.32106186     0.035990759   -0.20889573     0.00078031266
   6584000   0.05002768    -0.32107925     0.035910399   -0.21013218    -0.00010998584
   6585000   0.050430327   -0.32109288     0.036066142   -0.20938612    -0.0008868057 
   6586000   0.050401595   -0.32093215     0.03597965    -0.20935499     0.00065683681
   6587000   0.050205425   -0.32114303     0.036466721   -0.20937303     1.4543058e-05
   6588000   0.050069963   -0.32106551     0.035527952   -0.21043746     0.00052179961
   6589000   0.049987241   -0.32130816     0.035874209   -0.21045793    -0.00044821324
   6590000   0.049832652   -0.32121027     0.035911711   -0.2105544      0.00033272024
   6591000   0.05028288    -0.32134325     0.035171914   -0.21075188    -0.00020211671
   6592000   0.049722204   -0.32090512     0.035756067   -0.21057056     0.00084205311
   6593000   0.04995784    -0.32101759     0.035592314   -0.21049335     0.00062249028
   6594000   0.050205074   -0.32117844     0.03553263    -0.21034306    -6.0722676e-05
   6595000   0.050007564   -0.32116507     0.035312152   -0.21084641     0.0012957976 
   6596000   0.049494726   -0.32090218     0.035837206   -0.21082768    -1.3103397e-05
   6597000   0.04954613    -0.32193115     0.0363143     -0.21130245    -0.00053840348
   6598000   0.050228664   -0.32189192     0.035725619   -0.21082817    -0.00071238768
   6599000   0.04975899    -0.32096962     0.035736158   -0.2105998     -0.00044406965
   6600000   0.049527999   -0.32107681     0.036126331   -0.21066327    -0.00036674712
   6601000   0.049345422   -0.32151029     0.036684566   -0.21081236    -3.3926997e-05
   6602000   0.049785516   -0.32148968     0.035731198   -0.21108502     0.0002115322 
   6603000   0.049876888   -0.3217733      0.035226553   -0.21173624    -0.0003738375 
   6604000   0.049577515   -0.32147708     0.035264127   -0.21185148    -0.00022961703
   6605000   0.049711664   -0.32143333     0.036129872   -0.21074077     8.3795769e-05
   6606000   0.0498977     -0.32119841     0.03567956    -0.21067713     0.00016051139
   6607000   0.04974897    -0.32137621     0.035564319   -0.21119325    -6.7095646e-05
   6608000   0.050727249   -0.32124915     0.035594317   -0.20956887     0.00031434018
   6609000   0.050123002   -0.32138657     0.036446427   -0.20976049     0.00058670502
   6610000   0.050374056   -0.321176       0.035881337   -0.20973845     3.5978883e-05
   6611000   0.05012726    -0.32112919     0.036477214   -0.20946593    -0.00089696261
   6612000   0.050079676   -0.32148105     0.035838783   -0.2105276      0.00051786046
   6613000   0.049794208   -0.32131643     0.035517806   -0.21111213     5.340134e-05 
   6614000   0.049129981   -0.32144022     0.035415445   -0.21233456     0.0003967129 
   6615000   0.04961895    -0.3211609      0.035714112   -0.21102316    -0.0005340249 
   6616000   0.049457016   -0.32128634     0.035110934   -0.21199467     0.0013616417 
   6617000   0.049724462   -0.32112023     0.036359582   -0.21017877    -0.00039921578
   6618000   0.049806683   -0.32130591     0.036484268   -0.21011644    -0.0010801284 
   6619000   0.050052526   -0.32162636     0.036047789   -0.21050462     0.00057601031
   6620000   0.0499243     -0.32138876     0.035310762   -0.21119638     0.00060685907
   6621000   0.049821279   -0.32141842     0.035794373   -0.21089694     0.00021049864
   6622000   0.050044761   -0.32164633     0.035712817   -0.21087121     0.00084551812
   6623000   0.049997704   -0.32137839     0.036257208   -0.21012947     0.00079841948
   6624000   0.05030895    -0.3215545      0.036589779   -0.20950617     0.00068482252
   6625000   0.050102981   -0.32141105     0.035957398   -0.21030403     9.5831587e-05
   6626000   0.050298844   -0.32117311     0.036381421   -0.20934829     0.00030257687
   6627000   0.049734872   -0.32115091     0.036153468   -0.21039995    -0.00012031675
   6628000   0.050079663   -0.32134564     0.036098214   -0.21013277     0.00057932634
   6629000   0.050139127   -0.32158366     0.036324178   -0.21005564     0.0004624659 
   6630000   0.050118919   -0.32165338     0.035649      -0.21083085    -0.00075580348
   6631000   0.049787416   -0.32149058     0.036702523   -0.21011175    -0.00095209383
   6632000   0.049878664   -0.32163317     0.036398314   -0.21042168    -0.0001029114 
   6633000   0.050723909   -0.32146315     0.035732981   -0.20964922    -0.00020080654
   6634000   0.050131667   -0.32134651     0.035868872   -0.21028499    -0.00023125304
   6635000   0.050217345   -0.32132266     0.03547174    -0.21052976     0.00079629837
   6636000   0.050107079   -0.32148743     0.035624737   -0.21070693     0.00084336679
   6637000   0.049911594   -0.32168624     0.035692429   -0.21113125     0.00018640348
   6638000   0.050152492   -0.32181745     0.035899093   -0.21069447     0.00020755273
   6639000   0.049812835   -0.32146855     0.03575738    -0.21099673     0.00013639569
   6640000   0.050195763   -0.32184557     0.035237833   -0.21131895     0.00087970705
   6641000   0.050058275   -0.32191999     0.03597969    -0.21085773    -0.00010714182
   6642000   0.050101727   -0.32131532     0.035474289   -0.21069329     0.00039168828
   6643000   0.049547133   -0.32123291     0.035360219   -0.21155678    -0.001027129  
   6644000   0.050294994   -0.3220102      0.03613275    -0.21043982     0.00048414658
   6645000   0.049332416   -0.32184675     0.035856509   -0.21199639    -0.0002133871 
   6646000   0.049871007   -0.32135642     0.035894037   -0.2106607      0.00052705383
   6647000   0.049705638   -0.32130391     0.035423298   -0.21132696    -0.00018563933
   6648000   0.04951614    -0.32175006     0.035794396   -0.21168624     0.00013823135
   6649000   0.050202356   -0.32145131     0.035584378   -0.21056825    -0.0004582349 
   6650000   0.049779939   -0.3216402      0.036083308   -0.2108918     -0.00090814811
   6651000   0.050016341   -0.32197245     0.035722257   -0.21123052    -0.00062337549
   6652000   0.049996219   -0.32130485     0.036079871   -0.21023549     0.00040295453
   6653000   0.05022983    -0.32140344     0.03614319    -0.20992037     0.000620367  
   6654000   0.050613371   -0.32117977     0.035485091   -0.20977952     0.001145261  
   6655000   0.049816445   -0.32156729     0.035750231   -0.21109721    -0.00056657731
   6656000   0.049652723   -0.32127885     0.036196818   -0.21060775     0.00033550334
   6657000   0.049955323   -0.32177029     0.03620166    -0.21064048     0.00011745612
   6658000   0.050553075   -0.32125556     0.036123679   -0.20930716     0.00038686532
   6659000   0.050464232   -0.32124213     0.036274301   -0.20927637     0.000112322  
   6660000   0.050150547   -0.32127678     0.036137132   -0.20991868     0.00012751142
   6661000   0.050001233   -0.32141427     0.036006594   -0.21041066     1.5645977e-05
   6662000   0.050211687   -0.32157655     0.036010604   -0.21025328     0.00041521945
   6663000   0.04981483    -0.32145026     0.035397589   -0.21133525     0.00088508625
   6664000   0.050023123   -0.32114905     0.035969758   -0.21014945     0.00068166765
   6665000   0.050137086   -0.3212434      0.036014825   -0.2100278     -0.00037843995
   6666000   0.050144176   -0.32128302     0.035959637   -0.21011197     0.00060566111
   6667000   0.049773933   -0.32176012     0.035762849   -0.21134119     0.00071473603
   6668000   0.050019392   -0.32161777     0.035926545   -0.21066698     0.00015277464
   6669000   0.050185172   -0.32127833     0.035899888   -0.21010554     0.00042858112
   6670000   0.04976331    -0.32134527     0.035752495   -0.21095262     0.00062478429
   6671000   0.04981801    -0.32213899     0.035555847   -0.21186095    -0.00050100692
   6672000   0.049686899   -0.32185496     0.035908351   -0.21142107    -0.00039794269
   6673000   0.04966229    -0.32163861     0.036361964   -0.21078801     2.0548712e-05
   6674000   0.050076428   -0.32139531     0.036187015   -0.2100985      0.00057602346
   6675000   0.050117495   -0.32134405     0.03588372    -0.21028894     0.00086959349
   6676000   0.050106828   -0.32152123     0.035893607   -0.21047223    -0.00039144423
   6677000   0.049805715   -0.32149647     0.035702765   -0.21108995    -0.00063390257
   6678000   0.049706648   -0.32146411     0.036345981   -0.21056297     0.00053990839
   6679000   0.050297286   -0.32166332     0.035836604   -0.21038565     0.00013181946
   6680000   0.049909685   -0.32148801     0.036782413   -0.20984589     0.00054563831
   6681000   0.050137994   -0.32115394     0.03552267    -0.21042913     9.5471105e-05
   6682000   0.049601482   -0.32148504     0.03598192    -0.2111057      0.00049554787
   6683000   0.05013903    -0.32165693     0.035544323   -0.21090892     0.00086803645
   6684000   0.049684203   -0.32133554     0.036370511   -0.21044354     0.00012153817
   6685000   0.050215079   -0.32147593     0.036160344   -0.20999782    -0.00022048474
   6686000   0.050528471   -0.32136836     0.036227214   -0.20935333     0.00023199894
   6687000   0.050607      -0.32162538     0.036483292   -0.20923649    -0.00024975835
   6688000   0.04992414    -0.32154307     0.035897954   -0.21076374    -0.00021766639
   6689000   0.049856084   -0.32150224     0.03605015    -0.21067279    -5.4653695e-05
   6690000   0.050167233   -0.32156089     0.036334075   -0.20998082    -0.0007240246 
   6691000   0.049868144   -0.32132972     0.036202593   -0.21032974     0.00087250323
   6692000   0.048889634   -0.32146592     0.035648581   -0.21248762    -0.00025717484
   6693000   0.050019726   -0.32153057     0.035464946   -0.21104087     0.0010257398 
   6694000   0.050657814   -0.32170154     0.035333414   -0.21038631     0.00010940474
   6695000   0.050132486   -0.32106039     0.035887632   -0.20997888    -7.7828124e-05
   6696000   0.049827911   -0.32096468     0.036157025   -0.21007061     0.00016673552
   6697000   0.049452329   -0.32130956     0.035395588   -0.21174026     0.00040219165
   6698000   0.049294485   -0.32152638     0.035532937   -0.21205648    -0.00050327523
   6699000   0.049914487   -0.32167448     0.035845144   -0.21096244    -0.00028812409
   6700000   0.050133741   -0.32191142     0.036331885   -0.21038378    -3.8849286e-05
   6701000   0.049537375   -0.32147509     0.036285799   -0.21088802     0.00049522213
   6702000   0.049945211   -0.32152996     0.036012345   -0.21060464    -0.00082420819
   6703000   0.049590827   -0.321434       0.035508239   -0.21154432     0.0011079061 
   6704000   0.049765244   -0.32175103     0.035741545   -0.21136643    -0.000257274  
   6705000   0.049656632   -0.32140764     0.035816686   -0.21111081    -0.00029564377
   6706000   0.049505735   -0.32169714     0.035471298   -0.21197203    -1.149066e-05 
   6707000   0.049682045   -0.32168908     0.035405891   -0.21176493    -0.00013468194
   6708000   0.04951437    -0.32163006     0.036044419   -0.21131888    -0.00039739194
   6709000   0.049231337   -0.32183324     0.035916112   -0.21207488    -0.0013436251 
   6710000   0.049889081   -0.3212036      0.036049287   -0.21032552    -1.1514018e-05
   6711000   0.050085852   -0.32180914     0.035371607   -0.2113136      0.0011322033 
   6712000   0.049860983   -0.32167778     0.035399006   -0.21149212     0.00010701116
   6713000   0.050291246   -0.32190064     0.035416523   -0.21105212     0.00050393381
   6714000   0.049785815   -0.32164417     0.036345104   -0.21062516    -0.00020609684
   6715000   0.050037245   -0.32144808     0.036208343   -0.21018871    -0.00061860643
   6716000   0.050137186   -0.32123141     0.035793981   -0.2102365      0.00087203755
   6717000   0.049998187   -0.32138506     0.035829333   -0.21056328     0.00016794416
   6718000   0.049676165   -0.32170475     0.035764161   -0.21143115    -0.00039282936
   6719000   0.049634655   -0.3211264      0.036096668   -0.21058255    -0.00024116578
   6720000   0.050375319   -0.32168266     0.036290448   -0.20983411    -0.0004908608 
   6721000   0.04987617    -0.32131355     0.035902632   -0.21060149    -0.00016898535
   6722000   0.04988966    -0.32133735     0.036341205   -0.21016649     0.0011334203 
   6723000   0.050250017   -0.32142919     0.035990873   -0.21006815    -0.00033700207
   6724000   0.049812371   -0.32184207     0.036032261   -0.21109607    -0.00080945183
   6725000   0.050102633   -0.32181039     0.035356111   -0.21130518     0.00026535533
   6726000   0.049845447   -0.32173952     0.035707213   -0.21126896    -0.00016162186
   6727000   0.049834277   -0.32147372     0.036140188   -0.21058694     0.00023817219
   6728000   0.049860921   -0.32111754     0.035927616   -0.21040337     0.00068631431
   6729000   0.049949533   -0.32156793     0.03554146    -0.211107      -8.9819519e-05
   6730000   0.049731422   -0.32147912     0.035971883   -0.21091491    -0.00055551377
   6731000   0.049687455   -0.32138161     0.035972858   -0.21088238     1.4150261e-05
   6732000   0.049468438   -0.32161034     0.036070766   -0.21134171     0.00047667286
   6733000   0.050132839   -0.32146833     0.036138936   -0.21013499    -0.00038863891
   6734000   0.050316943   -0.32152359     0.035290617   -0.21076243    -0.00039237517
   6735000   0.050273315   -0.32137584     0.036263253   -0.20970748    -0.00026449968
   6736000   0.050159887   -0.3218942      0.035757099   -0.21090212    -0.00057276878
   6737000   0.050390838   -0.32196015     0.036171842   -0.21020693    -1.1835451e-05
   6738000   0.049831911   -0.32153431     0.035953697   -0.21083757    -0.00051329821
   6739000   0.049810014   -0.32136246     0.035791664   -0.21086059     0.00012488005
   6740000   0.049806967   -0.32136743     0.035697472   -0.21096432    -0.0010479014 
   6741000   0.049749555   -0.32155614     0.03530778    -0.21162885     0.00061936247
   6742000   0.04982261    -0.32208686     0.036304134   -0.21105363    -0.0010741739 
   6743000   0.049665617   -0.32190409     0.036119144   -0.21129132    -0.00022550603
   6744000   0.050220533   -0.32146645     0.036229087   -0.20991143     0.00070784113
   6745000   0.050011484   -0.32163626     0.036236545   -0.21038733    -0.0004208094 
   6746000   0.050197533   -0.32134116     0.035299702   -0.21075002     0.0017241713 
   6747000   0.049803695   -0.32152182     0.035494279   -0.21132682     0.00064234575
   6748000   0.049477467   -0.32203273     0.036289043   -0.21153228    -3.7918088e-05
   6749000   0.049705535   -0.32240729     0.036125438   -0.21172836    -0.00075349726
   6750000   0.050013603   -0.32178542     0.035818362   -0.21095149    -4.1161344e-05
   6751000   0.050236787   -0.32174298     0.035960834   -0.21043182     5.9691712e-05
   6752000   0.049939234   -0.32189623     0.03609227    -0.21089994    -3.0270299e-05
   6753000   0.049958698   -0.32159711     0.035771509   -0.21089239     0.00056179908
   6754000   0.050262217   -0.32179057     0.036647788   -0.20975432    -0.00036987553
   6755000   0.049979331   -0.32158999     0.036715497   -0.20991034     3.104925e-05 
   6756000   0.04987696    -0.3214325      0.035818468   -0.21080341    -2.3297021e-05
   6757000   0.04978668    -0.32188796     0.035838208   -0.21137455    -0.0001654318 
   6758000   0.049555897   -0.32150079     0.035675648   -0.21149609    -0.00048407981
   6759000   0.049943403   -0.32204065     0.036414097   -0.21071628    -0.00094008499
   6760000   0.05006053    -0.3214107      0.03578955    -0.2105352      0.00045108745
   6761000   0.050330013   -0.32173989     0.035270247   -0.2109795     -0.00034835175
   6762000   0.050184743   -0.32132243     0.03505524    -0.21099494     0.00064520007
   6763000   0.049889399   -0.32138974     0.035330004   -0.21123047     9.707475e-05 
   6764000   0.050049386   -0.32139315     0.03560069    -0.21072322     0.0005294701 
   6765000   0.049810948   -0.32181356     0.035508683   -0.21159327    -0.00097789482
   6766000   0.049564084   -0.3217216      0.03628894    -0.21109133     0.00032385725
   6767000   0.049822194   -0.32171648     0.035582861   -0.21140515     0.0010388346 
   6768000   0.049193529   -0.32191058     0.036002323   -0.21212272     0.00039477422
   6769000   0.049832414   -0.32203481     0.035736879   -0.21155413     0.00018943665
   6770000   0.050066957   -0.32162925     0.035818638   -0.21071502     0.00042885107
   6771000   0.050274359   -0.32169218     0.036078049   -0.21020746     0.00072480136
   6772000   0.050409067   -0.32154363     0.036086414   -0.20984849     0.00014574791
   6773000   0.049894297   -0.32169762     0.036287006   -0.210574       1.7453335e-06
   6774000   0.049877173   -0.32160411     0.03635124    -0.21044194     0.00025517708
   6775000   0.05000656    -0.32180581     0.03556278    -0.21123803    -0.00031056129
   6776000   0.049886187   -0.32152336     0.035661949   -0.21103696     0.00050155849
   6777000   0.050116641   -0.32181791     0.035868516   -0.21077928     0.00015289503
   6778000   0.049652118   -0.32125115     0.035471705   -0.21130608     0.00021345236
   6779000   0.050369315   -0.3217404      0.03578476    -0.21040654     0.00082216437
   6780000   0.050178555   -0.32149997     0.035764456   -0.21047254     0.00052450514
   6781000   0.050290471   -0.32153391     0.036069754   -0.21003332    -0.00031665431
   6782000   0.049951672   -0.32179519     0.036843854   -0.21002866     0.00024923582
   6783000   0.050393452   -0.32131375     0.035757026   -0.20997142    -0.0006422944 
   6784000   0.050735168   -0.32146658     0.036003213   -0.20936552     6.2286191e-05
   6785000   0.049750696   -0.32186028     0.036451426   -0.21078762     0.00042129701
   6786000   0.050807729   -0.32175269     0.036389414   -0.2091566      5.5960554e-05
   6787000   0.050356978   -0.32185358     0.036318591   -0.21000439    -0.0003719907 
   6788000   0.049867509   -0.32134127     0.036114635   -0.2104302      0.00060836451
   6789000   0.050526452   -0.32159405     0.035204545   -0.21060471     0.00072397778
   6790000   0.049465702   -0.32180671     0.036238895   -0.21137405    -8.1629995e-05
   6791000   0.050010347   -0.32206429     0.035953001   -0.2111006     -8.3908117e-05
   6792000   0.050295538   -0.32180953     0.036266147   -0.21010495    -0.00042750693
   6793000   0.050538905   -0.32156463     0.03566855    -0.21009261     0.00024103958
   6794000   0.050282585   -0.32189068     0.035928472   -0.21054319     0.00077567919
   6795000   0.05029536    -0.32142488     0.035787211   -0.21019949    -0.00023201015
   6796000   0.050274735   -0.3218459      0.035785061   -0.2106536      7.9044538e-05
   6797000   0.049895114   -0.32138571     0.035490217   -0.21105765    -0.00076673267
   6798000   0.04972807    -0.32167269     0.035688966   -0.21139643     0.00064669757
   6799000   0.049178306   -0.32164162     0.035695519   -0.2121834     -0.00047567957
   6800000   0.050137138   -0.32152781     0.03649736    -0.2098296     -0.0011104433 
   6801000   0.050371301   -0.32121664     0.03614764    -0.20951692     0.00081691618
   6802000   0.050137861   -0.32150076     0.036817383   -0.20948144     0.00032827692
   6803000   0.049951031   -0.32168637     0.036377525   -0.21038713     0.00034462558
   6804000   0.050250584   -0.32163672     0.036135651   -0.21013005     0.00010051876
   6805000   0.049901298   -0.32140149     0.035906492   -0.21064788    -0.00030249   
   6806000   0.050206839   -0.3218266      0.036312229   -0.21020897     0.00072443284
   6807000   0.050080698   -0.32183785     0.036269322   -0.21045232    -0.00025978908
   6808000   0.050091007   -0.32134049     0.035718677   -0.21049015     2.6150397e-05
   6809000   0.049873561   -0.32151628     0.036160427   -0.21055034    -0.00050213511
   6810000   0.049705104   -0.32159561     0.0363149     -0.21072786    -0.00023648899
   6811000   0.050104822   -0.32186712     0.036002784   -0.21071195     0.00074821237
   6812000   0.049579856   -0.32168088     0.036114317   -0.21120158    -0.00027059418
   6813000   0.049857357   -0.32223583     0.036060996   -0.21139363    -0.00091486671
   6814000   0.049735873   -0.32189266     0.0351916     -0.21210206     0.00038251182
   6815000   0.049837488   -0.32142197     0.035950226   -0.21072033     0.00040402787
   6816000   0.049803565   -0.32142081     0.035767577   -0.2109527     -2.6445187e-05
   6817000   0.049940545   -0.32163376     0.035824464   -0.21090331    -0.0011740803 
   6818000   0.05062554    -0.32139507     0.035623963   -0.20983769     0.00046371622
   6819000   0.049386862   -0.32179597     0.035940845   -0.21177961     0.00026159846
   6820000   0.04978088    -0.32177376     0.035785103   -0.21132216    -0.00075795784
   6821000   0.049844469   -0.32142558     0.036067013   -0.21059668     0.00028347688
   6822000   0.050323729   -0.32154856     0.036565044   -0.20950279     0.00010813607
   6823000   0.049510679   -0.32182067     0.036187861   -0.21137158     0.00057436759
   6824000   0.049860943   -0.32173437     0.035575182   -0.2113726      0.00071294964
   6825000   0.049820948   -0.32129352     0.035993682   -0.21057324    -0.0003886561 
   6826000   0.049909422   -0.32162884     0.036085092   -0.21068445    -0.00030972697
   6827000   0.049127513   -0.32144696     0.035690888   -0.21206955     0.00024841426
   6828000   0.049085212   -0.32111192     0.035603096   -0.21188576    -0.00050961544
   6829000   0.049517006   -0.32139616     0.035331376   -0.21179407    -1.8006485e-05
   6830000   0.050094651   -0.32147393     0.035137963   -0.21119883     0.00040396082
   6831000   0.049545158   -0.32189551     0.036134454   -0.21144811    -0.00062135596
   6832000   0.049581227   -0.32128902     0.034913851   -0.21200813     0.00069875772
   6833000   0.049973861   -0.32116542     0.035263968   -0.21094549     0.00011428854
   6834000   0.050013656   -0.32160614     0.035800374   -0.21079012    -0.00086305623
   6835000   0.049884577   -0.3218888      0.036119676   -0.21094709    -0.00069726887
   6836000   0.050338652   -0.32178161     0.035580614   -0.21069789     0.00052338823
   6837000   0.049794278   -0.32139582     0.035637231   -0.21107199    -8.3350172e-05
   6838000   0.05040998    -0.32169547     0.035810809   -0.21027457    -0.00010351175
   6839000   0.050047436   -0.32173548     0.035946667   -0.2107225      0.00079166255
   6840000   0.0503428     -0.32178724     0.035794998   -0.21048291     0.00016703953
   6841000   0.050593245   -0.32223051     0.036445038   -0.2099005     -0.0006256534 
   6842000   0.049874816   -0.32138338     0.036165327   -0.21041066     0.00048064333
   6843000   0.049882386   -0.32158995     0.035841359   -0.21092984     0.00051055263
   6844000   0.050151805   -0.32185545     0.035985735   -0.21064686    -0.0007163195 
   6845000   0.049752078   -0.32157099     0.035667065   -0.21128062     0.0019486664 
   6846000   0.049992468   -0.32163107     0.036197699   -0.21044951     0.00075377488
   6847000   0.050122721   -0.3214601      0.035635296   -0.21064557     0.00036271389
   6848000   0.050311326   -0.3213523      0.035771874   -0.21011831     0.00063380664
   6849000   0.049759702   -0.32161022     0.03635833    -0.21061715    -4.1652781e-05
   6850000   0.049757432   -0.32221413     0.035788412   -0.21179438     0.00012995385
   6851000   0.049928415   -0.32196855     0.035759469   -0.21132129    -0.00015833934
   6852000   0.049318668   -0.32167339     0.035302061   -0.2123981     -0.00022091215
   6853000   0.049780283   -0.32235483     0.035636743   -0.21205248    -0.00046853194
   6854000   0.049821399   -0.32177761     0.035850506   -0.21119982    -0.00042289579
   6855000   0.05038588    -0.32188784     0.036335346   -0.20997855    -0.0002224844 
   6856000   0.050537014   -0.32214876     0.03571345    -0.21063468     0.00097019023
   6857000   0.049792554   -0.32186514     0.035777826   -0.2114033      0.00015307384
   6858000   0.049757977   -0.3219558      0.035714249   -0.2116094      0.00032267453
   6859000   0.050308673   -0.32173645     0.035731958   -0.21054635    -8.4753789e-05
   6860000   0.050573667   -0.3220102      0.036139155   -0.21001544    -0.00034664092
   6861000   0.050298167   -0.32169758     0.035968807   -0.21028639    -0.00073920217
   6862000   0.050190929   -0.32199715     0.035750684   -0.21096493     0.00045359635
   6863000   0.049742613   -0.32150696     0.036241408   -0.21065644    -0.00052345954
   6864000   0.050489138   -0.32182788     0.035932474   -0.21016659     0.00036462956
   6865000   0.049927623   -0.32192823     0.036006295   -0.21103533    -0.00027085568
   6866000   0.049794746   -0.32180533     0.036088028   -0.21103       -0.00051068901
   6867000   0.049942825   -0.32184042     0.036043821   -0.21088719     0.00030351785
   6868000   0.049945466   -0.32187419     0.036315177   -0.21064565    -0.0002982308 
   6869000   0.049771762   -0.32158529     0.036263886   -0.21066858    -0.0006738097 
   6870000   0.050374486   -0.32208453     0.036848017   -0.20967966    -0.00027771306
   6871000   0.050003157   -0.32145597     0.036521014   -0.20993506     0.00023552529
   6872000   0.050569231   -0.32173305     0.036587309   -0.20929679    -0.0004359572 
   6873000   0.049536697   -0.32145622     0.036107035   -0.21104894     0.0015813839 
   6874000   0.049870428   -0.32189196     0.035428869   -0.21166228     0.0010382679 
   6875000   0.05004215    -0.3216194      0.035367166   -0.21119385     0.00083624311
   6876000   0.05036895    -0.32201117     0.035869116   -0.2105935     -0.00023622198
   6877000   0.050076912   -0.32209588     0.03583785    -0.21114751    -7.6222824e-05
   6878000   0.049874114   -0.3219925      0.036326573   -0.21085958    -0.00016448615
   6879000   0.050255441   -0.32177539     0.035827791   -0.2105693      8.0688723e-05
   6880000   0.050291367   -0.32156632     0.035898037   -0.2102361      0.00026243363
   6881000   0.050097287   -0.32157154     0.035782057   -0.2106484     -7.412038e-05 
   6882000   0.049715461   -0.32183332     0.035731108   -0.21153383    -5.4518906e-05
   6883000   0.049880072   -0.3218721      0.035992828   -0.21106399     0.00015355368
   6884000   0.050257549   -0.32208927     0.036037249   -0.21067056    -0.00056805235
   6885000   0.050337298   -0.3217542      0.036083239   -0.21016988     0.00055893922
   6886000   0.050554634   -0.32180588     0.035936633   -0.21004219    -0.00059916   
   6887000   0.050118008   -0.32140116     0.035907774   -0.21032123    -0.00028184271
   6888000   0.050041176   -0.32145601     0.035921445   -0.21047764     0.00048401569
   6889000   0.050046593   -0.32185839     0.036287504   -0.21050584    -4.151604e-05 
   6890000   0.050361108   -0.32161888     0.035688949   -0.21039314     0.00074904939
   6891000   0.049858337   -0.321973       0.035639934   -0.21155038     7.5549171e-05
   6892000   0.050078664   -0.32223071     0.035667092   -0.21145047     3.5048725e-05
   6893000   0.049786331   -0.32224127     0.035482342   -0.21208425    -0.00033055766
   6894000   0.049321024   -0.32188585     0.035760177   -0.21214891     0.00020365417
   6895000   0.050389506   -0.32191228     0.036015749   -0.21031715    -0.00040149055
   6896000   0.049741958   -0.32186663     0.036437692   -0.21082082     0.00071273337
   6897000   0.050324592   -0.32189822     0.036188517   -0.21022768     5.9162448e-05
   6898000   0.050472509   -0.32203118     0.035864575   -0.21046273    -0.00054288029
   6899000   0.050357771   -0.32188814     0.035426871   -0.21092949    -0.00051687814
   6900000   0.049806654   -0.32151857     0.036208676   -0.21060473     0.00029422725
   6901000   0.050179548   -0.32192627     0.035600822   -0.21106098     0.00058252556
   6902000   0.049875307   -0.32180285     0.035664879   -0.21132984    -0.0003177075 
   6903000   0.049329778   -0.32208775     0.03554884    -0.21254901    -1.063608e-05 
   6904000   0.049035295   -0.32205551     0.036167502   -0.21233982     0.0007029864 
   6905000   0.049861135   -0.32155992     0.035410546   -0.2113625      0.00041749153
   6906000   0.049893169   -0.32165105     0.035519532   -0.21129659    -0.00013045908
   6907000   0.050540796   -0.32227499     0.035395171   -0.21107352    -0.00011463025
   6908000   0.049908441   -0.32190779     0.03582836    -0.2112216      0.00083837643
   6909000   0.049614662   -0.32169514     0.036814213   -0.21046373    -0.00070931691
   6910000   0.050376429   -0.32184197     0.035554887   -0.21072731    -2.7226681e-05
   6911000   0.050358541   -0.32194559     0.036322543   -0.2100901     -6.3922949e-05
   6912000   0.049979256   -0.32166506     0.035520502   -0.21118051    -0.0013618532 
   6913000   0.049861488   -0.32171179     0.036350262   -0.21057413     0.0011537699 
   6914000   0.049887658   -0.32199486     0.035907346   -0.21126085    -0.00059338922
   6915000   0.049748184   -0.32194112     0.035899526   -0.21142414     0.00023488111
   6916000   0.050396098   -0.32241977     0.036001697   -0.2108288      0.00021935994
   6917000   0.050625922   -0.32176916     0.035812125   -0.21002305    -5.8309051e-05
   6918000   0.050566753   -0.32171799     0.036117954   -0.2097548     -0.00083700222
   6919000   0.050116969   -0.3216208      0.035506378   -0.21094382     0.00085250855
   6920000   0.050108583   -0.32198496     0.035383718   -0.21144321     0.00050424232
   6921000   0.050086863   -0.32185116     0.035832426   -0.21089329    -5.0105869e-05
   6922000   0.050219179   -0.32184291     0.035635201   -0.21088381     0.00059695716
   6923000   0.050241142   -0.32185918     0.035865069   -0.21063726     0.00091540436
   6924000   0.049988469   -0.32204181     0.035977502   -0.21108644     0.00010622928
   6925000   0.050431736   -0.32194594     0.036108467   -0.21019475    -0.00025470812
   6926000   0.049955303   -0.32182826     0.035837424   -0.21106271    -6.8870503e-05
   6927000   0.050082786   -0.32192346     0.035419519   -0.21138461     0.00043649945
   6928000   0.049747689   -0.32172762     0.035526253   -0.21158465     0.00070414292
   6929000   0.050140379   -0.3217434      0.035966999   -0.21057069     0.00061867098
   6930000   0.050138459   -0.32216991     0.036143792   -0.21082328    -0.0001398563 
   6931000   0.049871554   -0.32180783     0.035396477   -0.21160885     0.00020447967
   6932000   0.05019143    -0.32229149     0.036196227   -0.21081297     0.00017402985
   6933000   0.050325711   -0.32217734     0.036186602   -0.21050704    -0.0012404359 
   6934000   0.050470809   -0.32208381     0.035775389   -0.2106071      0.00074127662
   6935000   0.049512395   -0.32220984     0.035925174   -0.21202087    -0.00019486847
   6936000   0.049377505   -0.32187909     0.036607977   -0.21120963    -0.00072199214
   6937000   0.04981099    -0.32207497     0.036295202   -0.2110681      0.00056009686
   6938000   0.049492513   -0.32155072     0.035475104   -0.21184163    -3.6742287e-05
   6939000   0.049836066   -0.32181457     0.035688409   -0.21137689    -0.00025491942
   6940000   0.049921467   -0.32204103     0.035877758   -0.21128591     0.0003581592 
   6941000   0.049881148   -0.32176766     0.03533979    -0.21161097     0.00054326701
   6942000   0.049844968   -0.32141004     0.035476596   -0.21117081    -0.00058202716
   6943000   0.050060567   -0.32191889     0.035481034   -0.21135185    -0.00036049027
   6944000   0.050063295   -0.32179909     0.035541623   -0.21116737    -6.7394297e-05
   6945000   0.049854706   -0.3220013      0.035643637   -0.21158043     0.00021919792
   6946000   0.050332772   -0.32160517     0.036307131   -0.20980375     0.00027280931
   6947000   0.049974468   -0.3218054      0.035673258   -0.21117528     0.00055033954
   6948000   0.049917269   -0.32172234     0.036135202   -0.21071606    -0.00041563835
   6949000   0.050302283   -0.3220994      0.03608642    -0.21056442     0.00017120258
   6950000   0.049666093   -0.32204808     0.035978561   -0.21157519    -0.00011520714
   6951000   0.049910057   -0.32180023     0.036792793   -0.21014719    -0.00055752382
   6952000   0.049699039   -0.3217144      0.036047965   -0.21112269    -0.0002908105 
   6953000   0.050090205   -0.32206793     0.035810897   -0.21112658     3.6652242e-05
   6954000   0.050026059   -0.32163457     0.036403584   -0.21019674    -6.5750192e-05
   6955000   0.050523388   -0.32224847     0.036129372   -0.2103389     -0.00047786588
   6956000   0.050815814   -0.32186401     0.036310964   -0.20933424     0.00051460872
   6957000   0.05006154    -0.32202484     0.036175084   -0.21076229    -0.00027624528
   6958000   0.050208034   -0.32220177     0.036107194   -0.21078738     0.00039088659
   6959000   0.050223408   -0.3220784      0.035530364   -0.21121778    -0.00066900331
   6960000   0.049736124   -0.3218059      0.035499653   -0.21170687     0.00020386575
   6961000   0.050350528   -0.32159465     0.035281749   -0.21079198     4.6862342e-05
   6962000   0.050450774   -0.32223206     0.03545361    -0.21110717     0.0012437346 
   6963000   0.049453822   -0.32219236     0.035966404   -0.21205001    -0.00051735184
   6964000   0.050306875   -0.32208156     0.035978405   -0.21064771     7.2988152e-05
   6965000   0.049823177   -0.3218732      0.035817433   -0.21132582     0.00060119375
   6966000   0.04997908    -0.32189455     0.036175847   -0.21075492    -0.0010375228 
   6967000   0.049727327   -0.32223434     0.035965714   -0.21168245    -0.00013374523
   6968000   0.050352501   -0.32183099     0.035959019   -0.21034809    -0.00015738024
   6969000   0.050336456   -0.3222463      0.036852156   -0.20989434    -0.00022884031
   6970000   0.050825541   -0.32150645     0.03632841    -0.20894465     0.00042589496
   6971000   0.049828209   -0.32156177     0.03652632    -0.21029796     0.00037038447
   6972000   0.049869717   -0.32196279     0.037099998   -0.21006304     1.2072082e-05
   6973000   0.04995436    -0.32191677     0.035617711   -0.21137235    -0.00045431182
   6974000   0.04999465    -0.32155076     0.035854898   -0.21070872     3.5335748e-05
   6975000   0.049695383   -0.32216151     0.035136328   -0.21248692     0.00012022524
   6976000   0.050213306   -0.32157195     0.035862482   -0.21039437     0.00046224577
   6977000   0.050244242   -0.321849       0.036052079   -0.21043542     0.00029382966
   6978000   0.050065514   -0.32174078     0.036272029   -0.21037533    -0.00053772811
   6979000   0.049954954   -0.3218658      0.035895138   -0.21104306     3.7546878e-05
   6980000   0.049943212   -0.32254919     0.035968113   -0.21167109     0.00019323176
   6981000   0.050245538   -0.32196146     0.036171608   -0.21042641     0.00023534655
   6982000   0.049864079   -0.321967       0.03575654    -0.21141917    -0.00078840496
   6983000   0.049884554   -0.32244319     0.035982782   -0.21163841    -0.00053442742
   6984000   0.04980689    -0.32198361     0.0361265     -0.2111516     -1.9927886e-05
   6985000   0.050294426   -0.32175345     0.035673453   -0.21064322     0.00072323213
   6986000   0.049873397   -0.32215145     0.036029375   -0.2113168      0.00041475437
   6987000   0.049699      -0.32222801     0.036034232   -0.21165009    -0.00033869105
   6988000   0.049753717   -0.32166279     0.035844965   -0.21119206     0.00036773209
   6989000   0.049304753   -0.32157418     0.036066144   -0.21155568     0.0004022797 
   6990000   0.050430923   -0.32176099     0.035611906   -0.21050758     0.00021130245
   6991000   0.050088536   -0.32152501     0.036278058   -0.210119      -0.00097297355
   6992000   0.050216247   -0.32181833     0.036267306   -0.21023152     0.00024353403
   6993000   0.049600309   -0.32208208     0.036351812   -0.2113346     -0.0009228974 
   6994000   0.049913      -0.32217423     0.03548836    -0.2118212      6.6840794e-05
   6995000   0.049886745   -0.32212361     0.035661202   -0.21163711     0.00091608701
   6996000   0.050119456   -0.32210144     0.035960008   -0.2109671     -0.00056062587
   6997000   0.049992055   -0.32246636     0.036231988   -0.21125113    -0.00067991076
   6998000   0.049802781   -0.32179356     0.035839013   -0.21125519     0.00072226798
   6999000   0.049744934   -0.32187543     0.035981328   -0.21128152    -0.00017252743
   7000000   0.049663888   -0.32188117     0.036295648   -0.21109449     0.00052802208
   7001000   0.050294434   -0.3219022      0.035833005   -0.21063241     0.00071311201
   7002000   0.049938877   -0.32192599     0.036095817   -0.21092669    -0.00044737817
   7003000   0.049174929   -0.32235635     0.035766602   -0.21283211     0.00051913168
   7004000   0.049431314   -0.32199759     0.036551791   -0.21130361    -0.00065971157
   7005000   0.050294171   -0.32191686     0.035501377   -0.2109791      0.00079399437
   7006000   0.049651148   -0.32204649     0.036082917   -0.21149166    -0.00058301066
   7007000   0.049699965   -0.32225431     0.035661899   -0.21204728     0.00051326053
   7008000   0.049508212   -0.3218087      0.036503631   -0.21104754     0.00058302873
   7009000   0.049883538   -0.32227774     0.035223096   -0.21223416     0.00017893247
   7010000   0.049542822   -0.3218171      0.036183291   -0.21132437     0.00023913604
   7011000   0.049840517   -0.32223441     0.036230616   -0.21124784    -0.0007240047 
   7012000   0.049820662   -0.32163442     0.035889905   -0.21101834     0.00026672023
   7013000   0.050388229   -0.32218886     0.035307498   -0.2113039     -0.00026064427
   7014000   0.050050207   -0.32218696     0.035714917   -0.21140157    -0.00091095324
   7015000   0.049663177   -0.32216931     0.03579276    -0.21188659    -0.00053338443
   7016000   0.050164766   -0.322371       0.036029005   -0.2110997      0.00018125504
   7017000   0.050097047   -0.32227963     0.037024319   -0.21011459    -0.001319189  
   7018000   0.050522762   -0.32201773     0.035923297   -0.21031518     0.00069936774
   7019000   0.050077265   -0.32185327     0.036237891   -0.21050433    -0.00020727634
   7020000   0.049810129   -0.32172007     0.036491928   -0.21051777     0.00011688304
   7021000   0.049898399   -0.32204951     0.036011755   -0.21119498     0.00026396058
   7022000   0.049588145   -0.32202037     0.036079059   -0.2115639     -9.6328951e-05
   7023000   0.05003592    -0.32201541     0.036198211   -0.21076816    -0.001018459  
   7024000   0.050335872   -0.3223975      0.035960849   -0.21093772    -0.00079681616
   7025000   0.050242309   -0.32241728     0.035979934   -0.21107874    -0.001285605  
   7026000   0.050015133   -0.3224194      0.035661129   -0.21174041     0.00013751225
   7027000   0.050084401   -0.32231377     0.035608919   -0.21158309     0.00045556633
   7028000   0.049989464   -0.32232815     0.035475809   -0.21187298    -0.00083313426
   7029000   0.04962664    -0.32220354     0.036020467   -0.21174791    -1.0019578e-05
   7030000   0.049921307   -0.32224153     0.035938592   -0.21142581    -0.00017901286
   7031000   0.049639438   -0.32236494     0.036163322   -0.21174726    -0.00052006617
   7032000   0.050262477   -0.3225122      0.035670196   -0.21145315     0.00066446407
   7033000   0.050572669   -0.32195983     0.036436839   -0.20966889    -0.00018885922
   7034000   0.050251757   -0.32214761     0.035929945   -0.2108449      0.00027770965
   7035000   0.050542086   -0.32223603     0.035791888   -0.21063591     0.001348075  
   7036000   0.050094021   -0.32189875     0.03576876    -0.21099381     0.00050485433
   7037000   0.050150514   -0.32255988     0.036292758   -0.2110462     -0.00062444249
   7038000   0.049340322   -0.32243663     0.036037374   -0.21239355    -0.00079626579
   7039000   0.049526535   -0.32243923     0.036248939   -0.21190528    -0.00049610015
   7040000   0.049358622   -0.32171089     0.036343519   -0.21133421     0.00062737704
   7041000   0.049763842   -0.32209137     0.036976921   -0.2104735     -0.00025155445
   7042000   0.050291169   -0.32235728     0.036193419   -0.21073198     0.00072576568
   7043000   0.049896772   -0.32241627     0.036049126   -0.21152682    -9.1085844e-06
   7044000   0.049999414   -0.32262288     0.036486447   -0.21114216    -0.00022770481
   7045000   0.050114889   -0.32216736     0.036188709   -0.21081117    -0.00020444362
   7046000   0.050104334   -0.32208778     0.035841459   -0.21109467    -0.00023803153
   7047000   0.04994794    -0.32183554     0.036034768   -0.21088369     0.000240219  
   7048000   0.049399526   -0.32222155     0.035286228   -0.21284082    -0.00043772175
   7049000   0.049511411   -0.32220024     0.036569942   -0.21136797    -0.00033360955
   7050000   0.050072219   -0.32197088     0.036174014   -0.21069338     0.0014984837 
   7051000   0.050443033   -0.32232775     0.036433249   -0.21023483    -0.00039530236
   7052000   0.050722504   -0.32181101     0.035915722   -0.20981644    -0.00085267377
   7053000   0.04988828    -0.32233631     0.036829342   -0.21067938    -0.00099782115
   7054000   0.050176398   -0.32228536     0.035962022   -0.2110636      5.3914043e-06
   7055000   0.050166085   -0.32232733     0.035739126   -0.21134393     0.00059797637
   7056000   0.049732424   -0.32231598     0.036136995   -0.21158516     0.00012568626
   7057000   0.049834412   -0.32280449     0.035396165   -0.21266153     6.0907077e-05
   7058000   0.050039379   -0.32235046     0.035513426   -0.21178281     0.00022851661
   7059000   0.050047424   -0.32251448     0.036405649   -0.21104254     0.00028865264
   7060000   0.050253844   -0.32226034     0.035706187   -0.21117825     0.00087841775
   7061000   0.050110462   -0.32215867     0.035954241   -0.21104359    -0.00019338334
   7062000   0.049882694   -0.32247894     0.036067418   -0.2115923     -0.00094580025
   7063000   0.050257825   -0.32222813     0.036124552   -0.2107217      2.9907763e-05
   7064000   0.050162443   -0.32254463     0.035737078   -0.21156875     0.00017187968
   7065000   0.050367451   -0.32292915     0.035633274   -0.21174958     3.9978892e-05
   7066000   0.050124475   -0.32204441     0.03619885    -0.2106637     -0.00064866454
   7067000   0.050044022   -0.32169694     0.035528478   -0.21110727     0.00035502977
   7068000   0.050574325   -0.32256781     0.03569263    -0.21101858    -0.00087038637
   7069000   0.050254627   -0.32204697     0.035935114   -0.21073478     0.00015009224
   7070000   0.049737088   -0.32197247     0.035557216   -0.21181443     0.0005830202 
   7071000   0.049890019   -0.32198699     0.036240074   -0.21091671    -0.00057338374
   7072000   0.050525124   -0.32222817     0.035561266   -0.21088411     0.00075990326
   7073000   0.049363765   -0.32219922     0.035463439   -0.21269491    -0.00029138118
   7074000   0.049440014   -0.32249904     0.035818752   -0.21252505    -3.1944907e-05
   7075000   0.049899014   -0.32234026     0.03625909    -0.21123748     0.0004905824 
   7076000   0.049751247   -0.3225161      0.035603547   -0.2122905     -0.00021423811
   7077000   0.049920784   -0.32255882     0.035712468   -0.21197       -0.00054687305
   7078000   0.049677532   -0.32231494     0.036050393   -0.21175306    -0.00028418301
   7079000   0.049974857   -0.32209515     0.035598002   -0.2115397      0.0011168576 
   7080000   0.050382165   -0.3223209      0.035846283   -0.21090625    -0.00045767835
   7081000   0.049937673   -0.32182769     0.036286843   -0.21063917    -3.6056453e-05
   7082000   0.05042022    -0.32225669     0.036141684   -0.21048956     3.0762724e-05
   7083000   0.050269776   -0.32254353     0.035686067   -0.21145767    -0.00016282354
   7084000   0.049701673   -0.32220649     0.035326892   -0.2123319      2.7680957e-05
   7085000   0.049862608   -0.32232652     0.035422762   -0.21211467     0.00033740193
   7086000   0.04973757    -0.32197717     0.035460934   -0.2119147     -0.00044634195
   7087000   0.050009712   -0.32216613     0.035838392   -0.21131801     0.00057171511
   7088000   0.049978925   -0.32243261     0.035726312   -0.21174275    -0.0001580273 
   7089000   0.049723877   -0.32218777     0.036263262   -0.21134351    -0.00024594103
   7090000   0.049418555   -0.32179655     0.036486556   -0.21118694     0.00053878298
   7091000   0.049937924   -0.32223371     0.035917023   -0.21141463     0.00012831551
   7092000   0.05027506    -0.3223367      0.036340604   -0.21058837    -0.00050717186
   7093000   0.049985753   -0.32239551     0.035915002   -0.21150671    -5.6206979e-05
   7094000   0.050371999   -0.32234382     0.03554054    -0.21125015     0.00021543684
   7095000   0.050436084   -0.32250484     0.036109119   -0.21074648    -0.00035881955
   7096000   0.050133344   -0.32235574     0.036002638   -0.21115794    -0.00040495087
   7097000   0.049966233   -0.32238893     0.03622858    -0.21121584     0.00036869348
   7098000   0.050290176   -0.32270348     0.03620123    -0.21107185    -0.0010650097 
   7099000   0.050345371   -0.32270356     0.036116414   -0.21107396    -0.00051306726
   7100000   0.049944776   -0.32275052     0.03639123    -0.21144696     0.00010911108
   7101000   0.049903937   -0.32221705     0.036021653   -0.21134432    -2.7152848e-05
   7102000   0.049421294   -0.32231607     0.036241757   -0.21194715     5.606274e-05 
   7103000   0.049801252   -0.32226553     0.035772323   -0.21179615     0.00044686415
   7104000   0.050214287   -0.32196727     0.035854725   -0.21079598     0.00051733062
   7105000   0.050565754   -0.32243442     0.035830027   -0.21076066     0.0010081948 
   7106000   0.049939565   -0.32225675     0.036267557   -0.21108468     5.7389462e-05
   7107000   0.049406116   -0.32251133     0.035663412   -0.21274353    -0.00094057254
   7108000   0.050222486   -0.3223864      0.035658687   -0.21139885     0.00048842267
   7109000   0.049707452   -0.32260312     0.035385647   -0.2126611     -0.00011055002
   7110000   0.04980231    -0.32285755     0.037059127   -0.21109978    -0.00079095996
   7111000   0.049881654   -0.32243703     0.035635655   -0.21198372     0.00011260594
   7112000   0.049781224   -0.3225167      0.035668037   -0.21218164     0.00033393708
   7113000   0.049731732   -0.32259948     0.036589413   -0.21141729    -0.00084868325
   7114000   0.050134166   -0.3224078      0.036262346   -0.21094906     0.00013507439
   7115000   0.050506431   -0.32254332     0.035763501   -0.21102506    -6.7722637e-05
   7116000   0.049734223   -0.32247403     0.036788406   -0.2110891     -0.00078454125
   7117000   0.050069031   -0.32278636     0.036085134   -0.21160252     0.00032829246
   7118000   0.050171657   -0.32290466     0.035948686   -0.21170334    -0.00045601747
   7119000   0.050067554   -0.32228864     0.035517071   -0.21167508     0.00054404799
   7120000   0.04974602    -0.32231664     0.035554923   -0.2121475     -0.0007333908 
   7121000   0.050113758   -0.32233277     0.036084314   -0.21108267    -0.00046946909
   7122000   0.049848426   -0.32254625     0.036067259   -0.21171118    -0.00089137945
   7123000   0.050373305   -0.32242048     0.03567502    -0.21119037     0.00029243063
   7124000   0.050021046   -0.32222598     0.036048572   -0.21115068     0.00010772483
   7125000   0.050399483   -0.32209245     0.035860947   -0.21063715    -1.672533e-05 
   7126000   0.050210024   -0.32289689     0.036372916   -0.2112138     -0.00036312149
   7127000   0.04967601    -0.32247001     0.035846796   -0.21211401    -0.00055744043
   7128000   0.050022907   -0.32259821     0.03640705    -0.21116164    -0.00030284186
   7129000   0.049629923   -0.32217672     0.036029432   -0.21170721     0.00025690782
   7130000   0.049947616   -0.32248306     0.036185791   -0.21138068     0.00091826473
   7131000   0.049893154   -0.3224396      0.035884557   -0.21172014    -0.0005634621 
   7132000   0.049854442   -0.32247975     0.035567636   -0.21213527    -0.00047212546
   7133000   0.049318646   -0.3223834      0.035510572   -0.21289963     0.00050875468
   7134000   0.049372087   -0.32273248     0.036225367   -0.21245376     0.00028310308
   7135000   0.049900068   -0.32253548     0.035591689   -0.21209852    -0.00034048781
   7136000   0.049992855   -0.32253464     0.036099268   -0.21145093    -0.0012835256 
   7137000   0.049883807   -0.32250365     0.035805722   -0.21187705    -0.00011792519
   7138000   0.049934478   -0.32239866     0.035606932   -0.21189484     0.0010022067 
   7139000   0.049689846   -0.32261503     0.035239295   -0.21284577     0.00037481634
   7140000   0.049758911   -0.32256377     0.035874544   -0.21205567    -0.00062465998
   7141000   0.050476201   -0.32264422     0.035474238   -0.21146056    -4.3462428e-05
   7142000   0.05007371    -0.32237146     0.035897844   -0.21136789     0.00065390054
   7143000   0.049593571   -0.32240197     0.035777349   -0.21223907    -0.00043189909
   7144000   0.049702118   -0.32226306     0.03588576    -0.21182893    -0.00068429221
   7145000   0.049679437   -0.32233856     0.036098568   -0.21172565    -0.00046981265
   7146000   0.04991683    -0.3224051      0.035349658   -0.21218503     3.2027584e-05
   7147000   0.050275655   -0.32256172     0.035999265   -0.21115384     0.00011183983
   7148000   0.049983018   -0.32240906     0.036191325   -0.21124805     0.00050131793
   7149000   0.050170188   -0.32230253     0.0356163     -0.21143581     0.00085907691
   7150000   0.049917835   -0.32214312     0.035510128   -0.21176107     0.00036154442
   7151000   0.049949536   -0.32230846     0.036204757   -0.21118423    -0.00056279622
   7152000   0.050226286   -0.32262528     0.035532621   -0.21175809    -0.00053081298
   7153000   0.049657246   -0.3224107      0.035861268   -0.21206837     0.00040974852
   7154000   0.050021449   -0.32255912     0.035685793   -0.211846       0.00073314452
   7155000   0.049988489   -0.32246116     0.036568633   -0.21091463     0.00017378376
   7156000   0.050215243   -0.32237879     0.03586482    -0.21119597    -0.00055111611
   7157000   0.050247619   -0.32256546     0.036291673   -0.21090722     0.00076917043
   7158000   0.049888928   -0.32282156     0.036353145   -0.21163985    -0.00027195368
   7159000   0.050213553   -0.32259041     0.035922593   -0.21135235     0.00060878175
   7160000   0.050206354   -0.32253666     0.035899198   -0.21133279    -0.00067335074
   7161000   0.049513686   -0.32230446     0.036326767   -0.21171195    -0.00024587438
   7162000   0.049913357   -0.32253803     0.03614201    -0.21153082     0.00072077372
   7163000   0.04959061    -0.32244701     0.03602909    -0.2120368      0.00059689208
   7164000   0.050807054   -0.32216344     0.035513241   -0.21044453     5.2799415e-05
   7165000   0.050155239   -0.3225687      0.035942684   -0.21139801     0.00027882543
   7166000   0.050273822   -0.32235561     0.035712966   -0.21123678     0.00050841959
   7167000   0.050081036   -0.32279455     0.035952241   -0.2117256     -5.3565999e-05
   7168000   0.049938489   -0.3229588      0.036403568   -0.21165233    -0.00087405143
   7169000   0.050361632   -0.32280639     0.035147269   -0.21212154     3.2826007e-05
   7170000   0.049991479   -0.32260599     0.036137941   -0.21148567     0.00048682957
   7171000   0.049593856   -0.3227674      0.035963981   -0.21241743     0.00010946176
   7172000   0.049810427   -0.32219055     0.036140599   -0.21133913    -0.00064200046
   7173000   0.049725271   -0.32281347     0.036186925   -0.21204345     0.00031004407
   7174000   0.050461328   -0.32292123     0.036146511   -0.21108761     0.00092102126
   7175000   0.04999091    -0.3224597      0.035801651   -0.21167652     0.00061717177
   7176000   0.049586207   -0.32268027     0.036010194   -0.21229556     0.00056260482
   7177000   0.050371629   -0.32254922     0.036020947   -0.2109757      0.00036070039
   7178000   0.04998032    -0.32232352     0.036009055   -0.21134882     0.00020053596
   7179000   0.050340006   -0.32234326     0.036050856   -0.21078727    -0.00050835311
   7180000   0.050626349   -0.32281116     0.036430171   -0.21044637     0.00021277802
   7181000   0.050055547   -0.32227405     0.036336118   -0.21085945     0.00050961035
   7182000   0.050007994   -0.32269535     0.035737815   -0.21195038    -1.1361162e-07
   7183000   0.050257784   -0.32265056     0.036304874   -0.21096387    -0.00040130356
   7184000   0.049709319   -0.32237344     0.035874602   -0.21193967     0.0007413839 
   7185000   0.050107844   -0.32231993     0.035013475   -0.21214954     0.00075023664
   7186000   0.050053791   -0.32219558     0.035523586   -0.21159615     0.0004425405 
   7187000   0.050316201   -0.3226775      0.035732288   -0.21147578     0.0011507163 
   7188000   0.050379187   -0.3225201      0.03637294    -0.21058325     6.8206123e-05
   7189000   0.049964721   -0.32231976     0.036000708   -0.21137681     0.00026647847
   7190000   0.050484471   -0.32266796     0.035662972   -0.21128316     0.00029006103
   7191000   0.049918991   -0.32245325     0.035905385   -0.21167421     5.9664888e-05
   7192000   0.05020595    -0.32243176     0.036230533   -0.21089716     4.9038965e-05
   7193000   0.050710602   -0.32241057     0.035421976   -0.2109276      0.0010060012 
   7194000   0.049890656   -0.32239457     0.035869459   -0.21169396     0.00062485869
   7195000   0.050149822   -0.32271359     0.035655417   -0.2118383      0.00067848473
   7196000   0.050001453   -0.32277685     0.036141278   -0.21163823    -0.00031703789
   7197000   0.049729364   -0.32257234     0.035733707   -0.2122494      0.00031110317
   7198000   0.049338689   -0.3220936      0.035607928   -0.21248241     0.0009533399 
   7199000   0.050034658   -0.3225648      0.035605818   -0.21191184    -0.00039094744
   7200000   0.04963152    -0.32234995     0.034894167   -0.21301331     0.00047280389
   7201000   0.04958141    -0.32256871     0.035965492   -0.2122359      0.00041461843
   7202000   0.049632955   -0.32259984     0.035840348   -0.21231486    -0.00041247763
   7203000   0.049568167   -0.32229303     0.036031891   -0.21191368     6.5828368e-05
   7204000   0.050116241   -0.3226756      0.036045683   -0.21146041     0.00073024762
   7205000   0.049210533   -0.32268602     0.036311179   -0.21256381    -5.2846135e-05
   7206000   0.049985803   -0.32233669     0.035626577   -0.21173625     4.4540304e-05
   7207000   0.050470248   -0.32281027     0.035679378   -0.21143041     0.0006457221 
   7208000   0.050098214   -0.32241767     0.036091333   -0.21118387     8.4317392e-06
   7209000   0.049772122   -0.32258512     0.035683628   -0.21224812    -0.00011443958
   7210000   0.049415014   -0.3223972      0.035698896   -0.21258057     0.0013281803 
   7211000   0.050301297   -0.32214056     0.035499643   -0.21119384     0.00059550566
   7212000   0.050562762   -0.32240268     0.035715968   -0.21084746     0.00038576571
   7213000   0.049868248   -0.32247858     0.036360958   -0.21132008    -0.0015820584 
   7214000   0.049388983   -0.32268688     0.035713021   -0.21289516     0.00049154254
   7215000   0.049213622   -0.32264899     0.035131842   -0.21370148     0.00010826114
   7216000   0.04971687    -0.32243919     0.035574563   -0.21229413    -0.00057553201
   7217000   0.049803218   -0.32203879     0.034962643   -0.21237614     0.0011299256 
   7218000   0.050033561   -0.32237927     0.035985671   -0.2113481     -0.00036006845
   7219000   0.050128295   -0.32220823     0.036351724   -0.21066891    -0.00052634136
   7220000   0.04987003    -0.32256283     0.03564311    -0.2121195     -3.8910347e-05
   7221000   0.049796613   -0.32243891     0.035693371   -0.21205544     0.00063638763
   7222000   0.050222035   -0.32249789     0.036219628   -0.21095007    -8.6433664e-05
   7223000   0.049953526   -0.32254057     0.035590317   -0.2120248      0.00055843717
   7224000   0.05035662    -0.32287416     0.035591342   -0.21175276     0.00028838353
   7225000   0.049913599   -0.32227982     0.036246939   -0.21116731    -0.00031694288
   7226000   0.050532169   -0.32250233     0.035740586   -0.21096838    -0.00011604124
   7227000   0.049944266   -0.32246438     0.036118511   -0.21143431     2.3057621e-06
   7228000   0.049219811   -0.32216703     0.035733479   -0.2126086      0.00058412774
   7229000   0.049702809   -0.32274859     0.035791808   -0.21240738    -0.00044117606
   7230000   0.050035422   -0.32273914     0.036784242   -0.21090661    -0.0005478883 
   7231000   0.050198187   -0.3226044      0.035994686   -0.21131729    -0.00033901627
   7232000   0.04991513    -0.32290316     0.036360008   -0.21167529    -0.00077432248
   7233000   0.049765436   -0.32238577     0.035385741   -0.21235669     0.00068850322
   7234000   0.050364809   -0.32268579     0.035834043   -0.21130941     0.000393766  
   7235000   0.049716657   -0.32287265     0.036226956   -0.21207552    -0.00051688817
   7236000   0.049542818   -0.32269433     0.035774481   -0.21261041    -0.00063477739
   7237000   0.050047797   -0.32237365     0.036254147   -0.21105265     0.00033338008
   7238000   0.050256611   -0.32310318     0.035607568   -0.21211556     0.00049658175
   7239000   0.049735533   -0.32295547     0.035511599   -0.21284538    -0.00084916419
   7240000   0.050003397   -0.32279647     0.036204075   -0.21159214     0.00045209393
   7241000   0.050129883   -0.32247224     0.036072292   -0.21120998     0.00042581654
   7242000   0.050615025   -0.32269915     0.035941862   -0.21083965    -0.00021336469
   7243000   0.050219112   -0.32301171     0.03560647    -0.21208143     0.00047573434
   7244000   0.049640953   -0.32240594     0.035601969   -0.21234735     0.00026191271
   7245000   0.050056187   -0.32276077     0.035383709   -0.21229763     0.00017252115
   7246000   0.050239951   -0.32276639     0.035664188   -0.21174714    -0.00016109498
   7247000   0.05024602    -0.32287837     0.035635214   -0.21187899    -0.00088116547
   7248000   0.050211565   -0.32281665     0.036085592   -0.21141857     0.00066182935
   7249000   0.049685561   -0.32271321     0.035944375   -0.2122453      0.00013284349
   7250000   0.050124242   -0.32293986     0.035704132   -0.21205422    -0.0012649582 
   7251000   0.049668781   -0.32298741     0.035535971   -0.21295307    -0.00052825332
   7252000   0.049838141   -0.32283943     0.035832051   -0.21225499     0.00032214053
   7253000   0.050128418   -0.32317934     0.036035556   -0.21195601    -0.00034565856
   7254000   0.049940703   -0.32267786     0.035063649   -0.21270798     0.00027790915
   7255000   0.049879037   -0.32333489     0.035597114   -0.21292405    -0.00012219226
   7256000   0.049739743   -0.32311311     0.035478456   -0.21302985     8.2276083e-05
   7257000   0.050369602   -0.32290994     0.035528789   -0.21183162     0.00076232133
   7258000   0.050295147   -0.32283174     0.035820809   -0.21157308     0.00026915398
   7259000   0.050129909   -0.3228569      0.035594515   -0.21207237    -0.00029965105
   7260000   0.04975147    -0.32304199     0.036314716   -0.21210489    -0.00033158061
   7261000   0.050016639   -0.32291574     0.036057886   -0.21183774     0.00060246305
   7262000   0.050394448   -0.32328419     0.036107005   -0.21159039     0.00016717397
   7263000   0.050389824   -0.32289818     0.036242028   -0.21107629    -0.00044681842
   7264000   0.050090624   -0.32266943     0.036828044   -0.21071029     0.00063771557
   7265000   0.049657478   -0.32255817     0.036182553   -0.21189421    -0.00032941583
   7266000   0.050737292   -0.32290772     0.035949355   -0.21085734     0.00095987079
   7267000   0.050175092   -0.32241556     0.03590406    -0.21125371     0.00025128208
   7268000   0.049634568   -0.32303218     0.03554851    -0.21303662     0.00078000851
   7269000   0.049442454   -0.32305855     0.03600989    -0.21288976     0.00016897144
   7270000   0.04975567    -0.32326174     0.036074613   -0.21255844    -0.00068134259
   7271000   0.049682281   -0.32289881     0.035787643   -0.21259255     0.00068901639
   7272000   0.049806279   -0.32264346     0.036283431   -0.21165543     8.8426873e-05
   7273000   0.050096817   -0.32285702     0.036202442   -0.2115142      0.00030457431
   7274000   0.050058155   -0.32315927     0.036260172   -0.21181671     0.00090057779
   7275000   0.050339      -0.32288011     0.036260043   -0.21111644     0.00036910965
   7276000   0.049807805   -0.32270059     0.036906028   -0.21108767    -0.00017625002
   7277000   0.050546799   -0.32270278     0.035798296   -0.21108918    -0.00038049479
   7278000   0.050046557   -0.3230421      0.035814787   -0.21216232    -0.00013289887
   7279000   0.049551262   -0.32266683     0.036082287   -0.21226245     0.00055540835
   7280000   0.050200784   -0.32319174     0.035579815   -0.21231561     0.00066310324
   7281000   0.050680343   -0.32267643     0.036063195   -0.21059763    -3.1690263e-05
   7282000   0.050154991   -0.32279862     0.035888674   -0.21168231    -0.00050236195
   7283000   0.050577758   -0.32298469     0.035908302   -0.21121464     0.00043511791
   7284000   0.050046787   -0.32313261     0.036025292   -0.21204198    -0.00026395544
   7285000   0.050107917   -0.32261884     0.035822642   -0.21163917     7.0562479e-05
   7286000   0.049619483   -0.32273351     0.035693056   -0.21261603    -2.1311596e-05
   7287000   0.049849493   -0.3229097      0.035627266   -0.21251302     0.00016193094
   7288000   0.050124225   -0.32321536     0.035622911   -0.21241096     0.00026631672
   7289000   0.050448143   -0.3226809      0.0357907     -0.21122286     0.00016446844
   7290000   0.049787615   -0.32286677     0.036005602   -0.21218457    -0.00054873115
   7291000   0.04979212    -0.32272381     0.035846289   -0.21219416     0.00025867105
   7292000   0.050085224   -0.32251668     0.036091061   -0.21130263     0.00043778508
   7293000   0.050147936   -0.32299738     0.035978596   -0.21180173    -0.00013203639
   7294000   0.050366869   -0.32288171     0.035942885   -0.2113934     -0.00038992787
   7295000   0.049789708   -0.32268003     0.03651179    -0.2114885      0.0009606024 
   7296000   0.04998648    -0.32319064     0.036123576   -0.21209218     0.00084773454
   7297000   0.049412925   -0.32280205     0.036300383   -0.21238707     0.0002199028 
   7298000   0.050127392   -0.32335824     0.035729292   -0.21244271    -0.00081113181
   7299000   0.04991053    -0.32286616     0.036228489   -0.21177671    -0.0003702337 
   7300000   0.050130464   -0.32312653     0.036203737   -0.21173195     1.4109534e-05
   7301000   0.049551602   -0.32312451     0.036339442   -0.21246246    -0.00092241428
   7302000   0.049497918   -0.32341312     0.036333294   -0.21283774    -0.00038290373
   7303000   0.049801065   -0.32280914     0.036197587   -0.21191477    -0.00091937037
   7304000   0.050097063   -0.32266914     0.036244269   -0.21128412    -0.00040223843
   7305000   0.049776046   -0.32278796     0.035104384   -0.21302433     0.0003649424 
   7306000   0.050042198   -0.3231611      0.036100346   -0.2120023     -0.00051110123
   7307000   0.04967363    -0.32311286     0.036492464   -0.21211476     0.00024330501
   7308000   0.049819155   -0.32272466     0.035833037   -0.21216771    -0.00011856809
   7309000   0.049960485   -0.32248027     0.036193627   -0.21135075    -2.6632944e-05
   7310000   0.050320352   -0.32267375     0.035860668   -0.21133742     0.00047763474
   7311000   0.05008851    -0.32271688     0.035802642   -0.21178632     0.0016002697 
   7312000   0.050131453   -0.32281301     0.036226644   -0.21139403    -9.7283603e-05
   7313000   0.050024285   -0.32286298     0.036628647   -0.21120274    -0.00044346967
   7314000   0.049587324   -0.32285936     0.036156211   -0.21232697     0.000432271  
   7315000   0.050356038   -0.32303605     0.03584607    -0.21166079     0.00027506969
   7316000   0.050311155   -0.32294784     0.036149749   -0.21133623     0.00015441231
   7317000   0.050342408   -0.32298836     0.035730508   -0.21174912    -0.00024475595
   7318000   0.049826108   -0.32329565     0.035945227   -0.21261609     0.00090798906
   7319000   0.049773096   -0.32327052     0.035884502   -0.21273119    -0.00028554279
   7320000   0.050014      -0.32288913     0.035870243   -0.21200273    -0.00026715916
   7321000   0.050137055   -0.32286436     0.036181887   -0.21148174    -0.00014342642
   7322000   0.050118387   -0.32318998     0.036110761   -0.21190648    -0.00022629037
   7323000   0.049989804   -0.32334415     0.036399395   -0.21196489    -0.00022221856
   7324000   0.049816239   -0.32318746     0.036173871   -0.21229405     6.7698232e-05
   7325000   0.050171733   -0.32316421     0.035468109   -0.21244336     0.00039945565
   7326000   0.05037762    -0.32284828     0.036004703   -0.21128202     6.3627654e-05
   7327000   0.049802285   -0.32304894     0.03581189    -0.21253844    -0.00066134932
   7328000   0.050096397   -0.32292502     0.03547351    -0.21231176     0.0006656906 
   7329000   0.050136766   -0.32310212     0.036105632   -0.21179619     0.00017830039
   7330000   0.050321457   -0.32292107     0.036113696   -0.21133006     3.5944899e-05
   7331000   0.050333698   -0.32296276     0.036156899   -0.21131018     3.1634677e-06
   7332000   0.04952439    -0.32305457     0.035763396   -0.21300938     0.00059631961
   7333000   0.049834551   -0.32293466     0.035787282   -0.21240038     0.0003358315 
   7334000   0.050032686   -0.32313135     0.035949313   -0.21213785    -0.00038423966
   7335000   0.049735181   -0.32320046     0.036419973   -0.21218253     0.00017888826
   7336000   0.049840087   -0.32338402     0.036223205   -0.2124055     -0.00031712813
   7337000   0.049692852   -0.32274431     0.03505669    -0.21315315     0.00085150708
   7338000   0.050050314   -0.32313115     0.035411647   -0.21264887     0.0005634994 
   7339000   0.049483531   -0.3236098      0.036383333   -0.21300596     3.0758813e-05
   7340000   0.050121766   -0.3235417      0.035780406   -0.2125835     -0.00050424089
   7341000   0.049981807   -0.32301235     0.036105466   -0.21193902    -0.00036959263
   7342000   0.049806341   -0.32295304     0.036037943   -0.21221041     0.00019446735
   7343000   0.049744129   -0.32334004     0.036050654   -0.21267801    -0.00029576861
   7344000   0.049934751   -0.32270717     0.036552273   -0.2112576     -0.00075067372
   7345000   0.049749494   -0.32281315     0.035726997   -0.21246673     0.00025539347
   7346000   0.05015055    -0.32336666     0.036436282   -0.21170941    -0.00039512733
   7347000   0.049342388   -0.32290264     0.036456797   -0.21243704    -0.00020871322
   7348000   0.050671304   -0.32295075     0.035418029   -0.21153067     0.00046619601
   7349000   0.050300302   -0.32335937     0.036208626   -0.21170516     5.1943084e-05
   7350000   0.050563836   -0.32339566     0.035548714   -0.21200609    -0.00034528675
   7351000   0.050097697   -0.32295701     0.035807834   -0.21200748    -0.00053528436
   7352000   0.049816978   -0.32300836     0.035889703   -0.21239801     0.00082289497
   7353000   0.050064824   -0.32343002     0.035994796   -0.21234284    -2.3999573e-05
   7354000   0.050176184   -0.32290033     0.035972511   -0.2116684      0.00015534035
   7355000   0.049854825   -0.32334161     0.035848359   -0.21271584     4.4998358e-05
   7356000   0.049356065   -0.32290675     0.035626099   -0.21325133     3.0262045e-05
   7357000   0.050016867   -0.32289968     0.036354799   -0.21152442    -0.00017731888
   7358000   0.050113404   -0.32279673     0.035897973   -0.2117335      0.00070956489
   7359000   0.050259883   -0.32308429     0.036364163   -0.21133516     4.7300022e-05
   7360000   0.050049363   -0.32282475     0.035515456   -0.21224009     0.0004402514 
   7361000   0.050382608   -0.32296882     0.035928404   -0.21147138    -0.00098724724
   7362000   0.050767476   -0.32321936     0.03613817    -0.21093489     0.00030602215
   7363000   0.049498542   -0.32284795     0.03602819    -0.21257673     0.0010812594 
   7364000   0.050298869   -0.32353422     0.03609103    -0.21199975    -0.00039439896
   7365000   0.050277642   -0.3232673      0.036374494   -0.21148121     0.00045291934
   7366000   0.050145099   -0.32330783     0.035789914   -0.21230512    -0.00016317885
   7367000   0.049695555   -0.32332589     0.035865736   -0.21292163     0.00025471316
   7368000   0.049982159   -0.32343711     0.035321758   -0.21314695     0.00021961957
   7369000   0.049795052   -0.32310193     0.0360297     -0.21238447     0.00025973268
   7370000   0.050007186   -0.32354891     0.035927942   -0.21261503    -6.3109196e-05
   7371000   0.049511443   -0.32330227     0.035818945   -0.21322095     4.9638588e-05
   7372000   0.049463903   -0.32332303     0.036415188   -0.21271678    -0.00013173375
   7373000   0.049860295   -0.32287101     0.035912347   -0.21217304    -0.00039889737
   7374000   0.049738609   -0.3229159      0.03586967    -0.21244313     0.00041799   
   7375000   0.050077711   -0.32322542     0.036132437   -0.21198126     0.00033109263
   7376000   0.050008953   -0.3233012      0.036132437   -0.21216017     0.0001859463 
   7377000   0.049958934   -0.32330355     0.035673052   -0.21269693     0.00035355821
   7378000   0.049681587   -0.32307774     0.036287941   -0.21227223    -0.00047128731
   7379000   0.049950683   -0.32322162     0.035853121   -0.21244731    -0.00030641929
   7380000   0.050037635   -0.32308767     0.036158172   -0.21187789     0.00025564097
   7381000   0.049464256   -0.32361128     0.036155372   -0.21326431    -0.00011099897
   7382000   0.049926149   -0.32335854     0.035758193   -0.21271595     0.00027904404
   7383000   0.049710348   -0.32327712     0.035649137   -0.21306728     7.5324012e-05
   7384000   0.0496369     -0.32327036     0.035807795   -0.21301201     0.00030263442
   7385000   0.049387965   -0.32334422     0.035848241   -0.21341881     0.0005440457 
   7386000   0.049543511   -0.32320015     0.036417937   -0.21247174    -0.0015086563 
   7387000   0.050131418   -0.32328009     0.03607488    -0.21201294    -0.00029362644
   7388000   0.05029482    -0.32322046     0.036025201   -0.2117579      0.00022271529
   7389000   0.049542956   -0.32351791     0.036541608   -0.21266667    -0.00013589552
   7390000   0.050163497   -0.32331169     0.036461649   -0.21160965     1.6236857e-05
   7391000   0.050324379   -0.32322683     0.036157775   -0.21158736     0.00094354028
   7392000   0.05010796    -0.32287792     0.035959676   -0.21176115     0.00043134659
   7393000   0.050130387   -0.32322594     0.035471812   -0.2125634      0.00022926361
   7394000   0.050070588   -0.32315254     0.036193249   -0.21185825     0.00087290633
   7395000   0.049602353   -0.32352853     0.036548178   -0.21258162    -0.00014284458
   7396000   0.050019882   -0.32360585     0.035779809   -0.21280106     0.00050457497
   7397000   0.049789254   -0.32331662     0.035948483   -0.21268907    -0.00099192746
   7398000   0.05034801    -0.3234273      0.035837971   -0.21207219     0.00027889494
   7399000   0.050511046   -0.32376782     0.035713428   -0.21229271    -0.00046664518
   7400000   0.050000588   -0.32350096     0.036286614   -0.21221831    -0.00013879183
   7401000   0.0502877     -0.32365981     0.035763008   -0.21247011    -0.00025171413
   7402000   0.050342368   -0.32327045     0.037110291   -0.21065147    -0.00084004492
   7403000   0.050566281   -0.32342884     0.03582135    -0.21176296     0.00039511608
   7404000   0.049712519   -0.32308692     0.03657881    -0.21194414     0.00040250368
   7405000   0.050481487   -0.32315095     0.035959681   -0.21147392    -0.00022333876
   7406000   0.04990789    -0.32360606     0.035895029   -0.21285403    -0.0005726006 
   7407000   0.050695007   -0.32334308     0.035910892   -0.21139458     0.00033232169
   7408000   0.050007759   -0.32364175     0.035977221   -0.21265773    -0.00062869772
   7409000   0.049933498   -0.32324337     0.035827638   -0.21252031     0.00032310595
   7410000   0.049979824   -0.32376269     0.035592812   -0.21320498    -0.00036856148
   7411000   0.050036882   -0.32380423     0.03593009    -0.21282366     8.1114117e-05
   7412000   0.049941687   -0.3234933      0.03655911    -0.21202649    -0.00014007502
   7413000   0.049838219   -0.32305772     0.035979172   -0.21232604     0.00019072043
   7414000   0.050371475   -0.32340632     0.036367117   -0.21148687    -0.0001545671 
   7415000   0.050418937   -0.32355085     0.035815894   -0.21211143    -0.00084611736
   7416000   0.049888998   -0.32353717     0.036021485   -0.21268702    -0.00018173799
   7417000   0.049338481   -0.32373282     0.036716999   -0.21301288    -0.0009592497 
   7418000   0.049963711   -0.32351286     0.035717869   -0.21285426     0.00031849963
   7419000   0.049655631   -0.32375792     0.035972532   -0.21330674     0.00019370034
   7420000   0.049976146   -0.32351325     0.035737957   -0.21281591     0.00090740862
   7421000   0.049880401   -0.32359248     0.035816385   -0.21296032     0.00011270964
   7422000   0.049279683   -0.32380584     0.035898865   -0.21399222    -0.00043231372
   7423000   0.049722168   -0.32368737     0.036042927   -0.213066       0.00053605763
   7424000   0.049973434   -0.32369876     0.036035937   -0.21270751     0.00018450951
   7425000   0.050286069   -0.32363231     0.036218928   -0.21198914    -0.0013790257 
   7426000   0.049863872   -0.3236255      0.036365482   -0.21246904    -0.00051516961
   7427000   0.049761465   -0.32373562     0.03593391    -0.21316432     0.000734665  
   7428000   0.049560151   -0.32407585     0.03645091    -0.21328951    -4.5317033e-05
   7429000   0.050231423   -0.32346517     0.036135352   -0.21198754     5.705259e-06 
   7430000   0.049772832   -0.32353569     0.035550199   -0.21333106    -0.00027314035
   7431000   0.049831452   -0.32347527     0.035661333   -0.21307158     0.00022752207
   7432000   0.050270395   -0.32343528     0.035800686   -0.21223386     0.00035423425
   7433000   0.049997249   -0.3237831      0.036078769   -0.2127133      4.2630872e-06
   7434000   0.049733213   -0.32330381     0.036494259   -0.21221455    -3.8351209e-05
   7435000   0.049883542   -0.32361091     0.036231156   -0.21255927    -4.7496648e-05
   7436000   0.050416524   -0.32348423     0.036221337   -0.21164299     0.00060874832
   7437000   0.049770882   -0.32343824     0.036232237   -0.21255449    -0.0012935471 
   7438000   0.0499542     -0.32373301     0.035924905   -0.21288164     6.7006344e-05
   7439000   0.049684252   -0.32354186     0.035619569   -0.21340072     0.00073032864
   7440000   0.049625715   -0.32385071     0.036009614   -0.21340732     0.00087403386
   7441000   0.050388131   -0.32333917     0.036249847   -0.211512      -1.808804e-05 
   7442000   0.050226962   -0.32337049     0.035939537   -0.21209537     0.0008511422 
   7443000   0.049698954   -0.32356752     0.035607277   -0.21341662     0.0012660089 
   7444000   0.05000847    -0.32406042     0.03594355    -0.213109       0.00023970668
   7445000   0.049741358   -0.32347882     0.035904103   -0.2129675      0.00016509577
   7446000   0.050254824   -0.32348454     0.036850106   -0.21125706     0.00013422236
   7447000   0.04997387    -0.32316294     0.036093682   -0.21211329     0.00024049035
   7448000   0.049731126   -0.3236933      0.035907222   -0.2131942     -0.00085321906
   7449000   0.050013792   -0.3237573      0.035860712   -0.21288074    -0.00031256715
   7450000   0.050603086   -0.32332221     0.035718731   -0.21170375     0.0011589925 
   7451000   0.050099675   -0.32345321     0.036006489   -0.21230205    -0.00027139807
   7452000   0.050301531   -0.3237109      0.036217627   -0.21204584    -4.9286072e-05
   7453000   0.050352555   -0.32313985     0.035724985   -0.21189091     0.000259416  
   7454000   0.050474615   -0.3234473      0.036042813   -0.21169745     5.606186e-05 
   7455000   0.049952576   -0.32314471     0.035750042   -0.21247063     0.00033349416
   7456000   0.049860034   -0.32372512     0.036904963   -0.21203494    -0.00047120469
   7457000   0.04969328    -0.32355568     0.035986999   -0.21303357    -0.00094066906
   7458000   0.050070162   -0.32418176     0.035034958   -0.21404641     0.00046524054
   7459000   0.050014812   -0.32370892     0.035959236   -0.21273231    -0.0005412549 
   7460000   0.049874835   -0.32363839     0.035671916   -0.21315905    -0.00057112066
   7461000   0.050015431   -0.3239116      0.035989995   -0.2129033      0.00075492131
   7462000   0.050066347   -0.3237221      0.035662981   -0.21296444     0.00037271097
   7463000   0.050096007   -0.32372147     0.036234683   -0.21234762    -0.00039559186
   7464000   0.050183186   -0.32378811     0.03601123    -0.21250696    -0.00084135738
   7465000   0.049984264   -0.32326691     0.036050906   -0.21224444     0.00040528577
   7466000   0.050083154   -0.32393939     0.036261846   -0.21255765    -0.00046274007
   7467000   0.050329831   -0.32381878     0.036120169   -0.21220873     1.5513156e-05
   7468000   0.050632499   -0.32414265     0.035831998   -0.2123668     -0.00095265942
   7469000   0.049584421   -0.32385336     0.036174654   -0.21330688    -0.00034880107
   7470000   0.049950992   -0.32388961     0.036060275   -0.21290769     0.00060371239
   7471000   0.049853809   -0.32380228     0.035720605   -0.21330578    -0.00035846223
   7472000   0.049567055   -0.32375129     0.036119813   -0.21328569    -0.00023895854
   7473000   0.050302195   -0.32388323     0.036110512   -0.21232429     0.00011705527
   7474000   0.050229514   -0.32360519     0.035448984   -0.21281679     9.5530656e-05
   7475000   0.0502369     -0.32390953     0.035361139   -0.21319791     0.0005741719 
   7476000   0.049918557   -0.32399635     0.035439218   -0.21368413    -0.00020724105
   7477000   0.049530512   -0.32394768     0.036097671   -0.21355904     0.00014990213
   7478000   0.05037164    -0.32392691     0.035589294   -0.21278503     0.00011480676
   7479000   0.049956061   -0.32440555     0.035598478   -0.21387781     0.00034163523
   7480000   0.049238149   -0.32388247     0.035251541   -0.21477847    -0.00094165005
   7481000   0.049424642   -0.32391276     0.035795655   -0.21398493     0.00085117314
   7482000   0.050133346   -0.3238219      0.035855967   -0.21277076    -3.4397111e-05
   7483000   0.049838975   -0.32402138     0.035824569   -0.21344318     0.00054615531
   7484000   0.050342999   -0.32398779     0.036435086   -0.21204308    -0.0011000777 
   7485000   0.049942578   -0.32331391     0.036216402   -0.21218847     0.00080634465
   7486000   0.04993171    -0.32392014     0.035914639   -0.21311277    -0.00046607605
   7487000   0.049842303   -0.32362215     0.036129058   -0.21273446     0.00060852941
   7488000   0.050068211   -0.32346361     0.036166507   -0.21219964     0.0002469859 
   7489000   0.050224966   -0.32382065     0.035355149   -0.21313292    -0.00046228266
   7490000   0.050045683   -0.32383021     0.035735838   -0.21303069     0.00057752777
   7491000   0.049851201   -0.32395079     0.035790492   -0.21338832    -0.00013066512
   7492000   0.050684487   -0.32361378     0.035639479   -0.21195248     0.00051353267
   7493000   0.049703805   -0.32368417     0.036233147   -0.21290013     0.00060128089
   7494000   0.04957583    -0.32409883     0.035775864   -0.21396402    -0.00075553802
   7495000   0.050208784   -0.32410288     0.036139972   -0.21265459     0.00024022801
   7496000   0.050245484   -0.32380625     0.035957845   -0.21248504    -0.00020882176
   7497000   0.050296916   -0.32343431     0.036487117   -0.21150668    -0.00072220085
   7498000   0.050673642   -0.32360341     0.036217471   -0.21138038     0.00016443078
   7499000   0.050598612   -0.32379888     0.036552768   -0.21135309    -8.4104347e-05
   7500000   0.049687875   -0.32399392     0.036191525   -0.21327539     1.2532839e-05
   7501000   0.050609698   -0.3236788      0.035787978   -0.21198118     0.00047990581
   7502000   0.049918528   -0.32368353     0.035704056   -0.21310652    -0.00035450498
   7503000   0.049960895   -0.32427991     0.035464391   -0.21387901    -0.0003327996 
   7504000   0.050189395   -0.32390542     0.036083112   -0.21254308     0.00015897463
   7505000   0.049449941   -0.32342894     0.036401395   -0.21285742    -8.9260437e-05
   7506000   0.049637704   -0.32396696     0.035600976   -0.21391423    -0.00027807161
   7507000   0.049585247   -0.32383909     0.035389256   -0.21407676     3.279443e-05 
   7508000   0.049474835   -0.32378067     0.036047935   -0.21352527    -0.00027834964
   7509000   0.049643315   -0.32366127     0.036154157   -0.21304694     6.3724026e-05
   7510000   0.050062686   -0.32378626     0.035880276   -0.2128168     -0.00038039381
   7511000   0.049987019   -0.32426842     0.035287375   -0.21400536     0.00034697807
   7512000   0.049956953   -0.32398098     0.035348246   -0.21370214    -0.0009644259 
   7513000   0.049230882   -0.32412097     0.035456834   -0.21482257     0.00019475044
   7514000   0.050035198   -0.32392186     0.035803029   -0.21307088    -8.3569676e-05
   7515000   0.050794759   -0.32399992     0.035801431   -0.21201127     0.00071138732
   7516000   0.049818332   -0.32375326     0.036122002   -0.21290858    -0.00075409135
   7517000   0.049831664   -0.32416256     0.036013815   -0.21340607     0.00030022718
   7518000   0.050518839   -0.32417902     0.036256594   -0.21214906     0.00056276873
   7519000   0.049990278   -0.32378609     0.036352685   -0.21245283    -0.00051959243
   7520000   0.050716947   -0.32406359     0.036606752   -0.21138632    -0.00032704251
   7521000   0.050573696   -0.32395908     0.036164523   -0.21193891     0.00017937249
   7522000   0.050543962   -0.32404093     0.036198022   -0.21203186    -3.7065325e-05
   7523000   0.05021119    -0.32403798     0.036449437   -0.21227662    -0.00024531283
   7524000   0.049641813   -0.32386609     0.036626409   -0.21278176    -0.0010298401 
   7525000   0.049927553   -0.32414394     0.036085519   -0.21317192    -0.00014011584
   7526000   0.049515674   -0.32391923     0.035665987   -0.21398452    -0.00039116837
   7527000   0.050257259   -0.32368993     0.035713181   -0.21259573     0.00024141962
   7528000   0.05042999    -0.3238054      0.036129583   -0.21203571     0.00013750828
   7529000   0.049788965   -0.32384704     0.035662861   -0.21350555     0.00067327437
   7530000   0.0500025     -0.32408305     0.035131156   -0.21395299    -2.1477889e-05
   7531000   0.04986889    -0.32397068     0.036311211   -0.21286096    -3.1433893e-05
   7532000   0.050193842   -0.32437387     0.03578157    -0.2133064     -0.00036925152
   7533000   0.049743481   -0.32400602     0.036722607   -0.21267301    -0.00043002933
   7534000   0.050445119   -0.32423073     0.035775184   -0.21279275    -0.00034586187
   7535000   0.050383208   -0.32400318     0.035392409   -0.21304084     0.00090668619
   7536000   0.049689004   -0.32405982     0.036723417   -0.21280771     1.1748215e-05
   7537000   0.049876487   -0.3240755      0.036109378   -0.21315622     0.00023432046
   7538000   0.049140354   -0.32442697     0.036275583   -0.21444562     0.00044759922
   7539000   0.049656072   -0.32386038     0.035743679   -0.2136374      2.4882684e-05
   7540000   0.050222744   -0.32353606     0.036921895   -0.21128491     0.00059078793
   7541000   0.050333217   -0.32375879     0.036261153   -0.21200268     0.00030288939
   7542000   0.050293735   -0.32400295     0.036630219   -0.211937      -0.00075971945
   7543000   0.049964481   -0.32412059     0.03651029    -0.21266842     0.00031541418
   7544000   0.050006672   -0.32428761     0.036554713   -0.21272772     0.00043543001
   7545000   0.050399313   -0.32416335     0.035443936   -0.21312532     0.00036620398
   7546000   0.049599804   -0.32410168     0.036236952   -0.21346982     0.00021019799
   7547000   0.049391913   -0.32398486     0.035596206   -0.21430556     0.00051502041
   7548000   0.049904407   -0.32416133     0.035617768   -0.21369178     0.00023356532
   7549000   0.050121896   -0.32382302     0.035947523   -0.21269751    -0.00090463974
   7550000   0.050099917   -0.32445363     0.035883407   -0.2134252     -0.00032537607
   7551000   0.050758908   -0.32400007     0.036246682   -0.21161993    -0.00036689092
   7552000   0.050204738   -0.32420769     0.036279657   -0.21262578    -0.00018009549
   7553000   0.050044749   -0.32433702     0.036113997   -0.21316075    -0.00082919143
   7554000   0.05011792    -0.32437591     0.035651223   -0.21355266     0.0001646102 
   7555000   0.04993753    -0.32426104     0.035924851   -0.21343473    -0.00013695114
   7556000   0.049863105   -0.32387403     0.035652035   -0.21343216     7.2501574e-05
   7557000   0.050250658   -0.32364224     0.0356519     -0.21261922     0.00042418225
   7558000   0.05010031    -0.32387274     0.035637555   -0.21308957     0.00014069435
   7559000   0.050416547   -0.32427948     0.035993763   -0.21266577    -0.00061627486
   7560000   0.04980517    -0.32421438     0.036199667   -0.21331178     0.00065547648
   7561000   0.049974972   -0.32432937     0.036624668   -0.21274708     0.00074022023
   7562000   0.049799917   -0.32438067     0.036398112   -0.2132875     -0.000134791  
   7563000   0.051063953   -0.32397274     0.035516411   -0.21186534     0.00037360871
   7564000   0.050079934   -0.32379649     0.036188238   -0.21249319     0.00014598234
   7565000   0.050186244   -0.3242029      0.036153643   -0.21277475     0.00020957843
   7566000   0.049999602   -0.32413267     0.036507798   -0.21263031    -5.0846691e-05
   7567000   0.04937962    -0.32398459     0.035736686   -0.21418326    -0.00078473401
   7568000   0.049781997   -0.32391508     0.035574041   -0.21367286    -0.00012077434
   7569000   0.049917716   -0.32385922     0.036160896   -0.21282658    -0.00050435344
   7570000   0.050136289   -0.32410292     0.035471282   -0.21343206     0.0007734315 
   7571000   0.049991836   -0.32388963     0.035875832   -0.21303088     0.00081506177
   7572000   0.049642779   -0.32378359     0.036410858   -0.21291337    -0.00060031928
   7573000   0.050068873   -0.32386612     0.035113103   -0.21365456     0.00086979674
   7574000   0.049906549   -0.3240975      0.03629411    -0.21294839    -0.00026726387
   7575000   0.050736645   -0.32436542     0.035700477   -0.21256488     0.00041341284
   7576000   0.050206398   -0.32415377     0.035532003   -0.21331703     0.00011326105
   7577000   0.050593501   -0.32448405     0.035088888   -0.2135098     -0.00044943624
   7578000   0.050198481   -0.32407177     0.035953652   -0.21282525     0.00045816844
   7579000   0.05049849    -0.32401297     0.035983434   -0.21228669     2.491918e-05 
   7580000   0.050422402   -0.3239555      0.035420822   -0.21290595     0.00066182823
   7581000   0.049958893   -0.32394471     0.03592655    -0.21308466    -9.9175997e-05
   7582000   0.049986029   -0.32361534     0.036192325   -0.21244881     0.00049309713
   7583000   0.050108202   -0.32394654     0.036334973   -0.21245411     0.00038603035
   7584000   0.050362426   -0.32400738     0.035179723   -0.21328889     0.00051726232
   7585000   0.049361001   -0.32439623     0.036369828   -0.21398968    -0.00096967391
   7586000   0.049310783   -0.32410587     0.036404706   -0.21373976     0.00079929379
   7587000   0.050090643   -0.32463204     0.035710843   -0.21379008     8.6840947e-05
   7588000   0.048956071   -0.32402451     0.036384862   -0.21421028     0.00029338409
   7589000   0.049377195   -0.32429392     0.035883113   -0.21434979     0.00059657033
   7590000   0.049946036   -0.32414679     0.035921364   -0.21331121     0.00023182775
   7591000   0.04998935    -0.32440264     0.035722571   -0.21370088    -0.00014358187
   7592000   0.050485257   -0.3244083      0.035723451   -0.21296185    -0.00081048642
   7593000   0.050228445   -0.32408122     0.035882774   -0.21286064     0.00015881927
   7594000   0.05010368    -0.32420506     0.036421184   -0.2126332     -0.00026938135
   7595000   0.049548446   -0.32427148     0.036068809   -0.2138848     -0.00052090699
   7596000   0.049851517   -0.32474695     0.03636965    -0.21360485    -0.00063467672
   7597000   0.050332777   -0.32468197     0.036075545   -0.21311213     3.7047089e-06
   7598000   0.049239723   -0.3242519      0.035748658   -0.21464843    -0.00067614606
   7599000   0.050245025   -0.32452263     0.036133603   -0.21302635    -0.0010122771 
   7600000   0.049876618   -0.32442138     0.035759071   -0.2138522      0.00034995507
   7601000   0.04971866    -0.32469948     0.03558313    -0.21454318    -0.00011723095
   7602000   0.050106772   -0.32445604     0.035841159   -0.21345958     0.00078646047
   7603000   0.050162017   -0.32438732     0.03565943    -0.21348972    -0.00061925107
   7604000   0.050223095   -0.32450324     0.036106877   -0.21306658    -4.4385417e-05
   7605000   0.050091167   -0.32471011     0.036296837   -0.21328137    -0.0005759573 
   7606000   0.050609137   -0.32476588     0.035668981   -0.21318809    -0.00011073471
   7607000   0.050224776   -0.32403542     0.035744702   -0.21295841     0.00095370553
   7608000   0.049748937   -0.32442866     0.035511035   -0.21429903     0.00031025277
   7609000   0.050364432   -0.32467562     0.036377096   -0.21275675     0.00026454481
   7610000   0.049697848   -0.32478546     0.035840277   -0.21440322    -0.00063574346
   7611000   0.049579758   -0.32452497     0.035918473   -0.21424166     0.00037671353
   7612000   0.049939406   -0.32433984     0.035713002   -0.21372256    -2.9972664e-05
   7613000   0.050131007   -0.32423584     0.035593388   -0.21345079     0.00057048491
   7614000   0.049620884   -0.32446728     0.03592666    -0.21411409    -0.00073396682
   7615000   0.051101217   -0.32459063     0.035944502   -0.21199925    -0.00027786317
   7616000   0.050272593   -0.32439502     0.035357095   -0.2136339     -0.00033010508
   7617000   0.049678549   -0.32397191     0.036302633   -0.21315626     0.00038414231
   7618000   0.049901049   -0.32441853     0.036113089   -0.21345869    -7.7873521e-05
   7619000   0.049518955   -0.32478438     0.036111321   -0.21439942    -0.00044290061
   7620000   0.050086812   -0.32450736     0.036339248   -0.21304274    -0.00068154753
   7621000   0.050238438   -0.32441897     0.036209956   -0.21285622    -0.00050599947
   7622000   0.050471215   -0.32444258     0.035748889   -0.21299175     6.8546972e-05
   7623000   0.049557908   -0.32416524     0.035769586   -0.21406359     0.00010955196
   7624000   0.05008032    -0.32416493     0.035454865   -0.21359443    -0.0003593548 
   7625000   0.049658628   -0.32460516     0.035524247   -0.21459778    -0.00042073218
   7626000   0.050322588   -0.32448791     0.035663697   -0.2133452      0.00037424159
   7627000   0.049799632   -0.32426636     0.036532451   -0.21303928    -0.00013277922
   7628000   0.049857256   -0.32416421     0.035755373   -0.21362778     0.00016707317
   7629000   0.050159155   -0.32411005     0.036339477   -0.2125367     -1.1110044e-05
   7630000   0.050625246   -0.32416784     0.036461161   -0.21177371    -0.00034497112
   7631000   0.050122242   -0.32450312     0.036142062   -0.21318255    -0.00011423414
   7632000   0.050266625   -0.32451096     0.036383506   -0.21273238    -0.0003896284 
   7633000   0.049724169   -0.32443389     0.035645431   -0.21420702    -5.2014693e-05
   7634000   0.049737127   -0.32449866     0.035591682   -0.2143061     -0.0004513643 
   7635000   0.049929426   -0.32479884     0.035758872   -0.21415066    -0.00055846547
   7636000   0.049753905   -0.32457321     0.036067595   -0.21387957    -0.00052248984
   7637000   0.050121763   -0.3246848      0.035855962   -0.21365104     0.00017892697
   7638000   0.04964794    -0.32446364     0.036217349   -0.21377919    -0.00029901911
   7639000   0.050419291   -0.32421988     0.035654892   -0.21294093    -0.00014878573
   7640000   0.049916802   -0.3241474      0.036035161   -0.21324187    -0.00024129488
   7641000   0.049798153   -0.32459088     0.035733394   -0.21416507     0.00089217388
   7642000   0.049693586   -0.32465806     0.036347287   -0.2137752      0.00015899748
   7643000   0.050033184   -0.32475579     0.036395008   -0.21331585     0.00040278689
   7644000   0.050351678   -0.32525936     0.036173995   -0.21356272    -0.0005147595 
   7645000   0.049693258   -0.32451127     0.036143509   -0.21383268    -0.00014085149
   7646000   0.049581242   -0.32469316     0.036110938   -0.21421516    -0.00026894007
   7647000   0.049681273   -0.32446127     0.036039142   -0.21390503    -0.00096924622
   7648000   0.050138663   -0.32436099     0.035654463   -0.21350338    -0.00048241015
   7649000   0.050141942   -0.32443118     0.036194521   -0.2130286     -0.00056120688
   7650000   0.050135456   -0.32421082     0.03616767    -0.21284482     3.3960505e-05
   7651000   0.050253767   -0.32438589     0.036725262   -0.21228484    -0.00095476531
   7652000   0.049988112   -0.32442851     0.036585771   -0.21286541     0.00020484426
   7653000   0.049968964   -0.32439274     0.036108113   -0.21333602    -0.00019462996
   7654000   0.049911424   -0.3244933      0.03580303    -0.21382797     0.00037305963
   7655000   0.049836237   -0.32453128     0.035326012   -0.21445574     0.00052432719
   7656000   0.049807982   -0.32462255     0.036006151   -0.21390925    -0.00020880429
   7657000   0.050517575   -0.32437057     0.035398515   -0.21320058     0.00084781504
   7658000   0.050122539   -0.32445936     0.035420732   -0.21385967    -0.00063714026
   7659000   0.04992448    -0.32429181     0.035827329   -0.21358259    -0.00013199242
   7660000   0.050417467   -0.32487925     0.036394048   -0.21286388    -0.00034322291
   7661000   0.050052447   -0.32466815     0.035783756   -0.21381057    -0.00029043737
   7662000   0.049752584   -0.32458636     0.036264093   -0.21369821    -0.00075780543
   7663000   0.049957623   -0.32440125     0.036245401   -0.21322425    -0.0011216685 
   7664000   0.050347284   -0.32433924     0.036568334   -0.21225486    -0.00039336463
   7665000   0.050144537   -0.32480418     0.035978588   -0.21361364     0.00025829003
   7666000   0.050167012   -0.3247436      0.035512607   -0.21398533     0.00032891718
   7667000   0.049969653   -0.32486521     0.036165167   -0.2137504      0.00016781294
   7668000   0.050332246   -0.32463236     0.035947324   -0.21319154     0.00018791229
   7669000   0.050095453   -0.32490092     0.035743081   -0.21401951    -0.00099760363
   7670000   0.050151228   -0.32452844     0.035780384   -0.21352607    -0.00045817202
   7671000   0.050032269   -0.32481127     0.036384238   -0.21338347    -0.00020133474
   7672000   0.050273884   -0.32447051     0.035940922   -0.21312362     0.0003078525 
   7673000   0.050114458   -0.32488908     0.035942454   -0.21377979     0.000247297  
   7674000   0.049176665   -0.32472369     0.035561941   -0.21540151     0.00032793696
   7675000   0.049739193   -0.32507945     0.036656944   -0.21381853    -0.001842511  
   7676000   0.050446393   -0.32421383     0.036405345   -0.21214377     0.0017839228 
   7677000   0.050254023   -0.32448847     0.036252522   -0.21285978    -6.0703069e-05
   7678000   0.049845465   -0.32484354     0.03628379    -0.21379638     0.00045134464
   7679000   0.04921832    -0.32488673     0.035856523   -0.21520749     2.0103064e-06
   7680000   0.049838688   -0.32479745     0.035709088   -0.21433515    -0.0007766764 
   7681000   0.049803554   -0.32464296     0.035917949   -0.2140245      0.00029709114
   7682000   0.050009403   -0.32467928     0.036128792   -0.21354122    -0.0012286718 
   7683000   0.049926713   -0.32479149     0.036688654   -0.2132176     -2.1073408e-05
   7684000   0.050297303   -0.32496554     0.035896844   -0.21362761     0.00042760433
   7685000   0.050360966   -0.32439337     0.036270229   -0.21258656    -0.00042357226
   7686000   0.050122078   -0.324732       0.035755404   -0.21379833    -0.00021728302
   7687000   0.050049177   -0.32487325     0.03692241    -0.21288192     5.8090895e-05
   7688000   0.05064539    -0.32486533     0.036385487   -0.21251666    -0.00027812607
   7689000   0.05073776    -0.32438459     0.036246961   -0.2120359      7.1536169e-06
   7690000   0.050043293   -0.32452114     0.036576011   -0.21288503     0.00064006548
   7691000   0.050109512   -0.32472115     0.036520566   -0.21304116    -0.00064459909
   7692000   0.050395216   -0.32426043     0.036144175   -0.21252831     0.00010909697
   7693000   0.049809363   -0.32456912     0.036414971   -0.21344492     4.5784752e-05
   7694000   0.049913346   -0.32483937     0.036271016   -0.21370317    -8.2127202e-05
   7695000   0.049639048   -0.32500753     0.036619193   -0.21393457    -0.00075687515
   7696000   0.050524845   -0.32514449     0.035690578   -0.21367153     0.001010608  
   7697000   0.050106043   -0.32506316     0.035238704   -0.21467024     0.00042650285
   7698000   0.049895973   -0.32464774     0.036598431   -0.21321018    -0.00038845341
   7699000   0.050043003   -0.32439398     0.036234887   -0.21309943    -4.0072602e-05
   7700000   0.050029965   -0.32468661     0.035560303   -0.2140862      0.00028786607
   7701000   0.049791262   -0.32518827     0.036272314   -0.21423388    -0.0005528374 
   7702000   0.050590185   -0.32437741     0.035896313   -0.21260071    -0.00012603252
   7703000   0.049877414   -0.32484196     0.035875486   -0.21415518     0.00049324245
   7704000   0.049898737   -0.32507463     0.036791003   -0.21344035    -0.00016272662
   7705000   0.049980851   -0.32447017     0.0358838     -0.21361993     0.00024456414
   7706000   0.050603551   -0.32478544     0.035897405   -0.21298761     0.00025960783
   7707000   0.050493376   -0.32469844     0.036024821   -0.21293844     0.00077202845
   7708000   0.05050169    -0.32509949     0.035743203   -0.21360864     0.0011502909 
   7709000   0.050206011   -0.32511898     0.036119789   -0.21369504    -0.0013369333 
   7710000   0.050511185   -0.32460508     0.035543248   -0.21329994     0.00093263844
   7711000   0.050340451   -0.32462611     0.035882269   -0.21323804    -0.00038594102
   7712000   0.049537474   -0.3247267      0.035927539   -0.21449774    -0.00030961243
   7713000   0.050090696   -0.32496711     0.036102263   -0.21373365     0.00018019714
   7714000   0.050212954   -0.32512435     0.035501818   -0.21430796    -0.00099524256
   7715000   0.050305047   -0.3250593      0.035355691   -0.2142509      0.00064025396
   7716000   0.049839826   -0.32478462     0.035715325   -0.21431437    -0.00035262181
   7717000   0.050648479   -0.32477196     0.035354718   -0.21344942     0.00022917546
   7718000   0.050129125   -0.3248913      0.035646552   -0.21405591     0.00062560589
   7719000   0.049804769   -0.32479129     0.035855286   -0.21423367     0.00036234193
   7720000   0.050124802   -0.32513955     0.036417273   -0.21353992    -0.00014877476
   7721000   0.05017491    -0.32477628     0.03646579    -0.21305298    -0.00057870089
   7722000   0.049893069   -0.32523792     0.036157603   -0.21424554    -0.0009008251 
   7723000   0.050001544   -0.32493122     0.035930968   -0.21400277     0.0001851654 
   7724000   0.050112096   -0.32468377     0.036360238   -0.21316024    -8.3249905e-05
   7725000   0.050224874   -0.32490786     0.036295148   -0.21328026     0.0008810231 
   7726000   0.049914762   -0.32486242     0.036247129   -0.21374797     0.00023751242
   7727000   0.050304608   -0.32473163     0.03602765    -0.21325193     0.00034488319
   7728000   0.050535147   -0.32484746     0.035824641   -0.21322499    -0.00010541605
   7729000   0.049975204   -0.32462452     0.035972516   -0.21369404    -6.1252024e-05
   7730000   0.050390892   -0.3250233      0.036384466   -0.21305737    -4.2625532e-05
   7731000   0.049723217   -0.32496836     0.036003394   -0.21438495    -0.00058685879
   7732000   0.049809183   -0.32465938     0.035712482   -0.21423794     0.00021767575
   7733000   0.049720027   -0.32433606     0.036632634   -0.21312819     4.2973022e-06
   7734000   0.050109642   -0.32462113     0.036017021   -0.2134445      0.00055293123
   7735000   0.050320976   -0.32477444     0.035947034   -0.21335082     0.00067749048
   7736000   0.049889042   -0.32479916     0.03660255    -0.21336788     0.00071944048
   7737000   0.049890411   -0.32493225     0.035549763   -0.2145517     -0.00077284357
   7738000   0.05022272    -0.32450459     0.036078152   -0.21309722     1.6411892e-05
   7739000   0.049461916   -0.32459725     0.035978589   -0.21443057     0.00022045062
   7740000   0.050111938   -0.32503727     0.03584695    -0.21402726     0.00059607122
   7741000   0.050140361   -0.32472136     0.035542133   -0.21397353    -0.00060413915
   7742000   0.050103009   -0.32511172     0.035731895   -0.21423016     0.00034877223
   7743000   0.049517929   -0.32505498     0.036203697   -0.21457918    -3.1081035e-05
   7744000   0.050009331   -0.32514194     0.036042822   -0.21408996    -0.0010662703 
   7745000   0.049610068   -0.32496282     0.035367314   -0.21518521     0.00043024632
   7746000   0.04970018    -0.32496586     0.035092374   -0.21532802     0.00053077572
   7747000   0.050286683   -0.32520559     0.035464863   -0.21431557    -0.00022565847
   7748000   0.05010885    -0.32488577     0.036694936   -0.21303241    -2.0106496e-05
   7749000   0.050451539   -0.32497674     0.036361706   -0.2129426      0.00014099905
   7750000   0.050488364   -0.32501977     0.036014369   -0.21327774    -0.00082083899
   7751000   0.050364545   -0.32437534     0.035664399   -0.213169      -0.00099867843
   7752000   0.050194689   -0.32450506     0.036511723   -0.21270616    -0.00056295215
   7753000   0.050667706   -0.3248721      0.035057359   -0.21381808     0.0013927383 
   7754000   0.05005247    -0.32486659     0.035941851   -0.21385088     0.00098876371
   7755000   0.049887984   -0.32469882     0.035640108   -0.21423157     0.0012321761 
   7756000   0.049857911   -0.32491349     0.036316433   -0.21381501    -0.00056484408
   7757000   0.04961198    -0.32485814     0.035753422   -0.21469155    -0.00082602028
   7758000   0.049548076   -0.32538384     0.03628272    -0.2147838     -0.00030757628
   7759000   0.049671955   -0.32500615     0.035691028   -0.214812      -0.0012820838 
   7760000   0.049964705   -0.32468722     0.03652084    -0.21322416     0.00058281841
   7761000   0.050414321   -0.32446603     0.035868124   -0.2129813      0.00032261999
   7762000   0.05017379    -0.32468823     0.036744669   -0.21268773    -0.00073721583
   7763000   0.050219464   -0.32485717     0.036395052   -0.21313778    -4.8957074e-05
   7764000   0.05027804    -0.32524234     0.035391123   -0.21443902     0.00010657167
   7765000   0.049836533   -0.32471916     0.036460425   -0.21350876    -0.00023387032
   7766000   0.050537509   -0.32473629     0.036354134   -0.21258078     0.00050273833
   7767000   0.050148889   -0.32455762     0.036407093   -0.21293205    -0.00048467442
   7768000   0.04990185    -0.32499295     0.035694069   -0.21445093     0.00059162212
   7769000   0.050211217   -0.32452626     0.03597643    -0.21323786     0.00069396613
   7770000   0.049974431   -0.32489227     0.035714844   -0.21422061    -0.00048026101
   7771000   0.050457431   -0.32482055     0.036013433   -0.21312585     9.7471287e-05
   7772000   0.050083894   -0.32492449     0.036407855   -0.21339564    -0.00075738954
   7773000   0.050024016   -0.32503167     0.035836545   -0.21416394     0.00076326124
   7774000   0.049854334   -0.32497763     0.03639095    -0.21381       -0.0010987934 
   7775000   0.050441328   -0.32481057     0.035969953   -0.21318351    -3.8520495e-05
   7776000   0.050286106   -0.32480335     0.035492407   -0.21388665    -0.00084399136
   7777000   0.050204788   -0.32492087     0.036225112   -0.21339344    -0.00030849458
   7778000   0.050843057   -0.32466977     0.03592139    -0.21248871    -4.5097613e-05
   7779000   0.050077433   -0.324613       0.03640327    -0.21309842    -0.00023880827
   7780000   0.050159244   -0.32492226     0.036350617   -0.21333763    -0.00020662523
   7781000   0.049662024   -0.32521654     0.036228654   -0.21449966    -0.00057032233
   7782000   0.049867088   -0.32454187     0.035829988   -0.21391607    -0.00036312504
   7783000   0.049908697   -0.3249049      0.035969925   -0.21407676     0.00031758029
   7784000   0.050522183   -0.32526045     0.036227077   -0.21325499     0.00045406618
   7785000   0.050089768   -0.32466        0.035951854   -0.21357834    -0.0001632394 
   7786000   0.049823094   -0.32498768     0.035946631   -0.21431123    -0.00057676049
   7787000   0.050378815   -0.32493596     0.03648057    -0.21289204     0.00069612052
   7788000   0.049788542   -0.32463934     0.036258204   -0.21370314    -0.00050713987
   7789000   0.050279649   -0.32477884     0.036179026   -0.21318521    -0.00023000576
   7790000   0.049581038   -0.3246446      0.03585792    -0.21441993     0.00037057433
   7791000   0.049912091   -0.3247402      0.036018489   -0.2138584     -0.00051293896
   7792000   0.050494446   -0.32474506     0.036038954   -0.21296933    -0.00012029258
   7793000   0.050359467   -0.32472342     0.036539546   -0.21264954    -0.00038156656
   7794000   0.05029228    -0.32523415     0.035757379   -0.21404322     0.00013807185
   7795000   0.049986751   -0.32503863     0.03599949    -0.21406385     4.0693526e-05
   7796000   0.050121692   -0.32468121     0.035841422   -0.2136621      0.00083246122
   7797000   0.050408572   -0.32495342     0.036205296   -0.21314015    -3.5987506e-05
   7798000   0.049630972   -0.32470105     0.036151617   -0.21410778    -0.00011852629
   7799000   0.050156511   -0.32481875     0.035960917   -0.21362792    -0.0003873726 
   7800000   0.050460405   -0.32500615     0.036017979   -0.21330245     5.2506643e-05
   7801000   0.050476419   -0.32526631     0.035872521   -0.21368405     0.00047726631
   7802000   0.049906361   -0.32492994     0.036221587   -0.21385364    -0.00099347149
   7803000   0.050170464   -0.3251404      0.035610143   -0.21427942    -0.00063030204
   7804000   0.049739689   -0.32499762     0.035549082   -0.21484382     0.001634172  
   7805000   0.050241619   -0.32491219     0.035557495   -0.21399713     0.00065172431
   7806000   0.049395469   -0.32509617     0.035608565   -0.21539918    -0.00061968989
   7807000   0.050082848   -0.32495154     0.036255045   -0.21357707     0.00019092156
   7808000   0.050455379   -0.32508418     0.03610952    -0.21329648    -8.2171026e-06
   7809000   0.050490209   -0.32512184     0.035882166   -0.21350925     0.0005842832 
   7810000   0.050300563   -0.32473688     0.0362592     -0.21303171    -0.00018348208
   7811000   0.049922946   -0.32447961     0.036213254   -0.21338677     0.00038210891
   7812000   0.049821234   -0.32421448     0.03551682    -0.21397063     0.001539874  
   7813000   0.049957053   -0.32464598     0.036165079   -0.21355016     3.7299673e-05
   7814000   0.050020796   -0.32484206     0.035891729   -0.21392398    -0.00019249735
   7815000   0.050169558   -0.32503192     0.035968156   -0.21381428    -9.7633725e-06
   7816000   0.049910212   -0.32509197     0.035783067   -0.21444841     0.00094927702
   7817000   0.049812788   -0.32521577     0.035981176   -0.21452023     0.00069584885
   7818000   0.049835418   -0.32503432     0.036382848   -0.21390317     0.00020042411
   7819000   0.049951783   -0.32520775     0.036111976   -0.21417294     0.00029803193
   7820000   0.050036839   -0.32514573     0.035835114   -0.2142602     -0.00038830991
   7821000   0.049701441   -0.32451847     0.035846972   -0.21412414     0.0001390564 
   7822000   0.049991606   -0.32500455     0.035651245   -0.21437074    -0.00096519423
   7823000   0.04953618    -0.32545338     0.035927625   -0.21522628    -0.00012803255
   7824000   0.050150824   -0.32507923     0.036507851   -0.21335        0.00045552538
   7825000   0.050069654   -0.32521098     0.036244141   -0.21386721    -0.000228897  
   7826000   0.049924337   -0.32477305     0.035997372   -0.21389401     0.00037382584
   7827000   0.05007862    -0.32474961     0.035877589   -0.21375893     3.467924e-06 
   7828000   0.049928331   -0.32473629     0.035988457   -0.21386017    -6.2423062e-05
   7829000   0.050224304   -0.32515489     0.036075409   -0.21374789    -4.9914815e-05
   7830000   0.050945603   -0.32508514     0.036252869   -0.2124188     -0.00057015628
   7831000   0.049923146   -0.32490086     0.035870945   -0.21415003    -0.00052963618
   7832000   0.050589388   -0.32522053     0.035747654   -0.21359368    -1.8452318e-05
   7833000   0.050104928   -0.32495741     0.035713701   -0.21409117     2.0041e-05   
   7834000   0.050331085   -0.32511618     0.035605901   -0.21401853     0.0013504773 
   7835000   0.04982189    -0.32501026     0.035723792   -0.21455845    -1.7013573e-05
   7836000   0.049707068   -0.32536328     0.036294183   -0.2145133     -0.00020484581
   7837000   0.050139418   -0.32572192     0.03672732    -0.21379032    -0.00079295576
   7838000   0.049885377   -0.32552045     0.035731507   -0.21496571    -3.6693599e-06
   7839000   0.049317659   -0.32534707     0.035958976   -0.21541638     0.00017194803
   7840000   0.050014036   -0.32518681     0.035428985   -0.21474161     0.00029491013
   7841000   0.049440838   -0.32524183     0.036061753   -0.2150236     -0.00035525689
   7842000   0.0500152     -0.32512814     0.036116149   -0.21399404     0.0012283317 
   7843000   0.049773476   -0.32550147     0.036235936   -0.21461013    -0.00018021954
   7844000   0.050164904   -0.325606       0.036581918   -0.21378158    -0.00022367025
   7845000   0.05070895    -0.32536524     0.035910119   -0.2133966     -0.00025208829
   7846000   0.050034381   -0.32501447     0.03637219    -0.21359555     8.0190584e-05
   7847000   0.050098259   -0.32487616     0.035541643   -0.21419197    -0.00039561876
   7848000   0.049942255   -0.32518245     0.035820118   -0.21445378     0.00067804241
   7849000   0.049965642   -0.32494084     0.036195143   -0.21380207     0.00049807664
   7850000   0.050291758   -0.32492377     0.035656708   -0.21383429    -5.0542432e-05
   7851000   0.050165718   -0.32502322     0.036101921   -0.21367758     0.0003761289 
   7852000   0.050119416   -0.3254758      0.036301955   -0.21399957    -7.8011811e-06
   7853000   0.050461619   -0.3248875      0.035877068   -0.21332288     0.00023798808
   7854000   0.05046224    -0.32523464     0.035573825   -0.21397234     0.0004987183 
   7855000   0.049839605   -0.32537389     0.035966171   -0.21465314     4.1242748e-05
   7856000   0.049418956   -0.32540991     0.036958944   -0.21432731    -0.0015888614 
   7857000   0.049693285   -0.32538099     0.035796226   -0.21504965    -0.0003478752 
   7858000   0.05057717    -0.32563571     0.036197688   -0.21357717     0.0002096848 
   7859000   0.050198336   -0.32562761     0.036626301   -0.21370866     0.0002617086 
   7860000   0.050256755   -0.32545552     0.036056857   -0.21401839    -9.4699767e-05
   7861000   0.049992376   -0.32507422     0.035583921   -0.21450658     0.00065268671
   7862000   0.050652022   -0.32482872     0.035459025   -0.21339656     0.0013104417 
   7863000   0.049972229   -0.32491666     0.036576917   -0.21338623    -0.00024119966
   7864000   0.0501946     -0.32518643     0.036302152   -0.21359723     0.00034669329
   7865000   0.050074177   -0.32530331     0.035990447   -0.21420644     0.00036644515
   7866000   0.049981069   -0.32532448     0.036668669   -0.21368904    -0.00026527059
   7867000   0.049844697   -0.32550781     0.035757814   -0.21498777    -0.00027039109
   7868000   0.050123048   -0.3252722      0.036242076   -0.2138504     -0.00024485059
   7869000   0.050286969   -0.32505597     0.035894856   -0.21373552    -0.00021735778
   7870000   0.050094278   -0.32531771     0.035801153   -0.21437999    -0.00012431993
   7871000   0.049654208   -0.32540157     0.035962513   -0.21496255     6.1432797e-05
   7872000   0.050270395   -0.32545056     0.035724967   -0.21432487     0.00011963275
   7873000   0.049481305   -0.32511137     0.036205352   -0.21468885     2.1789876e-05
   7874000   0.049923959   -0.32498888     0.035877864   -0.21422991     0.00045394298
   7875000   0.050268235   -0.32506632     0.035632124   -0.21403671     0.00042559097
   7876000   0.049643084   -0.3252959      0.0357288     -0.21510728     5.772724e-05 
   7877000   0.04957577    -0.32520833     0.035930359   -0.21491911    -0.00086758802
   7878000   0.050160612   -0.32551742     0.036109051   -0.2141723     -0.00019265474
   7879000   0.049930993   -0.3259315      0.035639127   -0.21540071     0.00044432695
   7880000   0.05045702    -0.32548534     0.03569128    -0.21411341    -0.00070975488
   7881000   0.050205114   -0.32569385     0.035805686   -0.21458535    -0.00021571397
   7882000   0.050156397   -0.32547444     0.035798858   -0.21444584     0.00011668525
   7883000   0.050016336   -0.32496874     0.035663924   -0.21428515     3.3073991e-05
   7884000   0.049915255   -0.32526962     0.036334388   -0.21406718    -0.00028317668
   7885000   0.050002357   -0.32538326     0.036370194   -0.21401437    -0.00076964714
   7886000   0.050270208   -0.32509977     0.035706889   -0.21399243    -0.00019920475
   7887000   0.050227424   -0.32558162     0.03584704    -0.2143983      0.00054320057
   7888000   0.050316206   -0.32513829     0.036121979   -0.21354687    -0.0001302313 
   7889000   0.050051256   -0.32518023     0.035904012   -0.21420418    -0.00066935514
   7890000   0.050255304   -0.32565887     0.035885241   -0.21439554     0.00047856717
   7891000   0.049734398   -0.32532198     0.035977033   -0.21474816     0.00084287462
   7892000   0.049670973   -0.32591279     0.035428147   -0.21598299     0.00012525821
   7893000   0.050094192   -0.32571463     0.035959028   -0.21461916    -0.00024948285
   7894000   0.050284184   -0.32552789     0.036305779   -0.2138007      0.0002881615 
   7895000   0.049870757   -0.32561882     0.036439553   -0.21437796     0.00027269099
   7896000   0.050215714   -0.32523004     0.036015495   -0.21389583     0.00017807146
   7897000   0.049659332   -0.32546902     0.035531489   -0.21545334     0.0009079304 
   7898000   0.050372082   -0.32576284     0.035321877   -0.21488771     0.00044943583
   7899000   0.04993781    -0.32548421     0.036323917   -0.21425841    -0.00044964673
   7900000   0.050305073   -0.32559784     0.036482728   -0.21366237    -0.00040082412
   7901000   0.050169577   -0.32538623     0.036814899   -0.21332183    -0.0002670902 
   7902000   0.049968168   -0.3253253      0.03640985    -0.21396803     0.00056996079
   7903000   0.050217576   -0.32526902     0.035863923   -0.21408359     0.00050450465
   7904000   0.050351782   -0.32562422     0.03601472    -0.2140867      0.00014100544
   7905000   0.049952178   -0.32541058     0.035380624   -0.21510652     0.00039838405
   7906000   0.050078606   -0.32537467     0.036490382   -0.21377123     0.00032178494
   7907000   0.049655114   -0.32549929     0.03617825    -0.21484318    -0.00028713124
   7908000   0.049838085   -0.32562177     0.035529135   -0.21534033    -0.00031069802
   7909000   0.050140138   -0.32543753     0.035818853   -0.21441332     0.00034095442
   7910000   0.049598894   -0.32578469     0.036113589   -0.21527756    -9.6775882e-06
   7911000   0.049788158   -0.32552957     0.035433715   -0.21541844    -0.00045150535
   7912000   0.049005004   -0.32509516     0.036301814   -0.21529059    -0.00038628242
   7913000   0.050059037   -0.32535609     0.036331627   -0.21394075    -0.00011760605
   7914000   0.05034324    -0.32568329     0.036097123   -0.21407618    -0.00040010872
   7915000   0.049859058   -0.32532824     0.036411573   -0.21413291    -0.00024255918
   7916000   0.050091071   -0.32568091     0.036112065   -0.21443709     0.00020734786
   7917000   0.050281858   -0.32558255     0.035605656   -0.21455897    -0.00023942462
   7918000   0.049238886   -0.32507818     0.035585517   -0.2156391      0.00010595937
   7919000   0.050023191   -0.32578702     0.036272881   -0.21448419    -0.00031557133
   7920000   0.050027321   -0.32568132     0.036559649   -0.21408553    -0.00054627913
   7921000   0.050113398   -0.32540382     0.035522968   -0.21471561    -0.00015120179
   7922000   0.049551683   -0.32531358     0.035874127   -0.21511673    -0.00093833403
   7923000   0.04972255    -0.32557702     0.036085074   -0.21491293    -0.0010404048 
   7924000   0.049246524   -0.32595695     0.036249211   -0.21584272    -0.00039479727
   7925000   0.050103331   -0.32571599     0.035571468   -0.21499437     7.3776907e-06
   7926000   0.05041117    -0.32530787     0.035650755   -0.21404524     0.0009845456 
   7927000   0.050306967   -0.32564301     0.036248978   -0.21393845     3.4625974e-05
   7928000   0.049713944   -0.32519286     0.036105492   -0.21452126    -0.00031893894
   7929000   0.049687317   -0.32552174     0.035910951   -0.21508462     0.00043081698
   7930000   0.049752404   -0.32569847     0.035583226   -0.21549145     1.8645261e-05
   7931000   0.049666878   -0.32546499     0.035903183   -0.2150663      7.4992428e-05
   7932000   0.049775191   -0.32556206     0.035627778   -0.21527631    -6.1789115e-05
   7933000   0.049912689   -0.32547426     0.03621365    -0.21439641     7.7271504e-05
   7934000   0.049975065   -0.32573474     0.035159475   -0.2156175     -0.00040903903
   7935000   0.05012592    -0.32587011     0.036072394   -0.21461368    -0.00054435445
   7936000   0.049767357   -0.32584539     0.035488529   -0.21571064    -0.00055976671
   7937000   0.04968364    -0.3257176      0.035834332   -0.21536262    -0.00017682103
   7938000   0.050169017   -0.3254445      0.035442382   -0.21475344     0.00014568003
   7939000   0.049582717   -0.32534048     0.035947509   -0.21502369    -0.00064431124
   7940000   0.049487776   -0.32562978     0.035730102   -0.21567281    -0.00060229253
   7941000   0.049772186   -0.32561766     0.036494374   -0.21446982    -0.00053681679
   7942000   0.049782526   -0.32553421     0.036112293   -0.21475294     0.00044849421
   7943000   0.050093638   -0.3255464      0.035818234   -0.21459255    -0.00033457669
   7944000   0.050078832   -0.32502861     0.036645343   -0.21326987     0.00067535176
   7945000   0.0499696     -0.32553666     0.035895285   -0.21469181     0.0011576725 
   7946000   0.050118894   -0.32566837     0.035851749   -0.21464313    -0.00058300906
   7947000   0.049947527   -0.32556652     0.035591987   -0.21505808     0.0014394027 
   7948000   0.049711442   -0.32571134     0.036363023   -0.21478597     0.00033051331
   7949000   0.050183001   -0.32569456     0.035632094   -0.21479282    -0.00029501101
   7950000   0.049770108   -0.32567776     0.035678428   -0.21534899     0.00021831115
   7951000   0.050027042   -0.32535996     0.036057844   -0.2142664      0.00017430832
   7952000   0.04998689    -0.32557498     0.036401805   -0.21419768     0.00018441059
   7953000   0.049714784   -0.32563608     0.036677255   -0.21439146    -0.00084312273
   7954000   0.050175765   -0.32571182     0.035775418   -0.21467761    -7.2223398e-05
   7955000   0.050348498   -0.32564519     0.035989398   -0.21413792    -4.0209818e-05
   7956000   0.050306309   -0.32568211     0.036238531   -0.21398899    -0.00051902915
   7957000   0.049963608   -0.32531535     0.036161934   -0.21421284    -0.00016802773
   7958000   0.049603712   -0.32583226     0.036098315   -0.21533317     0.00012386583
   7959000   0.049626611   -0.3262818      0.036195658   -0.21565103    -0.00064986503
   7960000   0.050137151   -0.32565666     0.036007806   -0.21444798     0.00087414132
   7961000   0.050217358   -0.32529291     0.036093208   -0.21387853     2.9504918e-05
   7962000   0.050365016   -0.32577946     0.035776387   -0.21446042    -0.00013612355
   7963000   0.05003688    -0.3259144      0.03599907    -0.21486485    -0.00036078028
   7964000   0.049941594   -0.32565418     0.035364184   -0.21538244     0.00060563209
   7965000   0.049254192   -0.32588821     0.036011626   -0.21600006    -5.2844719e-05
   7966000   0.050156799   -0.32586387     0.035947812   -0.21468572    -8.1055182e-05
   7967000   0.049936296   -0.32558343     0.036090761   -0.21459306    -0.00027877527
   7968000   0.050108342   -0.32553918     0.035682942   -0.21469858     0.0014692533 
   7969000   0.049951744   -0.32562123     0.036191995   -0.21450646    -0.0013120803 
   7970000   0.049404478   -0.32583096     0.036436164   -0.21529286    -0.00030227259
   7971000   0.049912349   -0.3262138      0.035498836   -0.21585127     0.00070580587
   7972000   0.05019917    -0.32614348     0.035782451   -0.21506713    -5.1542339e-05
   7973000   0.049985586   -0.32577136     0.036001213   -0.2147966     -5.9950861e-05
   7974000   0.050771495   -0.32585884     0.035762916   -0.21394359     0.00047863772
   7975000   0.049775284   -0.32562612     0.036061139   -0.21490687    -0.00048423842
   7976000   0.049789257   -0.32579388     0.035974836   -0.21513998    -0.00053531958
   7977000   0.049785562   -0.32611072     0.036323599   -0.21511359    -8.1241403e-05
   7978000   0.050223921   -0.32586428     0.036739897   -0.21379336    -0.00049098874
   7979000   0.050291705   -0.32564938     0.036221694   -0.21399499     0.0006261396 
   7980000   0.049684203   -0.32566976     0.03589665    -0.21525161     0.00038431556
   7981000   0.050272117   -0.32546575     0.03562475    -0.21443769    -0.0001411939 
   7982000   0.050138292   -0.32607911     0.03611321    -0.21476332    -0.00046060445
   7983000   0.049923141   -0.32585707     0.035971379   -0.21500581     0.00029271508
   7984000   0.050575845   -0.32564002     0.035583626   -0.21419753    -9.9562809e-06
   7985000   0.04998293    -0.32585364     0.036025643   -0.21485844     0.00052446558
   7986000   0.049896876   -0.32579797     0.036183799   -0.21477368    -0.00027602216
   7987000   0.049983064   -0.32577353     0.036449244   -0.21435453     0.00030259987
   7988000   0.050069326   -0.32572138     0.035460309   -0.21516192    -6.2520962e-05
   7989000   0.050605753   -0.32614189     0.036107167   -0.214131       0.00049936064
   7990000   0.050160924   -0.32601631     0.035902935   -0.21487684    -0.00045025536
   7991000   0.050519187   -0.32579004     0.035799185   -0.21421696     0.00058497731
   7992000   0.050382589   -0.32601713     0.035540279   -0.21490785     0.00022023289
   7993000   0.049937323   -0.32620432     0.035940198   -0.21536297     0.00011222126
   7994000   0.04980487    -0.3258204      0.036439814   -0.2146781     -0.00021893549
   7995000   0.049772644   -0.32586669     0.035930203   -0.21528233    -0.0008343744 
   7996000   0.049683794   -0.3255871      0.035859886   -0.21520633    -0.00061468986
   7997000   0.050396352   -0.32601514     0.035991967   -0.21443353    -0.00046023087
   7998000   0.04969843    -0.32570839     0.035846977   -0.21531858    -0.0013008368 
   7999000   0.050487666   -0.32591612     0.036164672   -0.21402484    -0.00055523451
   8000000   0.05002266    -0.32568861     0.035753448   -0.21490602     0.00085329353
   8001000   0.049902648   -0.32590531     0.036599057   -0.21445711     6.4351626e-05
   8002000   0.050668022   -0.32558503     0.035384283   -0.21420362     0.0012483649 
   8003000   0.050366221   -0.32534425     0.036269064   -0.21353073    -0.00042986304
   8004000   0.050060176   -0.32588984     0.036042869   -0.21476155     0.0010829709 
   8005000   0.049378923   -0.3254466      0.035595707   -0.21578729     7.5228951e-05
   8006000   0.049558716   -0.32601128     0.035596412   -0.21608159     0.00035927858
   8007000   0.049795204   -0.32618807     0.035982666   -0.21551742    -0.00058598573
   8008000   0.050117292   -0.32627747     0.03628891    -0.21481747    -0.0012089749 
   8009000   0.050069233   -0.32623375     0.035831093   -0.21530365     0.00095744924
   8010000   0.049913528   -0.32620944     0.036173444   -0.21517054    -0.00050596243
   8011000   0.050174341   -0.32601178     0.036533892   -0.21422123     6.8946101e-05
   8012000   0.049808399   -0.32569171     0.0361704     -0.21481354    -0.00014291785
   8013000   0.050246377   -0.32570968     0.035931562   -0.21441341     0.00047740361
   8014000   0.049891988   -0.32577564     0.036155517   -0.21478696     0.00011412329
   8015000   0.049685181   -0.32618454     0.035183937   -0.21647764     0.00013932394
   8016000   0.049744079   -0.32632834     0.035655786   -0.21606125    -0.00050404518
   8017000   0.049677802   -0.32578912     0.035831398   -0.21544583     1.8403445e-06
   8018000   0.050145476   -0.32604754     0.035676485   -0.21515769    -0.00022231779
   8019000   0.05000579    -0.32598185     0.036276443   -0.21470156    -0.00061586594
   8020000   0.049531929   -0.3255987      0.035760164   -0.21554544     0.00010301814
   8021000   0.049908349   -0.32559385     0.035814041   -0.21492211     0.0012864098 
   8022000   0.050745246   -0.32583493     0.035661697   -0.21406028    -0.00055285675
   8023000   0.050225465   -0.32574695     0.035926082   -0.21448753     0.00029356154
   8024000   0.050107175   -0.32577418     0.035879496   -0.21473877    -0.00021564751
   8025000   0.049931774   -0.32557475     0.035519441   -0.21516248     0.00063946149
   8026000   0.05023299    -0.32582456     0.035734505   -0.21474543     0.0002859611 
   8027000   0.050273543   -0.32613492     0.036117269   -0.2146122      0.00057855178
   8028000   0.050278947   -0.32577263     0.036265261   -0.21409382    -0.00010762718
   8029000   0.049875126   -0.32584827     0.035857062   -0.21518335     0.00099813453
   8030000   0.04947867    -0.3258736      0.035845139   -0.21581525    -0.00083945436
   8031000   0.050091045   -0.32621326     0.035978934   -0.2151026     -8.6761632e-05
   8032000   0.050238306   -0.32618965     0.035815939   -0.21502111     0.00099227409
   8033000   0.050318298   -0.32605008     0.036576876   -0.21400062    -0.0002317728 
   8034000   0.050372648   -0.32575699     0.035679455   -0.21452344     8.2879388e-05
   8035000   0.050154282   -0.32606944     0.035736748   -0.21510613    -4.0453884e-05
   8036000   0.050271743   -0.32568531     0.035897521   -0.21438504     0.00022443717
   8037000   0.050033551   -0.32610419     0.035777841   -0.21528086     0.00044935184
   8038000   0.050032791   -0.32634788     0.036190121   -0.21511341    -0.00020018391
   8039000   0.049630298   -0.32587339     0.036154556   -0.21527819    -0.00036335201
   8040000   0.049509625   -0.3256914      0.035620591   -0.21581117    -0.0003058129 
   8041000   0.049969782   -0.32615915     0.03602992    -0.21517939     0.00075075022
   8042000   0.049635554   -0.32602133     0.036216612   -0.21535619     0.00011156508
   8043000   0.049595438   -0.32565929     0.035344408   -0.21592652     0.00091890876
   8044000   0.049443583   -0.3259764      0.036347423   -0.21546839    -0.00024778234
   8045000   0.049889457   -0.32603133     0.036320462   -0.21488151     0.00050409262
   8046000   0.050212599   -0.32601361     0.035727454   -0.21497212     0.00032874438
   8047000   0.049666201   -0.32583219     0.036241166   -0.21509653    -0.00015004881
   8048000   0.049972759   -0.32596596     0.036110943   -0.21490071    -0.0001729103 
   8049000   0.049760412   -0.32596293     0.036755015   -0.21457211    -0.00040780272
   8050000   0.05010624    -0.32593668     0.036046477   -0.21473569     0.00023089819
   8051000   0.049515263   -0.32556481     0.03597497    -0.21532173    -0.00023640045
   8052000   0.050409145   -0.3255759      0.036305866   -0.2136612     -0.00011076216
   8053000   0.049964322   -0.32547787     0.036461423   -0.2140748     -0.00025007358
   8054000   0.04995391    -0.32553108     0.035737294   -0.21486775     0.00054652267
   8055000   0.050141163   -0.32552054     0.035974975   -0.21433868     0.0001824403 
   8056000   0.050241276   -0.32614147     0.035979874   -0.21480454     0.00035401612
   8057000   0.049816254   -0.32608719     0.036259096   -0.21510853    -0.00022043525
   8058000   0.050415594   -0.32550093     0.036033709   -0.21384871     0.00067671922
   8059000   0.050340426   -0.32601612     0.03624467    -0.21426568     6.9774603e-05
   8060000   0.049029783   -0.32607119     0.036112814   -0.21641845    -0.00045287866
   8061000   0.049591723   -0.32622817     0.03540287    -0.21644252     0.00047092037
   8062000   0.050130486   -0.32598674     0.035739242   -0.21505662    -0.00045857135
   8063000   0.049877022   -0.32581344     0.03570275    -0.21529999     0.00092662617
   8064000   0.049907248   -0.32590351     0.036681922   -0.21436554     9.650828e-05 
   8065000   0.049637462   -0.32585183     0.036132466   -0.21526797    -0.00042560156
   8066000   0.050213322   -0.32604756     0.035807372   -0.21492507     0.00030164504
   8067000   0.049953888   -0.32606383     0.035902336   -0.21523549     0.00051387719
   8068000   0.049647964   -0.32540148     0.03565552    -0.21527882     3.3902721e-05
   8069000   0.050233461   -0.32582953     0.03581318    -0.21467102    -0.00030813758
   8070000   0.050374432   -0.32596489     0.035839355   -0.21456876    -8.8937747e-05
   8071000   0.04993196    -0.32602271     0.036020254   -0.21510934    -0.00089708023
   8072000   0.050229297   -0.32624673     0.036746287   -0.21416136    -0.00021153091
   8073000   0.050212656   -0.32599299     0.035795676   -0.21488319     0.00075642483
   8074000   0.049601251   -0.32599451     0.035513819   -0.21608362     0.00065426652
   8075000   0.049827174   -0.32594865     0.035795466   -0.21541724     0.00090601002
   8076000   0.049850511   -0.32620531     0.035447815   -0.21598655     0.00090327335
   8077000   0.050375663   -0.32552845     0.036533476   -0.21343635     0.00012639228
   8078000   0.050145894   -0.32607268     0.035691774   -0.21516692     0.00067702329
   8079000   0.049697413   -0.32577571     0.036353482   -0.21488092     0.0002891445 
   8080000   0.049683318   -0.32648076     0.036457104   -0.21550349    -0.00062044652
   8081000   0.049730311   -0.32587191     0.035940883   -0.21534038    -0.00043004165
   8082000   0.050069428   -0.32550377     0.035686122   -0.21471835     0.00045833775
   8083000   0.049779145   -0.32584032     0.036016543   -0.21515988    -0.00049773083
   8084000   0.050780838   -0.32609008     0.036503384   -0.21342035    -8.3778662e-05
   8085000   0.050027272   -0.32588515     0.035926795   -0.21492228    -0.00095857576
   8086000   0.049517555   -0.32561438     0.036326818   -0.21501603    -8.2257289e-05
   8087000   0.050217006   -0.32613892     0.035968001   -0.21485027    -0.00059886397
   8088000   0.049817289   -0.325851       0.036185022   -0.21494487    -0.00072004408
   8089000   0.05007665    -0.32599285     0.035731278   -0.21515145    -0.00046395914
   8090000   0.049947661   -0.32586279     0.036216262   -0.21472987     0.00093804927
   8091000   0.049932115   -0.32565588     0.035824552   -0.21493799    -0.00014475636
   8092000   0.050569278   -0.3258485      0.035890853   -0.21410862    -5.1983316e-05
   8093000   0.05013702    -0.32624842     0.036418839   -0.2146289     -0.00030413421
   8094000   0.050017298   -0.32596809     0.036145533   -0.21480145    -0.00021538848
   8095000   0.050311678   -0.32608374     0.036366167   -0.21425493    -8.1555338e-05
   8096000   0.049917008   -0.32642853     0.036542969   -0.21501487     0.00024291164
   8097000   0.049985604   -0.32626231     0.035904707   -0.21538404     0.00024572359
   8098000   0.049597229   -0.32586896     0.035843486   -0.21563443    -0.00069845499
   8099000   0.050011831   -0.32579849     0.0357962     -0.21498939     0.00019698594
   8100000   0.049806172   -0.32632099     0.035984895   -0.21563166    -0.00097175569
   8101000   0.050228936   -0.32573512     0.035978333   -0.21441825    -4.4024508e-05
   8102000   0.049947947   -0.3256605      0.036930756   -0.21381266    -0.00051264434
   8103000   0.049843977   -0.32599391     0.036081936   -0.21515084    -0.00073212935
   8104000   0.049838273   -0.32635274     0.035245151   -0.21635501    -0.00018501047
   8105000   0.050141036   -0.32588455     0.036361118   -0.21431674    -0.00050325676
   8106000   0.049831025   -0.32552513     0.035838532   -0.21494488     0.00059141477
   8107000   0.050083081   -0.32602533     0.036046088   -0.21485947     0.00075142872
   8108000   0.049910322   -0.32626788     0.036137787   -0.21526944    -0.00019575376
   8109000   0.050240684   -0.32591743     0.035886784   -0.21467448    -0.00064887553
   8110000   0.050069638   -0.32555928     0.035816352   -0.21464331    -0.00046036212
   8111000   0.050042572   -0.32609136     0.035894894   -0.21513745    -5.5968504e-05
   8112000   0.049689651   -0.3259132      0.036209566   -0.21517397    -7.0851547e-05
   8113000   0.049864822   -0.3259963      0.035759292   -0.2154446      0.00025218222
   8114000   0.050051157   -0.32541215     0.036024075   -0.21431619    -0.00020118103
   8115000   0.049925495   -0.32602938     0.035873031   -0.21527293     0.00063560841
   8116000   0.049413522   -0.32600541     0.036578341   -0.21531157     9.9685697e-06
   8117000   0.049669068   -0.32612946     0.036382164   -0.2152485     -0.00065040814
   8118000   0.050283545   -0.32597172     0.036045121   -0.21450615     0.00036859982
   8119000   0.050508414   -0.32580067     0.035467446   -0.21457549     0.00091202107
   8120000   0.050014504   -0.32602157     0.035957706   -0.21504695     0.00050338842
   8121000   0.049688461   -0.32576462     0.035863168   -0.21537357    -5.5263673e-05
   8122000   0.050695668   -0.32603672     0.035191935   -0.21480619    -0.00031822451
   8123000   0.050206779   -0.32601219     0.03640881    -0.21429807    -0.00015969697
   8124000   0.050375172   -0.32634457     0.036261401   -0.21452528    -0.00044382338
   8125000   0.050558089   -0.32563625     0.035874933   -0.21392908     0.0011415822 
   8126000   0.05033706    -0.32587117     0.03517586    -0.21519459     0.0010282717 
   8127000   0.049983135   -0.32573631     0.036936484   -0.21382996    -0.00021642444
   8128000   0.049758714   -0.32557086     0.0359201     -0.2150175      0.00045629033
   8129000   0.049981424   -0.32572393     0.036060733   -0.2146959      0.00020643719
   8130000   0.050199172   -0.32582277     0.034895003   -0.21563387     0.0003940191 
   8131000   0.049470562   -0.32536311     0.035532805   -0.21562925     0.0001060013 
   8132000   0.04993091    -0.32571374     0.035982657   -0.21483955    -1.0928183e-06
   8133000   0.049909277   -0.32606214     0.035968099   -0.21523496    -0.00016527548
   8134000   0.050236837   -0.32648612     0.036194502   -0.21494123    -0.00026760257
   8135000   0.049735467   -0.32615832     0.035615934   -0.215944      -0.00035755609
   8136000   0.050140052   -0.32622471     0.036199612   -0.21481987    -0.00057544486
   8137000   0.050250236   -0.32565744     0.036258376   -0.21402857     0.00089028405
   8138000   0.050613864   -0.32589537     0.036286493   -0.21369298     0.0010270964 
   8139000   0.049962812   -0.32633419     0.03647213    -0.21492268     0.00013308354
   8140000   0.050253365   -0.32615377     0.035630145   -0.21514844    -0.00058396679
   8141000   0.050274558   -0.32604516     0.036445184   -0.21419301     0.00013929335
   8142000   0.050078885   -0.32618276     0.036122096   -0.21494719     0.00091423502
   8143000   0.05045362    -0.32632233     0.035958202   -0.21468858     6.38896e-05  
   8144000   0.049730605   -0.32576357     0.035694397   -0.21547808     0.00073217817
   8145000   0.050015853   -0.32609699     0.03579471    -0.21528334     0.00046175104
   8146000   0.049971916   -0.32627843     0.035925418   -0.21539998     0.00012955244
   8147000   0.049503931   -0.32582836     0.036124431   -0.21545283     8.1024931e-05
   8148000   0.050223619   -0.32626739     0.035852714   -0.2150841     -9.2182234e-05
   8149000   0.050439763   -0.3262741      0.03539921    -0.21522013    -0.00021565349
   8150000   0.049564902   -0.32639108     0.037093031   -0.21495549    -0.00081464683
   8151000   0.050069428   -0.32557901     0.035420605   -0.21505911    -0.00020855807
   8152000   0.0501504     -0.32610238     0.035781902   -0.21509973     0.00051135411
   8153000   0.050408567   -0.32611601     0.035534686   -0.21497335     0.00056806523
   8154000   0.050473815   -0.32607698     0.036436791   -0.21393435     4.1239709e-05
   8155000   0.049764686   -0.32623661     0.036114901   -0.2154795     -0.00035175124
   8156000   0.049822936   -0.32596615     0.034996671   -0.2162399     -0.00017910372
   8157000   0.049759947   -0.32603724     0.036107547   -0.21529459    -0.0002105607 
   8158000   0.049663082   -0.32616333     0.035456735   -0.21621677     0.00011460922
   8159000   0.050007048   -0.32634617     0.036025734   -0.21531471     0.00068561271
   8160000   0.049790101   -0.32616411     0.03556424    -0.21591954    -0.00038407795
   8161000   0.050163084   -0.32650986     0.035474563   -0.21579552    -0.00012006731
   8162000   0.049493903   -0.32642544     0.035549058   -0.21664031    -0.00019837227
   8163000   0.049594467   -0.32626574     0.035703437   -0.2161754     -0.00050475677
   8164000   0.050191953   -0.32615834     0.035926803   -0.21494847    -0.00045080044
   8165000   0.050062573   -0.32613764     0.035961027   -0.21508759    -0.00022144694
   8166000   0.050018098   -0.3262717      0.03553677    -0.21571262    -9.0420022e-05
   8167000   0.050002875   -0.32636315     0.035852187   -0.21551149    -0.00054407131
   8168000   0.050281493   -0.32620613     0.036171626   -0.21461713     0.00027625443
   8169000   0.049902348   -0.32613325     0.035768161   -0.2155164     -0.00039619638
   8170000   0.049984041   -0.32557468     0.035608229   -0.21499523     0.00066667389
   8171000   0.049808503   -0.3261444      0.035691473   -0.21574499     7.1099432e-05
   8172000   0.049412286   -0.32633487     0.035837813   -0.21638341     0.00056820351
   8173000   0.050059288   -0.32662109     0.036589154   -0.21494785     1.7190019e-06
   8174000   0.050200589   -0.32619763     0.035754      -0.2151476      0.00047024896
   8175000   0.050194776   -0.32645405     0.035576032   -0.21559072     0.00084852065
   8176000   0.049541787   -0.32634197     0.036475758   -0.21555833     0.00034574363
   8177000   0.050067924   -0.32662241     0.035858443   -0.21566693    -0.00070187514
   8178000   0.050050711   -0.32603724     0.035842843   -0.21512317    -0.00022007872
   8179000   0.050066396   -0.32610333     0.036003496   -0.21500508     6.0240967e-05
   8180000   0.050233876   -0.32620069     0.035336524   -0.21551821     0.00031103101
   8181000   0.050005158   -0.32598039     0.035996626   -0.21498086     0.00082034551
   8182000   0.049819851   -0.32659361     0.035778691   -0.21608996     0.00010686971
   8183000   0.049685072   -0.32683217     0.035850923   -0.21645845     0.00017074115
   8184000   0.049983114   -0.32660508     0.035597637   -0.21603761     0.00040330046
   8185000   0.049730907   -0.32612609     0.035906969   -0.21562757     0.00065949903
   8186000   0.049877605   -0.32575341     0.035537893   -0.21540394     4.2981651e-05
   8187000   0.050066701   -0.32616647     0.036276774   -0.21479449    -0.00033523322
   8188000   0.049942754   -0.32619689     0.035335003   -0.21595259     0.00022809215
   8189000   0.049747082   -0.32597516     0.035515337   -0.21584402     0.00029586296
   8190000   0.050072381   -0.32587631     0.036155953   -0.21461663    -0.00020882351
   8191000   0.049336844   -0.32633595     0.036330681   -0.21600478     0.00023394325
   8192000   0.049753387   -0.32590663     0.035616154   -0.21566521     0.00011204468
   8193000   0.049721882   -0.32619379     0.035898769   -0.21571701     0.0003460289 
   8194000   0.049668482   -0.32614703     0.035877925   -0.21577119    -9.7947225e-05
   8195000   0.050261493   -0.32618319     0.035920974   -0.21487484     0.0010044063 
   8196000   0.049503701   -0.32594897     0.035917037   -0.21578117    -0.00020340511
   8197000   0.049588907   -0.32651187     0.036407221   -0.21572609    -0.00021492371
   8198000   0.05018715    -0.32646804     0.036219768   -0.2149724      0.00107673   
   8199000   0.049841084   -0.32595196     0.036045672   -0.21514948     0.00018375417
   8200000   0.050260981   -0.32684522     0.035616238   -0.21584237    -0.00064383699
   8201000   0.05007354    -0.32658076     0.036200705   -0.2152746      0.0003914412 
   8202000   0.049731113   -0.32611567     0.036294681   -0.21522913     0.0003315185 
   8203000   0.049947144   -0.32639911     0.035748608   -0.21573462    -4.1170772e-05
   8204000   0.050262134   -0.32607349     0.035193968   -0.21549118    -0.00027234127
   8205000   0.050204429   -0.32625281     0.035472918   -0.21547811     0.00041708158
   8206000   0.049803231   -0.32652918     0.035918427   -0.21591073    -0.00032919448
   8207000   0.049639797   -0.32578094     0.036144111   -0.21518193     0.00055629024
   8208000   0.049468555   -0.32621404     0.035745868   -0.21627013    -0.00028136311
   8209000   0.050151716   -0.32584233     0.036171753   -0.21444786    -0.00038256223
   8210000   0.050293342   -0.32583468     0.035592668   -0.21480686    -0.00022382033
   8211000   0.050233299   -0.32612313     0.036020968   -0.21475708     0.00042673917
   8212000   0.049939323   -0.32630201     0.035930576   -0.21546729     1.9587329e-05
   8213000   0.050282471   -0.32625921     0.03551543    -0.21532494    -9.7906666e-05
   8214000   0.049763982   -0.3261328      0.036431244   -0.2150604      0.00026617148
   8215000   0.049702151   -0.3262548      0.036237468   -0.21546892    -0.00069220363
   8216000   0.050064494   -0.32622507     0.035783365   -0.21534981    -0.0011207609 
   8217000   0.050496045   -0.32654931     0.035742587   -0.21506754    -0.00014976846
   8218000   0.050086116   -0.32684496     0.035603385   -0.21611725    -0.00031042011
   8219000   0.05035411    -0.32652532     0.03621632    -0.21478271    -0.00045434723
   8220000   0.049889943   -0.32610614     0.035959475   -0.21531658     0.00042195684
   8221000   0.049750419   -0.32628628     0.03645742    -0.21520804     0.00052686497
   8222000   0.049722473   -0.32652919     0.036263934   -0.21568636    -5.2394979e-05
   8223000   0.050621677   -0.32624664     0.036139387   -0.21417964     0.0007927129 
   8224000   0.050595411   -0.3257153      0.035918338   -0.21390875     0.00062136155
   8225000   0.049995662   -0.32658429     0.036605431   -0.21499021    -4.6299134e-05
   8226000   0.049510499   -0.32676273     0.036133548   -0.21636823     4.7665921e-06
   8227000   0.050131309   -0.32643763     0.03598989    -0.21525563    -0.0003428385 
   8228000   0.050440804   -0.32638265     0.035638994   -0.21508733     0.00012404146
   8229000   0.05028513    -0.32612407     0.036763787   -0.21393746    -0.00059842464
   8230000   0.050298396   -0.32639846     0.036124886   -0.21483085     5.2060026e-05
   8231000   0.049932864   -0.32677988     0.036123306   -0.21576211     5.0229175e-05
   8232000   0.05008422    -0.32634599     0.035578796   -0.21564571     0.0012635923 
   8233000   0.049530335   -0.32622185     0.035690465   -0.21624068     1.1419404e-05
   8234000   0.050478886   -0.32646869     0.035516188   -0.21523906    -0.0001422154 
   8235000   0.050068336   -0.3264317      0.035546483   -0.21578756     6.9503087e-05
   8236000   0.049668831   -0.32632292     0.035717086   -0.21610739     0.00014847674
   8237000   0.049901245   -0.32631884     0.035851068   -0.21562073     0.00035805792
   8238000   0.05014492    -0.32597773     0.035751892   -0.21501331     0.00035968014
   8239000   0.049997301   -0.32624868     0.036175389   -0.21508218     0.00035402956
   8240000   0.04993138    -0.32661302     0.035420641   -0.21630014     0.0012341819 
   8241000   0.049769864   -0.32629315     0.036065086   -0.21557809    -0.00039334904
   8242000   0.049560739   -0.32623479     0.035951205   -0.21594727     0.00012441313
   8243000   0.050360815   -0.32622493     0.036195518   -0.21449306     7.694486e-05 
   8244000   0.04991412    -0.3262938      0.036633566   -0.21479389     0.00023744324
   8245000   0.049854078   -0.32664518     0.0357547     -0.21611419    -0.00036323705
   8246000   0.050181618   -0.32663641     0.03633937    -0.21502947    -0.00037522949
   8247000   0.050007737   -0.32627363     0.035614394   -0.21565247    -7.7084467e-05
   8248000   0.050055723   -0.32604158     0.035776303   -0.21518654    -0.00015634147
   8249000   0.049727038   -0.32609844     0.036341592   -0.2151711     -0.00019708361
   8250000   0.050207648   -0.32627824     0.036130548   -0.21484108    -1.895694e-05 
   8251000   0.049665121   -0.32602493     0.036226435   -0.21530562    -0.00013965161
   8252000   0.049405103   -0.32637374     0.035949062   -0.21632181    -0.00020814319
   8253000   0.049804787   -0.32645331     0.035542041   -0.21620891    -5.8079817e-05
   8254000   0.050001347   -0.32648855     0.035804464   -0.21568691     0.00010475066
   8255000   0.050395743   -0.32666483     0.036473345   -0.21460275    -0.0012102796 
   8256000   0.050651878   -0.3262829      0.036476844   -0.21383315    -0.00068420619
   8257000   0.050818781   -0.32617453     0.03560801    -0.21434327     0.0011392564 
   8258000   0.050522982   -0.32661359     0.03549755    -0.21533646     0.00048958396
   8259000   0.050663862   -0.32655096     0.036186843   -0.21437323     7.6269447e-05
   8260000   0.050240027   -0.32606938     0.036322718   -0.21439148     0.00013585995
   8261000   0.050255044   -0.32641931     0.036274947   -0.21476666     4.1775579e-05
   8262000   0.049422647   -0.32611887     0.036100614   -0.21588907    -0.00036198482
   8263000   0.050118385   -0.32602734     0.03560659    -0.21524802     0.00015594254
   8264000   0.05080444    -0.32646661     0.036185491   -0.21407938     0.00057173515
   8265000   0.050572064   -0.32621544     0.036242704   -0.21411954     0.00028506315
   8266000   0.050688802   -0.32608739     0.036577526   -0.21348157    -0.00013462891
   8267000   0.050052095   -0.32612041     0.036331318   -0.21471579     0.00031136089
   8268000   0.050347052   -0.32627482     0.035934229   -0.21482489     0.00017867053
   8269000   0.050170772   -0.32626149     0.035636025   -0.21537416     0.00014863201
   8270000   0.049977318   -0.3267631      0.036505076   -0.21529688    -0.00047064695
   8271000   0.049896859   -0.32665987     0.036120988   -0.21569842    -0.00019771991
   8272000   0.049530728   -0.32603404     0.035865603   -0.21587714     0.00019538671
   8273000   0.050160961   -0.32655879     0.035805271   -0.21551693    -1.4381834e-05
   8274000   0.04979881    -0.32653084     0.035810957   -0.21602649     0.00061048794
   8275000   0.049413216   -0.32690211     0.036567117   -0.21621996     5.7059965e-05
   8276000   0.050010712   -0.32655722     0.036565463   -0.21498053     0.00018021078
   8277000   0.04948787    -0.32668898     0.036417989   -0.21604397     0.00032187021
   8278000   0.049906254   -0.32645532     0.035542021   -0.21605875    -0.00023926131
   8279000   0.050135384   -0.32675992     0.036103721   -0.21545797     9.3200689e-05
   8280000   0.050280345   -0.32670514     0.036274686   -0.21501481    -0.00037331128
   8281000   0.050124287   -0.32644488     0.03643372    -0.21482958     0.00069797677
   8282000   0.050365736   -0.32604645     0.036011579   -0.21449114     0.00066496688
   8283000   0.049646793   -0.3265544      0.034802776   -0.21728624     7.3799609e-05
   8284000   0.049022432   -0.32670992     0.035352658   -0.21782835    -0.00017572757
   8285000   0.049989504   -0.3268253      0.036027554   -0.21581833     0.00012508604
   8286000   0.050361113   -0.32645128     0.035726741   -0.21518775     0.00038794532
   8287000   0.050491137   -0.32685202     0.035704499   -0.2154157     -0.00085878851
   8288000   0.050323766   -0.32659626     0.035945178   -0.2151703      0.00089205193
   8289000   0.050003294   -0.32626818     0.035944299   -0.21532378    -0.00014140683
   8290000   0.049852254   -0.32644636     0.035887559   -0.21578525    -0.00031438762
   8291000   0.050253989   -0.32647522     0.035634947   -0.21546415     0.00016166913
   8292000   0.049999147   -0.3264618      0.035678066   -0.21578985    -0.00031593878
   8293000   0.050316505   -0.32675917     0.035534999   -0.21575429     0.00086050336
   8294000   0.049554336   -0.32646328     0.035831779   -0.21630479     0.00019286813
   8295000   0.050080122   -0.32661514     0.036350956   -0.21514885     0.00022356749
   8296000   0.050355193   -0.32652121     0.035716112   -0.21527718     8.686174e-05 
   8297000   0.050393327   -0.32621874     0.035523251   -0.21511038     0.00053416234
   8298000   0.049749123   -0.32676871     0.036045363   -0.21610447     0.00048560479
   8299000   0.049577091   -0.32617054     0.035826275   -0.21598343     4.4309334e-05
   8300000   0.050119572   -0.3267262      0.035625384   -0.21592631     0.00038281406
   8301000   0.049704352   -0.32661469     0.03539656    -0.21666641    -0.00036367144
   8302000   0.049903779   -0.32649649     0.035969507   -0.21567615    -0.00015994512
   8303000   0.049866606   -0.32649804     0.035692315   -0.21601064     0.00059926573
   8304000   0.049948282   -0.32670629     0.035732858   -0.21605584     5.632244e-05 
   8305000   0.049774856   -0.326623       0.03657802    -0.21538751    -0.00034227951
   8306000   0.04986254    -0.32678793     0.035529695   -0.21646925     0.00015305286
   8307000   0.049739912   -0.32657828     0.035622746   -0.21635048    -0.00038347046
   8308000   0.050204792   -0.32643051     0.036441586   -0.2146866     -0.00064211285
   8309000   0.049770883   -0.32663033     0.035980078   -0.21599874     0.00028251484
   8310000   0.049565012   -0.32662674     0.035589835   -0.21669418    -3.7449992e-05
   8311000   0.049746854   -0.32683724     0.036131996   -0.21608978    -0.00055765853
   8312000   0.04998141    -0.32665367     0.035624708   -0.21606168     0.00051603924
   8313000   0.05019755    -0.32678188     0.036302972   -0.21518744    -0.0006704347 
   8314000   0.049920734   -0.32671844     0.035559404   -0.21628277     1.625749e-05 
   8315000   0.049525941   -0.32671665     0.035711686   -0.21672084    -0.00028844567
   8316000   0.050055662   -0.3267519      0.035939429   -0.21573382    -0.00035747475
   8317000   0.050150307   -0.32692081     0.035463719   -0.21623648     0.00035377656
   8318000   0.049775578   -0.32662096     0.035680176   -0.21628223     0.00066782509
   8319000   0.050078655   -0.32655722     0.036266826   -0.21517726    -0.00029855307
   8320000   0.050121839   -0.32635381     0.036503689   -0.21467221    -0.00072757638
   8321000   0.050367462   -0.32666801     0.036252466   -0.21486922     0.00036724728
   8322000   0.050136765   -0.32659754     0.037002788   -0.21439445    -0.0010387146 
   8323000   0.050227345   -0.32671409     0.035976944   -0.21540099    -7.8708676e-05
   8324000   0.049477588   -0.32686298     0.035341578   -0.21730981     0.00083356193
   8325000   0.049794663   -0.32637861     0.036105754   -0.21558568    -0.0002723521 
   8326000   0.050216226   -0.3269394      0.035425445   -0.21619447     0.00034550837
   8327000   0.049759167   -0.32674241     0.035656934   -0.21645154     0.00085793649
   8328000   0.050134101   -0.32711915     0.035743324   -0.21617953    -0.00032111101
   8329000   0.049384685   -0.32674699     0.035920008   -0.21675473     0.00089771434
   8330000   0.049526316   -0.32670029     0.035694298   -0.21672131    -0.00066680331
   8331000   0.049716551   -0.326526       0.035475387   -0.21648059    -0.00094730095
   8332000   0.050611969   -0.32687373     0.035443567   -0.21551711     6.0557804e-05
   8333000   0.049435507   -0.32658207     0.035621801   -0.21681179     0.00037483387
   8334000   0.050070844   -0.32708103     0.035426722   -0.21655289     0.00020260519
   8335000   0.049699401   -0.32674859     0.035682706   -0.21652159    -0.00099222602
   8336000   0.050022372   -0.32702314     0.035871228   -0.2161232      4.7951006e-05
   8337000   0.049625427   -0.32705961     0.035840092   -0.21678618     3.590411e-05 
   8338000   0.049923193   -0.32713497     0.035319937   -0.21693508     0.00040349541
   8339000   0.050156287   -0.32712415     0.035919372   -0.2159752     -0.00073629892
   8340000   0.050177321   -0.32656902     0.036064348   -0.21524355     0.0006743697 
   8341000   0.050185807   -0.32639434     0.036100452   -0.21502004    -9.391649e-05 
   8342000   0.050388895   -0.32698025     0.036044711   -0.21535707    -9.3641798e-05
   8343000   0.049734077   -0.32659143     0.035407473   -0.21658765    -8.0388109e-05
   8344000   0.049556733   -0.32696002     0.035886686   -0.21674303     0.00011166565
   8345000   0.049436112   -0.32697042     0.035524962   -0.21729608     0.0004513344 
   8346000   0.049755316   -0.32746645     0.036314232   -0.21652406     9.2861951e-05
   8347000   0.050150528   -0.3272658      0.036000882   -0.21604398    -0.00015782251
   8348000   0.050055021   -0.32689789     0.036062249   -0.21575796     0.00033820117
   8349000   0.050015883   -0.32675028     0.036374166   -0.21535713     0.00035188379
   8350000   0.049985641   -0.32649867     0.036139006   -0.21538604     0.00033289899
   8351000   0.049979232   -0.32715057     0.035550901   -0.21663565     0.00012558668
   8352000   0.049502129   -0.32678239     0.035359295   -0.2171747      0.0007023642 
   8353000   0.04969045    -0.3271701      0.035914922   -0.21672431    -0.00060543578
   8354000   0.049650329   -0.32680816     0.035259036   -0.21707843     0.00016723872
   8355000   0.050403248   -0.32686909     0.035457358   -0.21581174     0.0003481021 
   8356000   0.050325303   -0.32705755     0.035864705   -0.21570976     0.00024052016
   8357000   0.049955471   -0.32701888     0.035642908   -0.21644759     8.4838722e-05
   8358000   0.049846071   -0.3269901      0.036347315   -0.21587851    -0.00055097426
   8359000   0.05043717    -0.32676241     0.035951086   -0.21516045     0.0001273987 
   8360000   0.050289626   -0.3269073      0.035764737   -0.21571299     0.00029836026
   8361000   0.050168504   -0.32713613     0.036163225   -0.21572501     0.00045332166
   8362000   0.049566366   -0.3268944      0.035750819   -0.21679883     7.2727322e-06
   8363000   0.049895289   -0.32711916     0.036214782   -0.21606627    -0.00043005461
   8364000   0.050100794   -0.32659631     0.035510149   -0.21593982     0.00041941959
   8365000   0.049670244   -0.32703014     0.035977696   -0.21655188     0.00016768365
   8366000   0.050089253   -0.32704422     0.035814357   -0.21610083     0.00024788384
   8367000   0.050200572   -0.32708517     0.036195144   -0.21559402     0.00095897917
   8368000   0.049901237   -0.32685243     0.035372022   -0.21663339     0.0002667792 
   8369000   0.049599955   -0.32663479     0.036038637   -0.21620102    -0.00010000426
   8370000   0.050041925   -0.32699025     0.03580211    -0.2161301      0.0004045908 
   8371000   0.049953465   -0.32642649     0.036172538   -0.21532858    -0.00036904389
   8372000   0.049444761   -0.32683904     0.035611696   -0.21706498     4.3548815e-05
   8373000   0.050265727   -0.32677351     0.03589208    -0.21548771     0.00023920392
   8374000   0.050305795   -0.32678991     0.036290059   -0.21504603    -0.00012761086
   8375000   0.050446993   -0.32672989     0.036211835   -0.21485245    -0.00052264386
   8376000   0.04958856    -0.32652546     0.035853382   -0.21629403     1.5917585e-05
   8377000   0.050462127   -0.3266402      0.035858853   -0.21509304     0.001682837  
   8378000   0.049955425   -0.327073       0.036094723   -0.21604997    -0.00037185182
   8379000   0.050094016   -0.32719558     0.036543644   -0.21551576     0.00059487631
   8380000   0.049991253   -0.32667583     0.036082257   -0.21561153     0.00052461272
   8381000   0.050139533   -0.3270104      0.036714812   -0.21509114    -0.0013762142 
   8382000   0.050086603   -0.32710825     0.035332047   -0.21665114     0.00049596051
   8383000   0.049628338   -0.32713989     0.035665588   -0.2170366      0.0002147664 
   8384000   0.049862194   -0.32698014     0.036833177   -0.2153585     -0.00076624919
   8385000   0.050044182   -0.32694906     0.036179074   -0.21570856     0.00090624912
   8386000   0.049567054   -0.32677742     0.035876219   -0.21655542     0.00030618805
   8387000   0.049734413   -0.32704539     0.035732093   -0.21671649    -0.0001012757 
   8388000   0.050384159   -0.32695244     0.036132011   -0.21524907    -0.00064895075
   8389000   0.050624895   -0.32711454     0.036005218   -0.21517688     0.00053694381
   8390000   0.049688359   -0.32698123     0.036277478   -0.21617602    -0.00078586203
   8391000   0.049926298   -0.32708118     0.035832897   -0.21636367    -0.00035699095
   8392000   0.050104236   -0.32694678     0.036210859   -0.21558442    -0.00031453051
   8393000   0.04987093    -0.32723341     0.035686564   -0.21674528    -0.0006876083 
   8394000   0.050538629   -0.32699412     0.036078178   -0.21511289    -0.00035983335
   8395000   0.050027632   -0.32732942     0.036169473   -0.21612334    -0.00031942622
   8396000   0.050507118   -0.32666974     0.035720006   -0.21519395     0.001009691  
   8397000   0.050164101   -0.32672855     0.035679911   -0.21580734     0.00040831449
   8398000   0.049597606   -0.3270327      0.036516269   -0.21612482    -0.00021836527
   8399000   0.050203647   -0.32711358     0.035724977   -0.21608799    -0.00012894142
   8400000   0.050454572   -0.32705691     0.036059226   -0.2153207     -0.00026188065
   8401000   0.050143487   -0.32726136     0.036290223   -0.21576076    -0.00034781104
   8402000   0.050366981   -0.3270704      0.035848836   -0.21567597    -0.00037750315
   8403000   0.050669092   -0.32712896     0.036372152   -0.21475807    -0.00069859914
   8404000   0.05076123    -0.32654099     0.036370072   -0.21403398    -0.00010926846
   8405000   0.050376131   -0.32691967     0.035949726   -0.21541062    -0.00066604193
   8406000   0.050458912   -0.32716405     0.036210528   -0.21527004     0.00031530149
   8407000   0.050569683   -0.32725084     0.036075916   -0.21532529    -0.0005192393 
   8408000   0.050680804   -0.32714262     0.035774291   -0.21535203     0.00040630623
   8409000   0.050199332   -0.32714609     0.035617046   -0.2162349     -0.00041222135
   8410000   0.050287266   -0.32680135     0.035796311   -0.21557901     0.00034708577
   8411000   0.050479597   -0.32706339     0.036463856   -0.21488503    -0.00052940668
   8412000   0.049963945   -0.32733242     0.035909597   -0.21648174    -0.00081596561
   8413000   0.049612097   -0.32702836     0.035946468   -0.21666855    -0.00028126936
   8414000   0.049574866   -0.3269288      0.035786679   -0.21678462    -0.00038253814
   8415000   0.049446856   -0.32674104     0.035628748   -0.21694679     2.6537076e-05
   8416000   0.049393477   -0.32702765     0.035819676   -0.21712254     0.00018076398
   8417000   0.049859068   -0.32693937     0.036006467   -0.21614912     0.0004064243 
   8418000   0.050146244   -0.32740991     0.035509942   -0.21668545     0.0006299626 
   8419000   0.050192986   -0.32658682     0.035873468   -0.21542873     0.00028111363
   8420000   0.050335695   -0.32686773     0.036241063   -0.21512799     2.7742355e-05
   8421000   0.049874823   -0.32721101     0.035935495   -0.21646811    -0.00074569378
   8422000   0.050122544   -0.32712586     0.035439293   -0.21650761    -0.00017776026
   8423000   0.049861232   -0.3273168      0.036424077   -0.2161057     -0.00024730023
   8424000   0.050412647   -0.3272168      0.035991968   -0.21561074    -0.00034896311
   8425000   0.049655588   -0.32712566     0.036005046   -0.21664204    -0.00019332712
   8426000   0.050252825   -0.32741255     0.036178797   -0.21585938    -0.00037352448
   8427000   0.050383788   -0.32691984     0.036230538   -0.2151185     -0.00028447229
   8428000   0.050252684   -0.32694735     0.035610638   -0.21596254     0.00050415271
   8429000   0.049592056   -0.32694419     0.036207746   -0.21635316    -0.00092316928
   8430000   0.050098901   -0.32714319     0.036031524   -0.21596816     0.00046537699
   8431000   0.050163831   -0.32718461     0.035867104   -0.21607661     0.00068911833
   8432000   0.050182234   -0.32713183     0.036046042   -0.21581729     0.0005858827 
   8433000   0.050289426   -0.32722965     0.035853127   -0.21594725    -0.00023620938
   8434000   0.049742269   -0.3272221      0.036370138   -0.21624337     0.00015107351
   8435000   0.049552425   -0.32773412     0.036220371   -0.21718991    -0.00106602   
   8436000   0.050268121   -0.3271958      0.035692016   -0.21610647     0.00027625046
   8437000   0.050700403   -0.32707584     0.036515484   -0.21451466    -0.00037296484
   8438000   0.050595991   -0.32729848     0.0359613     -0.21544809    -0.00017567065
   8439000   0.050443356   -0.3274847      0.035091358   -0.21673318    -0.00049086175
   8440000   0.049994935   -0.32755833     0.035777204   -0.21679356    -0.00032121892
   8441000   0.049849044   -0.32713238     0.036263974   -0.21609966    -0.00026615363
   8442000   0.05016545    -0.32716285     0.035960849   -0.21595868    -0.00037332569
   8443000   0.050190514   -0.3271053      0.037108943   -0.21471544    -0.0011255256 
   8444000   0.05024044    -0.32718971     0.035948493   -0.21588541     0.00034016781
   8445000   0.050348669   -0.32716429     0.036289275   -0.21535688     0.00077737499
   8446000   0.049538027   -0.32661294     0.035817515   -0.21649318    -1.5585321e-05
   8447000   0.04974067    -0.32719617     0.036450928   -0.21613905    -0.00054006864
   8448000   0.049903102   -0.32718483     0.036012999   -0.21632201    -0.00039214322
   8449000   0.049672427   -0.32720044     0.036400862   -0.21629574    -0.00041420569
   8450000   0.050487385   -0.3270184      0.035984762   -0.21530745     0.00013975426
   8451000   0.050025201   -0.32729783     0.035870867   -0.216394      -0.00012836191
   8452000   0.049623417   -0.32709079     0.035829834   -0.21683063    -0.00055067409
   8453000   0.050027988   -0.3271075      0.035757721   -0.21631263    -0.00088853935
   8454000   0.050082819   -0.32724324     0.036257845   -0.21586601     0.00091218683
   8455000   0.050237371   -0.32721169     0.035884001   -0.21597649     5.3453879e-05
   8456000   0.050348682   -0.32745673     0.035958005   -0.21598057    -1.7977233e-05
   8457000   0.049675121   -0.32751043     0.036200134   -0.21680242     0.00018541758
   8458000   0.049912121   -0.32759535     0.035854122   -0.21687788     0.0001363518 
   8459000   0.04990297    -0.32748252     0.036259704   -0.21637319    -0.00095744268
   8460000   0.050052838   -0.32694482     0.035973197   -0.21589721    -0.00028587201
   8461000   0.050472451   -0.32687162     0.035749149   -0.21541868     0.00065033742
   8462000   0.049886767   -0.32665571     0.036705641   -0.21512474    -9.6174434e-05
   8463000   0.050230034   -0.32689877     0.03625926    -0.21529932     0.00014463715
   8464000   0.050006169   -0.32701931     0.036497583   -0.21551731     0.00011033051
   8465000   0.050109889   -0.32728737     0.036161471   -0.21596592     0.00023669219
   8466000   0.05022168    -0.32742887     0.036333315   -0.2157679     -0.00039326958
   8467000   0.049572681   -0.32736796     0.036301728   -0.21671201     0.00012030734
   8468000   0.050128282   -0.32708399     0.035906287   -0.21599013     0.00060488872
   8469000   0.049845861   -0.32683653     0.035841704   -0.21623086     0.00020465011
   8470000   0.049425291   -0.32758039     0.036642902   -0.21680433     0.00028552857
   8471000   0.050633112   -0.32692917     0.03579045    -0.21519395     0.00020728212
   8472000   0.050436624   -0.32693223     0.036383548   -0.21489862     0.00049914697
   8473000   0.050851535   -0.32722712     0.035981131   -0.21497361     0.00025948893
   8474000   0.050239811   -0.32708331     0.035982031   -0.21574643     0.00012958056
   8475000   0.050201963   -0.32716692     0.036344901   -0.21552394    -6.6220398e-05
   8476000   0.050114916   -0.32727623     0.036000903   -0.2161078     -0.00051142242
   8477000   0.049928239   -0.32745676     0.036384407   -0.21618483    -0.00076922056
   8478000   0.050264739   -0.32735446     0.036039957   -0.21592226     0.00031101367
   8479000   0.049300317   -0.32735241     0.036009244   -0.21739746    -6.5813932e-05
   8480000   0.050743754   -0.32731595     0.035958781   -0.21524645    -0.00075851881
   8481000   0.049985475   -0.32684693     0.03619383    -0.21567972     0.00014273739
   8482000   0.050068497   -0.32728342     0.035884793   -0.21630073     0.00028361752
   8483000   0.050220475   -0.32711239     0.03628197    -0.21550457    -0.00032331871
   8484000   0.050570735   -0.32741023     0.036236669   -0.21532235     6.3521417e-05
   8485000   0.049873474   -0.32744438     0.035570623   -0.21706837    -9.1347456e-06
   8486000   0.050362588   -0.32692641     0.035659155   -0.21572825     0.0003843004 
   8487000   0.049875759   -0.32751594     0.036060461   -0.21664667     0.00080865676
   8488000   0.049566191   -0.32685823     0.036062526   -0.21645121    -0.00037989513
   8489000   0.050356363   -0.327212       0.035181058   -0.21650127     0.00028438007
   8490000   0.050096965   -0.32691107     0.036104008   -0.21566646     0.00054195048
   8491000   0.050442409   -0.3271414      0.035684369   -0.21579829     0.00054605515
   8492000   0.049867564   -0.32717139     0.036046521   -0.21632835     0.00050654971
   8493000   0.050174172   -0.32764369     0.036031011   -0.21635627    -0.00018676199
   8494000   0.050617792   -0.32699283     0.03622945    -0.21484159     0.00021988951
   8495000   0.050459269   -0.32740628     0.036447628   -0.21527463    -0.00060690779
   8496000   0.050167886   -0.32713143     0.036160843   -0.21572361     0.00027851775
   8497000   0.050480449   -0.3274141      0.036308408   -0.21538991    -0.00039485463
   8498000   0.050397681   -0.32749725     0.036239565   -0.21566604     0.00079082479
   8499000   0.050272091   -0.32712499     0.035589136   -0.21613259     0.0010120705 
   8500000   0.049681836   -0.32733525     0.035967177   -0.21685013     0.00017006916
   8501000   0.049616758   -0.32717104     0.035486209   -0.21726449    -0.00028504955
   8502000   0.049678794   -0.32733791     0.036104549   -0.21671997    -0.00015873697
   8503000   0.049755419   -0.32682647     0.035918431   -0.21627973     0.00024284222
   8504000   0.049869796   -0.32729678     0.035820868   -0.21667605    -0.00023559139
   8505000   0.049962952   -0.32706603     0.035593654   -0.21653278     0.00013924585
   8506000   0.050357188   -0.32743234     0.036216727   -0.21568471    -0.00053578017
   8507000   0.049676952   -0.32721532     0.036012252   -0.21669245    -0.0013263965 
   8508000   0.050306587   -0.32691022     0.036388983   -0.21506622     0.00076347645
   8509000   0.05048832    -0.32739287     0.037168127   -0.21449715    -0.0006763291 
   8510000   0.050095457   -0.32754321     0.036052201   -0.21635267     0.00040532559
   8511000   0.050043798   -0.32739034     0.036702163   -0.21562732    -4.3435347e-05
   8512000   0.049813938   -0.32704141     0.036117537   -0.21620778    -0.00024857715
   8513000   0.049877787   -0.32715905     0.035533424   -0.21681378    -0.00062721234
   8514000   0.05013452    -0.32704755     0.035835665   -0.21601496    -0.00076159824
   8515000   0.049571311   -0.32720841     0.036151242   -0.216705       4.1209029e-05
   8516000   0.049888736   -0.3275551      0.035658729   -0.2170681     -0.00012516425
   8517000   0.050140227   -0.32743747     0.035503616   -0.21672837    -0.00016737185
   8518000   0.049860201   -0.32755145     0.035563858   -0.21720211    -1.5632646e-05
   8519000   0.049221486   -0.32762656     0.035893153   -0.21790595     0.00015514576
   8520000   0.049617476   -0.32710488     0.035566018   -0.21711745    -0.00054560206
   8521000   0.050008802   -0.32752279     0.035761852   -0.21675258    -5.8667675e-05
   8522000   0.049857098   -0.32720261     0.036046379   -0.21637541     0.00050008881
   8523000   0.049857295   -0.32704454     0.035704559   -0.21655886     0.0012682048 
   8524000   0.050085188   -0.32733405     0.036174628   -0.21603648    -0.00097586634
   8525000   0.050074746   -0.32687733     0.036210357   -0.2155597     -0.00010232607
   8526000   0.050249684   -0.32730867     0.035846467   -0.21609254    -0.00036924552
   8527000   0.049954972   -0.3270785      0.035495362   -0.21665552     0.0012406638 
   8528000   0.049509111   -0.32751932     0.036118173   -0.21714227     0.00082974205
   8529000   0.049844583   -0.32737489     0.035908985   -0.21670386     0.00054763194
   8530000   0.050001023   -0.32764589     0.036084296   -0.2165649      0.00072964015
   8531000   0.049967839   -0.32726332     0.03633834    -0.21597806    -0.0011236694 
   8532000   0.049950351   -0.32698852     0.035747645   -0.21632018     0.00050669548
   8533000   0.049785372   -0.32740204     0.035855202   -0.2168736      0.00017851697
   8534000   0.049898867   -0.32709307     0.035599736   -0.21664986     1.3968219e-05
   8535000   0.050256267   -0.32728116     0.035636685   -0.21626494     0.00058108518
   8536000   0.050406016   -0.3270657      0.036052327   -0.21540923    -0.00065156171
   8537000   0.050330378   -0.32707427     0.035966133   -0.21561744     0.00011557178
   8538000   0.049934341   -0.32707548     0.036203942   -0.21597486     0.00032460864
   8539000   0.049906592   -0.32739519     0.035841362   -0.21669877     0.00038315786
   8540000   0.050277495   -0.32736829     0.035995066   -0.21596185     6.9079538e-05
   8541000   0.04992465    -0.32696999     0.03583164    -0.2162562      0.00066063865
   8542000   0.049721444   -0.32693149     0.036054619   -0.21629952     0.00020815988
   8543000   0.049975627   -0.32709544     0.035638359   -0.21649848    -0.00042511071
   8544000   0.050223412   -0.327148       0.035680864   -0.21613688    -0.00038121514
   8545000   0.049762718   -0.3269788      0.035822517   -0.21651702    -0.00038117731
   8546000   0.050154804   -0.32744368     0.036027156   -0.21618917    -0.00012214687
   8547000   0.049922272   -0.3274213      0.036458571   -0.21608415     0.0002488501 
   8548000   0.049897767   -0.32752232     0.036773189   -0.21590731    -0.00046684466
   8549000   0.050153749   -0.32729479     0.036065518   -0.21600351    -0.0003096504 
   8550000   0.050092123   -0.32720314     0.036070535   -0.21599926     0.0010661097 
   8551000   0.050144552   -0.32719161     0.035530194   -0.21644945    -2.177619e-05 
   8552000   0.050162768   -0.32722704     0.035799337   -0.2161884     -8.6543152e-05
   8553000   0.0502011     -0.32761004     0.035983666   -0.21632958     0.00020518614
   8554000   0.049660053   -0.32712819     0.036322943   -0.21631997     0.00022192338
   8555000   0.050445907   -0.32734576     0.036263103   -0.21541868     0.00030040162
   8556000   0.050510755   -0.32707002     0.035387019   -0.21592175     0.00011165062
   8557000   0.05057944    -0.32743906     0.03585523    -0.21571957    -0.00072596785
   8558000   0.04962111    -0.32754605     0.036117177   -0.21700201     0.00026271114
   8559000   0.049843061   -0.32750727     0.036255189   -0.21649232     0.00020762086
   8560000   0.050523272   -0.32727627     0.03579637    -0.21569989     0.0010311833 
   8561000   0.050249125   -0.32702013     0.036284972   -0.21536634     0.00023166367
   8562000   0.050011052   -0.32731348     0.036145127   -0.21615661    -1.9180361e-05
   8563000   0.050150794   -0.32707023     0.035830726   -0.21601817     0.00012134091
   8564000   0.050075546   -0.32698522     0.036187915   -0.21568884    -0.00070654271
   8565000   0.050110192   -0.32732848     0.036053493   -0.21611455    -0.00062243644
   8566000   0.050094582   -0.32755224     0.036232052   -0.21618317     0.00020511495
   8567000   0.04995553    -0.32678014     0.036101582   -0.2157501      0.00014252736
   8568000   0.050068004   -0.32706521     0.03635298    -0.21561507     0.0004670534 
   8569000   0.049855867   -0.3274428      0.036146699   -0.21651712     0.00026908723
   8570000   0.04978282    -0.32726142     0.035697453   -0.21689455     0.00065721722
   8571000   0.050215287   -0.32766496     0.036411844   -0.21593505     0.00026125804
   8572000   0.049539341   -0.32731416     0.035597988   -0.21741196     0.00037164139
   8573000   0.050313385   -0.32706505     0.035351619   -0.21624823     0.00038839124
   8574000   0.04965108    -0.32733884     0.036132706   -0.21673431     0.00012026389
   8575000   0.050095656   -0.32739439     0.035889193   -0.21636656    -0.0002989803 
   8576000   0.049583109   -0.3273272      0.035782697   -0.21717464     0.00019588236
   8577000   0.049912655   -0.32711227     0.035620115   -0.21662801    -0.00010845832
   8578000   0.04983977    -0.32774013     0.035976978   -0.21700832    -0.00036878096
   8579000   0.049682981   -0.32730617     0.035575838   -0.21721067     0.001399549  
   8580000   0.049267438   -0.32706394     0.035956344   -0.21721121     0.00032229058
   8581000   0.049697945   -0.32757877     0.035621865   -0.2174148      0.00031866979
   8582000   0.049854898   -0.32767166     0.035720748   -0.21717339    -0.00061643429
   8583000   0.049643175   -0.32689095     0.035513619   -0.21691738     0.0002578735 
   8584000   0.049667125   -0.32732778     0.036638737   -0.21619316    -0.00055070631
   8585000   0.050223266   -0.32764227     0.036387288   -0.21592494    -8.0852271e-05
   8586000   0.050313077   -0.32738158     0.036490155   -0.21542668    -0.0011915192 
   8587000   0.050655897   -0.32689017     0.036324125   -0.2145871      2.6494976e-05
   8588000   0.050263075   -0.32757966     0.03617656    -0.21601335    -0.00033521382
   8589000   0.050001346   -0.32724296     0.036134185   -0.2161116     -0.00054376803
   8590000   0.049888152   -0.32726027     0.035450672   -0.2169822      0.000453436  
   8591000   0.049436838   -0.32728519     0.036613177   -0.21652154     0.00020931105
   8592000   0.049928193   -0.32703533     0.035933884   -0.21621399     0.00077588093
   8593000   0.049749066   -0.32742689     0.035922951   -0.21688515    -0.00052024095
   8594000   0.051191852   -0.32701637     0.035455041   -0.21477851     0.00019895068
   8595000   0.049968812   -0.32734796     0.036207195   -0.21619239    -0.00018527921
   8596000   0.049961898   -0.32708122     0.035541355   -0.21660185     0.0010929517 
   8597000   0.050116992   -0.32721976     0.035665477   -0.21638365    -0.00044046766
   8598000   0.05030809    -0.32718369     0.036249553   -0.21547687    -0.00041903702
   8599000   0.050122586   -0.32761346     0.0361353     -0.21629914     0.00022418398
   8600000   0.049613364   -0.32745828     0.035852425   -0.21719061    -0.00082100084
   8601000   0.049909038   -0.32708102     0.036291102   -0.21593119     0.00021960298
   8602000   0.049411153   -0.3277747      0.035755499   -0.21790726    -0.00072007984
   8603000   0.050012395   -0.32777524     0.035957201   -0.21680429     0.00025120547
   8604000   0.050243261   -0.3271496      0.035991006   -0.21579856    -0.00043076721
   8605000   0.049640401   -0.3271464      0.036103303   -0.2165873      0.00025405902
   8606000   0.050819211   -0.3273924      0.036305576   -0.21486293     0.00087828372
   8607000   0.049992644   -0.32710784     0.036955307   -0.2151684     -0.00061267902
   8608000   0.050353946   -0.32706643     0.035524282   -0.2160161      0.00080682545
   8609000   0.05030862    -0.32680064     0.036011423   -0.21533115     0.0006084956 
   8610000   0.049774538   -0.32756572     0.036002452   -0.21690627    -6.5768668e-06
   8611000   0.050331946   -0.32747608     0.036085795   -0.21589724     0.00043241452
   8612000   0.050074449   -0.3272453      0.035734614   -0.21640386     1.9589834e-05
   8613000   0.049774957   -0.32765872     0.035693077   -0.21730803     0.0010205919 
   8614000   0.049611708   -0.32744609     0.035737664   -0.21729567     3.3442001e-07
   8615000   0.050021117   -0.32791133     0.035868753   -0.21701575    -0.00061095714
   8616000   0.049803388   -0.32759051     0.036151322   -0.21673893     0.00036504522
   8617000   0.049890308   -0.32791035     0.035546805   -0.21753291     0.00071379535
   8618000   0.049872602   -0.32778785     0.036739724   -0.21624405    -0.00043390429
   8619000   0.049915899   -0.32749696     0.036018193   -0.21660975     0.00022849059
   8620000   0.050228284   -0.32753479     0.035561419   -0.21663581     8.1007537e-06
   8621000   0.049513893   -0.32777978     0.036092823   -0.21742091     0.00041013325
   8622000   0.05014469    -0.3271531      0.035380878   -0.21656004     0.00013001068
   8623000   0.049518822   -0.327671       0.036295176   -0.21710238    -0.00033555808
   8624000   0.050114446   -0.32730914     0.036329145   -0.21581318     0.00018654067
   8625000   0.049661642   -0.32710919     0.035753993   -0.21686754     0.00097151384
   8626000   0.049463997   -0.32719478     0.035932984   -0.21707059     0.0005826077 
   8627000   0.049885776   -0.32761489     0.036198909   -0.21659215    -0.00026084065
   8628000   0.049959413   -0.32726747     0.036543311   -0.21578987    -0.00079159521
   8629000   0.049915326   -0.32704286     0.035908659   -0.21626604     0.00032783762
   8630000   0.050045585   -0.3275518      0.036661451   -0.21582681     0.00022820168
   8631000   0.049533793   -0.32697357     0.035782466   -0.21689521    -0.0006509824 
   8632000   0.049691485   -0.32742339     0.035861999   -0.21702897     0.00052351496
   8633000   0.050631098   -0.32743699     0.036276143   -0.2152191      0.00054938487
   8634000   0.049910839   -0.32726283     0.036693186   -0.21570821    -0.00064659037
   8635000   0.049454029   -0.32681734     0.035924658   -0.21671642    -0.00062116174
   8636000   0.050283304   -0.32733202     0.035521253   -0.21639067     0.0010787151 
   8637000   0.050210509   -0.32720909     0.036167658   -0.21573053    -0.00024478772
   8638000   0.050207153   -0.32760332     0.036378955   -0.21591849     7.9094961e-05
   8639000   0.05045194    -0.32727842     0.036038001   -0.21556739     0.0010578547 
   8640000   0.050101088   -0.32744069     0.035953439   -0.21634046    -0.0012893805 
   8641000   0.050282316   -0.32730557     0.036419174   -0.21546779     0.00054297531
   8642000   0.05049967    -0.32759331     0.03567277    -0.21617592    -0.00029277255
   8643000   0.050525891   -0.32740336     0.036068127   -0.21555128     0.00022937675
   8644000   0.050693093   -0.32737013     0.03619834    -0.21513706     0.00029357438
   8645000   0.049973213   -0.32765949     0.036525854   -0.21617865    -9.9021725e-05
   8646000   0.05047258    -0.32758158     0.036356148   -0.21552144     0.00021637265
   8647000   0.050582101   -0.3276453      0.0363389     -0.21543814    -0.00075784177
   8648000   0.050017006   -0.32738933     0.036203847   -0.21616482    -0.00043708974
   8649000   0.049964708   -0.32734636     0.035790174   -0.21661396     0.00089950932
   8650000   0.049919499   -0.32765881     0.036745221   -0.21603917    -0.00061804744
   8651000   0.050131799   -0.32804588     0.036103033   -0.21675       -0.00026611198
   8652000   0.049630673   -0.32765515     0.035711485   -0.21750246     0.00040684318
   8653000   0.049959093   -0.32772283     0.035712663   -0.21707636    -0.00032687803
   8654000   0.050141885   -0.32718052     0.035391594   -0.21658095    -0.00031408575
   8655000   0.05009513    -0.3277176      0.035745215   -0.21683454     0.00026180959
   8656000   0.049608413   -0.32783191     0.035933527   -0.21749056    -0.00062289851
   8657000   0.049659535   -0.32739781     0.035910367   -0.21700295    -8.8789347e-05
   8658000   0.050290347   -0.32714144     0.036145643   -0.21556514     0.00022514672
   8659000   0.050143142   -0.32754794     0.036172758   -0.21616532     0.00087122138
   8660000   0.049788384   -0.32766215     0.035981386   -0.21700301     0.00023100545
   8661000   0.04982667    -0.32770744     0.035286674   -0.21768559     9.4044872e-05
   8662000   0.05047087    -0.3274374      0.035256543   -0.21647943    -0.00057784221
   8663000   0.0498407     -0.32722572     0.036160712   -0.21630878    -8.7471803e-05
   8664000   0.049513537   -0.32787354     0.036557099   -0.21705092    -0.001020081  
   8665000   0.050038541   -0.32777546     0.035730527   -0.21699196    -0.00012910762
   8666000   0.050083018   -0.32722605     0.035967565   -0.21613881     0.0003644771 
   8667000   0.050608036   -0.32786442     0.036193408   -0.21576385    -0.00079657454
   8668000   0.050122233   -0.32729524     0.03611977    -0.21599697    -0.00061633704
   8669000   0.049881832   -0.32728278     0.035726153   -0.21673871    -0.00086830429
   8670000   0.050284139   -0.32797087     0.035282956   -0.21726657     0.00060492842
   8671000   0.050242351   -0.32777676     0.036031396   -0.2163867     -0.00072572122
   8672000   0.049928027   -0.32740717     0.036064367   -0.2164556      0.00019516672
   8673000   0.049967353   -0.32741343     0.035503358   -0.21696388     0.00035560695
   8674000   0.050902253   -0.32773821     0.03586922    -0.21552054    -0.00029685233
   8675000   0.050436401   -0.32774478     0.036132989   -0.21596207     0.00020207243
   8676000   0.050100454   -0.32751028     0.035663616   -0.21670083    -0.00033251925
   8677000   0.049750021   -0.3276774      0.035386117   -0.21767107    -0.00079625525
   8678000   0.050629519   -0.32773405     0.036239634   -0.21555503     0.0001387021 
   8679000   0.050516589   -0.32773713     0.036268258   -0.21569888     0.0005256417 
   8680000   0.050205935   -0.32771696     0.036466838   -0.21594608    -0.00033699527
   8681000   0.050313069   -0.32798213     0.036112569   -0.21640482    -0.00078866865
   8682000   0.050697001   -0.32778817     0.035993662   -0.21575391    -0.00099159428
   8683000   0.04987498    -0.32768443     0.03602944    -0.21684735    -0.00016195628
   8684000   0.049700232   -0.32764114     0.035588633   -0.21750697    -0.00095392583
   8685000   0.050661748   -0.32752644     0.035879455   -0.21565927     0.00049173626
   8686000   0.049854736   -0.32751258     0.035812772   -0.21692253    -0.00045142853
   8687000   0.050368362   -0.3278914      0.035890332   -0.2164534     -0.00024563256
   8688000   0.050014331   -0.32769614     0.035901441   -0.21677804     8.3136163e-05
   8689000   0.049961021   -0.32782198     0.036078928   -0.21680636    -0.0005451119 
   8690000   0.049822987   -0.32791001     0.035714469   -0.21746589    -0.00052352647
   8691000   0.050005461   -0.327659       0.035820716   -0.21683493    -0.00023810456
   8692000   0.049856636   -0.32805634     0.035947405   -0.2173288     -0.00046794948
   8693000   0.049912644   -0.32764299     0.036074843   -0.21670401    -0.00073665111
   8694000   0.050132905   -0.32777562     0.035937522   -0.21664359    -0.00091670342
   8695000   0.049615242   -0.32739832     0.036217048   -0.21676321     0.00010778759
   8696000   0.05008463    -0.32761885     0.03590603    -0.21659072     0.00056973421
   8697000   0.050718001   -0.32743284     0.036314798   -0.21504595     0.00025302591
   8698000   0.050429055   -0.32731077     0.035632449   -0.21603962     0.00078012398
   8699000   0.050110792   -0.32807934     0.036575824   -0.21634218    -0.00078781721
   8700000   0.049744661   -0.32775961     0.035735187   -0.21741225     0.00020484518
   8701000   0.050156597   -0.32754938     0.034951291   -0.21736804     0.00062627756
   8702000   0.049745689   -0.3276938      0.035916929   -0.21716315     0.00050045341
   8703000   0.050187644   -0.32758694     0.035932591   -0.21637774    -0.0011397527 
   8704000   0.050308106   -0.3274114      0.036054908   -0.2158992      0.0003475525 
   8705000   0.05063612    -0.32762307     0.035901087   -0.21577271     0.00024189967
   8706000   0.050132387   -0.32780483     0.03634312    -0.21626798     0.0011127504 
   8707000   0.049816441   -0.32786475     0.035709015   -0.2174359     -0.0003662672 
   8708000   0.049929714   -0.32759505     0.03599131    -0.216714      -0.00045505451
   8709000   0.049789831   -0.32783743     0.036181103   -0.2169764      0.00058475798
   8710000   0.049512104   -0.32760323     0.035827596   -0.21751227    -0.0004515535 
   8711000   0.050059764   -0.32810558     0.036295593   -0.21672519    -0.00096677587
   8712000   0.050100482   -0.32811085     0.036145998   -0.21681897     0.00025044915
   8713000   0.050302526   -0.32784276     0.035545328   -0.21684851    -0.0011121307 
   8714000   0.050377241   -0.32729053     0.035580495   -0.21614905     0.00058603739
   8715000   0.049806071   -0.32805736     0.036010284   -0.21734279    -0.00021740424
   8716000   0.049882703   -0.32765667     0.03590052    -0.21693692    -0.00097274944
   8717000   0.049741773   -0.32756604     0.03561777    -0.21734043    -0.00025144557
   8718000   0.049977998   -0.32771851     0.035595018   -0.21716133    -7.5542294e-06
   8719000   0.050655476   -0.32739922     0.036512225   -0.21490869    -2.6257382e-08
   8720000   0.049881003   -0.32757354     0.036019052   -0.21673781    -0.00074963029
   8721000   0.050171976   -0.32766009     0.035898031   -0.21650895     0.00021694626
   8722000   0.049923263   -0.32720783     0.036141907   -0.21618586    -0.00031820805
   8723000   0.049921232   -0.32742912     0.036169524   -0.21638258     4.3469372e-05
   8724000   0.049325935   -0.32776631     0.03588777    -0.21789441    -0.0007545875 
   8725000   0.050193561   -0.32789666     0.036276301   -0.21633488     0.00041068591
   8726000   0.049781634   -0.32753074     0.035910771   -0.21695234     0.0007057998 
   8727000   0.050616196   -0.32776842     0.036333153   -0.21551587     0.000189846  
   8728000   0.050003062   -0.32756431     0.036339548   -0.21622501     0.00021693286
   8729000   0.050431712   -0.32798944     0.035604517   -0.21674224    -9.4487949e-05
   8730000   0.049590849   -0.32739169     0.035944741   -0.21706547    -0.0012341207 
   8731000   0.049440714   -0.32742676     0.035926073   -0.2173444      0.00016217623
   8732000   0.050074786   -0.32758854     0.036092245   -0.21638896     0.0004018761 
   8733000   0.0497518     -0.32809615     0.036114454   -0.21735881    -2.9651932e-05
   8734000   0.049725304   -0.32799984     0.035706782   -0.21770991    -0.00037493106
   8735000   0.049910206   -0.32715759     0.035382404   -0.21691471     0.00066666853
   8736000   0.04985936    -0.32752411     0.035491843   -0.21724805    -0.00055391368
   8737000   0.049867904   -0.32752814     0.036395532   -0.21633558     0.0004139509 
   8738000   0.05075674    -0.32785982     0.036175177   -0.21555444     0.00025027131
   8739000   0.049971896   -0.32750024     0.036269921   -0.21627731     0.00021753089
   8740000   0.050126415   -0.32743897     0.03537863    -0.21687557     0.00079242808
   8741000   0.050630043   -0.32767848     0.036204457   -0.21553386     0.00018928834
   8742000   0.050096415   -0.32782676     0.035919668   -0.21676732    -1.4033438e-05
   8743000   0.049930456   -0.32803974     0.03593933    -0.21720956    -3.5018833e-05
   8744000   0.050228235   -0.32778566     0.036351179   -0.21609699     0.00032651446
   8745000   0.050034462   -0.32769984     0.03594674    -0.21670625     0.00020725276
   8746000   0.049940116   -0.32836695     0.036283661   -0.21717795     8.4923358e-05
   8747000   0.050170536   -0.32798467     0.035814054   -0.21691967    -0.00089936798
   8748000   0.050297771   -0.32784875     0.036325076   -0.21608188    -0.00048533257
   8749000   0.050062328   -0.32784571     0.035685518   -0.21707155     0.00052831944
   8750000   0.049890087   -0.32757356     0.035605586   -0.21713767     0.00011847269
   8751000   0.050340972   -0.32797081     0.035586046   -0.21687818    -0.00057606196
   8752000   0.050541979   -0.32765636     0.035976522   -0.21587176     0.00010301331
   8753000   0.050276451   -0.32819085     0.036087258   -0.21669378     0.00010438379
   8754000   0.049403971   -0.32797817     0.036097698   -0.2177793     -0.0013414653 
   8755000   0.050387565   -0.32765963     0.035829817   -0.21625334    -0.00037627101
   8756000   0.049276446   -0.32818536     0.036001991   -0.21827347     3.2350433e-05
   8757000   0.050187159   -0.32790975     0.036252046   -0.21638183    -0.00061797958
   8758000   0.049899363   -0.32797782     0.035999838   -0.21713376     0.00021432765
   8759000   0.050533339   -0.32817596     0.036032433   -0.21634841     0.0002067887 
   8760000   0.050152519   -0.32764697     0.03589388    -0.21652917     0.00054824222
   8761000   0.050266634   -0.32782731     0.036443309   -0.21598892     0.00052316639
   8762000   0.04976477    -0.32747569     0.035637149   -0.2171962      0.00018000973
   8763000   0.049897094   -0.32741018     0.036305299   -0.21626407     3.667656e-05 
   8764000   0.050793533   -0.32783565     0.036457063   -0.2151932     -3.3847986e-05
   8765000   0.050371236   -0.32782612     0.036090904   -0.21618324    -8.6699998e-06
   8766000   0.050415716   -0.32806308     0.035611942   -0.21683244     0.0008803308 
   8767000   0.050084844   -0.32774688     0.035780937   -0.21684353    -0.00028123212
   8768000   0.049815201   -0.32758803     0.036385145   -0.2164849      0.00061448095
   8769000   0.05067699    -0.32767691     0.035724384   -0.21594195     0.00027793539
   8770000   0.049709468   -0.32728551     0.036113539   -0.21661258    -6.4050395e-05
   8771000   0.049118053   -0.32755005     0.03583993    -0.2180378     -0.0001559378 
   8772000   0.050084807   -0.32810297     0.035652654   -0.21732795    -2.8683239e-05
   8773000   0.049778376   -0.32801865     0.035661495   -0.21769441    -0.00070178759
   8774000   0.050248589   -0.32776257     0.035603427   -0.21679112     0.00078299537
   8775000   0.050131471   -0.32764475     0.035425912   -0.21702648     3.7557803e-05
   8776000   0.050298967   -0.32818975     0.036394578   -0.21635159     0.00016780815
   8777000   0.04985454    -0.32786093     0.036680146   -0.2164038     -0.00073839454
   8778000   0.05069757    -0.32752776     0.035561415   -0.2159249     -0.00041230334
   8779000   0.049834045   -0.32755516     0.036030038   -0.21677887     0.0006979123 
   8780000   0.049671278   -0.32791119     0.036153339   -0.21725575    -0.00038391341
   8781000   0.049965833   -0.32734996     0.036041803   -0.21636424    -0.00058202001
   8782000   0.049897388   -0.32785075     0.035756446   -0.21725305    -0.00074824996
   8783000   0.0494805     -0.32806348     0.036037829   -0.2178097     -0.00022098802
   8784000   0.049754726   -0.32851362     0.036053206   -0.21783314    -0.00024351554
   8785000   0.049783017   -0.32776989     0.035917009   -0.21718317    -2.9453264e-05
   8786000   0.049965538   -0.32777918     0.036391833   -0.21644387    -0.0014252171 
   8787000   0.050223669   -0.3279412      0.035753414   -0.21685715     0.0001481403 
   8788000   0.049750439   -0.32798294     0.035764532   -0.21759756     0.00019155238
   8789000   0.049704121   -0.32800337     0.035449545   -0.21800246     0.00024523214
   8790000   0.049773961   -0.32780029     0.036142318   -0.21700184     0.00040166403
   8791000   0.049773999   -0.32802622     0.036426405   -0.21694363     0.00042278833
   8792000   0.049664868   -0.3279909      0.036430466   -0.21706794    -0.00013067964
   8793000   0.050224898   -0.32837927     0.035736714   -0.21731007     0.00074435262
   8794000   0.049871431   -0.32800374     0.036402989   -0.21679843     0.00054478466
   8795000   0.050399155   -0.32846639     0.03626463    -0.2166079     -0.0001124145 
   8796000   0.050313304   -0.32830163     0.03581096    -0.21702558    -0.00012742339
   8797000   0.050336752   -0.32774546     0.036069636   -0.21617556     0.0007063481 
   8798000   0.05009064    -0.32811492     0.036274693   -0.21670912     0.0006709645 
   8799000   0.049667107   -0.32834449     0.036303859   -0.21754478    -0.00034117523
   8800000   0.04963011    -0.32770843     0.036056705   -0.21721136    -0.0003214159 
   8801000   0.049959109   -0.32777024     0.035616161   -0.21722025     0.00026431643
   8802000   0.049558331   -0.32822776     0.036123935   -0.21777112     0.0001199066 
   8803000   0.049569494   -0.32841307     0.035526823   -0.21853681     0.00010637774
   8804000   0.049785603   -0.32810687     0.036099472   -0.21733381    -0.0001673726 
   8805000   0.049800146   -0.32816468     0.03592884    -0.21754044     0.00024073179
   8806000   0.050329999   -0.32795165     0.035772536   -0.21668898     0.0011696397 
   8807000   0.050843716   -0.32840191     0.035796943   -0.21634431    -3.7823194e-05
   8808000   0.049869997   -0.3282115      0.036183146   -0.21722818     2.1612316e-05
   8809000   0.05001331    -0.32817527     0.036082655   -0.21707749     4.931497e-05 
   8810000   0.049360958   -0.32830646     0.036150818   -0.21811898    -0.00067352747
   8811000   0.050034585   -0.32822039     0.036400777   -0.21677258     0.00025038027
   8812000   0.050290742   -0.32798706     0.035798599   -0.21675722     0.00040366242
   8813000   0.050504816   -0.32805439     0.036277007   -0.21602505    -0.0014050432 
   8814000   0.050575257   -0.32826802     0.03609033    -0.2163197      0.00063719434
   8815000   0.050627933   -0.32833771     0.035815128   -0.21658559    -0.00022483673
   8816000   0.050353419   -0.32785571     0.035329713   -0.21700074     6.7184955e-05
   8817000   0.049658897   -0.32821445     0.035857292   -0.21787362     0.00029433427
   8818000   0.05013773    -0.32826157     0.036391021   -0.2166688     -0.00013199897
   8819000   0.049947688   -0.32822448     0.036241562   -0.21706622    -0.00073279438
   8820000   0.049724749   -0.32847262     0.035937869   -0.21795244     0.00042785053
   8821000   0.049764247   -0.32795192     0.036432383   -0.21687799    -4.9638078e-05
   8822000   0.04950448    -0.32800732     0.035578332   -0.21817706    -0.00037944597
   8823000   0.050271817   -0.32805548     0.035602055   -0.21705057     0.00085330632
   8824000   0.050052172   -0.3280457      0.035526506   -0.21744578     0.00053692808
   8825000   0.050127154   -0.32795513     0.03577473    -0.21699452     0.00041071417
   8826000   0.050339788   -0.32822556     0.036077229   -0.21664352    -0.00022073378
   8827000   0.049763717   -0.32782873     0.036311374   -0.2168766     -5.962476e-05 
   8828000   0.050177307   -0.32828604     0.035666711   -0.21735823     0.00041835676
   8829000   0.049625939   -0.32834569     0.035445281   -0.21846631    -0.00062699871
   8830000   0.049890312   -0.32817889     0.035714898   -0.21763335     0.00023676516
   8831000   0.050258476   -0.32794258     0.035967181   -0.21659255    -0.00041240291
   8832000   0.050160894   -0.32818153     0.035841788   -0.21710326    -0.00045310846
   8833000   0.050486922   -0.32831453     0.035975562   -0.21661347    -0.00024886738
   8834000   0.050090956   -0.32849745     0.036468659   -0.2168972     -0.00091956533
   8835000   0.050339441   -0.32834175     0.035515141   -0.21732232    -0.0001728858 
   8836000   0.050477017   -0.32798865     0.036039241   -0.21623877     0.00033284698
   8837000   0.050432864   -0.32831109     0.036275022   -0.21639165    -9.5544505e-05
   8838000   0.049772283   -0.32805279     0.035870653   -0.21752853    -0.00051480997
   8839000   0.049884936   -0.32834029     0.035807572   -0.21771014    -0.0005647972 
   8840000   0.050062899   -0.32798125     0.03583088    -0.21706087    -0.00058082698
   8841000   0.049770492   -0.32836337     0.036116006   -0.21759644    -0.00088967948
   8842000   0.049924762   -0.32784542     0.035703157   -0.21725995     0.00094191733
   8843000   0.049698866   -0.32810705     0.035558015   -0.21800554     0.00023888631
   8844000   0.049419527   -0.32816726     0.036404454   -0.21763829    -0.00029746036
   8845000   0.04993149    -0.32810129     0.036055418   -0.21715347    -0.0002897476 
   8846000   0.049829094   -0.32802197     0.03583963    -0.21744352     0.00043954701
   8847000   0.049531979   -0.3282321      0.035864105   -0.21807482    -0.00017246191
   8848000   0.050084115   -0.32773342     0.03579682    -0.21681528    -0.00023954241
   8849000   0.049668033   -0.32798182     0.036303367   -0.21718121     0.00059628047
   8850000   0.050521929   -0.3280404      0.036088136   -0.21617426    -0.00066006948
   8851000   0.050116481   -0.32860891     0.035730318   -0.21770873     0.00028049236
   8852000   0.049544019   -0.32834023     0.035536526   -0.21849248     0.00054838379
   8853000   0.049684179   -0.32853377     0.036618582   -0.21739372    -0.00052712696
   8854000   0.05007362    -0.32823704     0.035827991   -0.21730347     0.00033669766
   8855000   0.049911496   -0.32814654     0.035753765   -0.21753036    -0.00034963741
   8856000   0.049941487   -0.32826889     0.036569589   -0.2167919      0.00013659201
   8857000   0.050432023   -0.32817425     0.036489779   -0.21604132     0.00026817112
   8858000   0.050514959   -0.32804438     0.037144547   -0.21513228     0.00025626822
   8859000   0.050736592   -0.32799761     0.035450025   -0.21644761     0.001250368  
   8860000   0.049614464   -0.32802608     0.036930939   -0.21667825    -0.0011643503 
   8861000   0.04973611    -0.32805311     0.035492165   -0.21796159     0.00019085292
   8862000   0.04967453    -0.32813771     0.035654483   -0.21797624    -0.00047861186
   8863000   0.049833331   -0.32818248     0.03576514    -0.21767217    -0.00057754679
   8864000   0.050006484   -0.3281997      0.035997558   -0.21719726     0.00030844206
   8865000   0.049481295   -0.32813498     0.035573107   -0.21834472    -0.00079336066
   8866000   0.04976533    -0.32800741     0.035932609   -0.21743163    -9.7452654e-05
   8867000   0.049554523   -0.32873585     0.035811373   -0.21859748    -0.00049997523
   8868000   0.049678211   -0.32869449     0.03576943    -0.21841256     0.00011090469
   8869000   0.050022502   -0.32833122     0.036352975   -0.21694933    -0.00054541804
   8870000   0.049413163   -0.32815839     0.035415938   -0.21862749    -6.0179548e-05
   8871000   0.050299208   -0.3282532      0.035120118   -0.21768914    -5.4586583e-06
   8872000   0.049595609   -0.32815958     0.035802841   -0.21796813     0.00056858998
   8873000   0.04973916    -0.3281579      0.036162597   -0.21739137     0.00029054215
   8874000   0.050321075   -0.32862911     0.035682172   -0.2174702     -0.00047155116
   8875000   0.050517338   -0.32820026     0.03550046    -0.21692868     0.00051998729
   8876000   0.049849958   -0.32837942     0.036160253   -0.21744906     0.00031929945
   8877000   0.050266705   -0.32827973     0.035639014   -0.21724552     0.00061061549
   8878000   0.050060503   -0.32804418     0.036022704   -0.21693557     0.0012282862 
   8879000   0.049418624   -0.32772294     0.03630809    -0.2172917      0.00072055793
   8880000   0.049653179   -0.32854171     0.035317295   -0.21874945    -0.0002519641 
   8881000   0.049710074   -0.32816551     0.035358886   -0.21824632     0.0003354672 
   8882000   0.049745323   -0.32840334     0.035562813   -0.21822735     0.00082005953
   8883000   0.049283295   -0.3282097      0.035719654   -0.21856988    -0.00013997569
   8884000   0.049342347   -0.32817526     0.036123521   -0.21804299     0.00048222463
   8885000   0.050509403   -0.3279926      0.035681302   -0.21655209     3.1554404e-05
   8886000   0.050267432   -0.32821316     0.035599786   -0.21721709    -0.00022081476
   8887000   0.050006537   -0.32820658     0.035513123   -0.21768849    -0.00035834519
   8888000   0.050001018   -0.32853724     0.036346145   -0.21719441     0.0006378488 
   8889000   0.050069412   -0.32848871     0.035755799   -0.21763364     0.00013038602
   8890000   0.049872822   -0.32837389     0.03544755    -0.21812194     0.0001741135 
   8891000   0.049542145   -0.32829673     0.035845268   -0.21814304     0.00015064628
   8892000   0.049869186   -0.32862055     0.036076155   -0.21774544    -0.00051632694
   8893000   0.050058317   -0.32885958     0.035708039   -0.21806891    -2.0980678e-05
   8894000   0.049837776   -0.3289274      0.035867725   -0.21830783     0.00036225891
   8895000   0.049317771   -0.32845484     0.035292958   -0.21919        0.00012640737
   8896000   0.049724706   -0.32821669     0.035765314   -0.21786913     0.0004722224 
   8897000   0.049982221   -0.32835028     0.035790872   -0.21759092     0.001095915  
   8898000   0.049676282   -0.32837486     0.036176571   -0.21768867     0.00010841327
   8899000   0.050639841   -0.32822161     0.035909745   -0.21635701     0.00055320332
   8900000   0.05014689    -0.32813869     0.036738683   -0.21618453     0.00049096677
   8901000   0.049948281   -0.32824946     0.036635432   -0.21669644    -0.00055058235
   8902000   0.049969049   -0.32787876     0.035530081   -0.21739994    -0.00017974101
   8903000   0.049418263   -0.32798831     0.03584163    -0.21802407    -0.00034394634
   8904000   0.04991646    -0.32856125     0.035806711   -0.21788468    -0.00051715131
   8905000   0.049783632   -0.32833109     0.036094734   -0.21756573     0.00055570993
   8906000   0.049505503   -0.32836185     0.036239173   -0.21786921    -2.2786842e-05
   8907000   0.049839354   -0.32858266     0.036172616   -0.21765584     0.00038274857
   8908000   0.04996861    -0.32868728     0.03601437    -0.21772483    -0.00072732894
   8909000   0.049932082   -0.32856769     0.036912279   -0.21676212    -0.00079859721
   8910000   0.049622939   -0.32810417     0.036024139   -0.21765042    -0.00066515806
   8911000   0.050252779   -0.32845863     0.035970885   -0.21711344     7.3011508e-05
   8912000   0.050009864   -0.32827138     0.036440404   -0.21682102    -2.9101313e-06
   8913000   0.050262062   -0.32828703     0.035868818   -0.21702998     0.00072899306
   8914000   0.050476638   -0.32847157     0.035857991   -0.2169035      0.00091344662
   8915000   0.050072192   -0.32861623     0.036012705   -0.21750008     0.00013088037
   8916000   0.050071855   -0.32860468     0.036073325   -0.21742842    -0.00021436293
   8917000   0.049656727   -0.32876337     0.035834324   -0.21844876     0.00022305773
   8918000   0.050138976   -0.32854144     0.036530644   -0.21680718     0.00096910953
   8919000   0.050699995   -0.32861574     0.035694915   -0.21687574     0.0010041553 
   8920000   0.05001333    -0.32845328     0.035858783   -0.21757934    -0.001029931  
   8921000   0.049704175   -0.32837961     0.03606087    -0.21776729     0.00015251468
   8922000   0.049756517   -0.32860273     0.036504964   -0.2174678      7.4229527e-05
   8923000   0.04967074    -0.32819451     0.036475111   -0.2172181      0.00036334618
   8924000   0.049539739   -0.32823477     0.035941224   -0.21798873     0.00037560987
   8925000   0.04952637    -0.32847316     0.035945273   -0.21824312    -0.00043174847
   8926000   0.05034162    -0.32807214     0.036662792   -0.21590179    -7.3227034e-05
   8927000   0.049446847   -0.32849251     0.036132409   -0.21819462    -0.0002613915 
   8928000   0.049654509   -0.32846258     0.035605394   -0.21838023    -0.00081572478
   8929000   0.049817045   -0.3288312      0.03590381    -0.21820664     0.00020064555
   8930000   0.049723242   -0.32828068     0.035791731   -0.21790889     0.00076561739
   8931000   0.049714836   -0.32878899     0.036310575   -0.21791097    -0.00061693928
   8932000   0.050072091   -0.32867844     0.035711065   -0.21786409    -0.00024974648
   8933000   0.049809732   -0.328131       0.036044845   -0.21737638    -0.00082008216
   8934000   0.049495227   -0.32804099     0.036016845   -0.21778609    -0.00045875523
   8935000   0.05021702    -0.32893269     0.035656021   -0.217956       0.0011906682 
   8936000   0.049908601   -0.32837012     0.035471807   -0.21804024     0.0012833006 
   8937000   0.050294398   -0.32847329     0.035820469   -0.21721609     0.00011438996
   8938000   0.049529709   -0.32873798     0.036367282   -0.21808093    -4.3081702e-05
   8939000   0.049753528   -0.32866172     0.036276481   -0.21775976    -0.0011528071 
   8940000   0.049704869   -0.32856611     0.035735175   -0.21827845    -0.00017673419
   8941000   0.049957356   -0.32858471     0.036247118   -0.21740639    -0.00052080554
   8942000   0.049491033   -0.32828778     0.036059687   -0.21799633    -0.00076338216
   8943000   0.049468252   -0.32805191     0.035925966   -0.21792835     0.00015964659
   8944000   0.050383244   -0.32832067     0.03568953    -0.21706115    -0.00050944459
   8945000   0.050238336   -0.32868485     0.035560895   -0.21777131    -0.00056328122
   8946000   0.049920362   -0.32816365     0.035955166   -0.21733277    -0.00020612117
   8947000   0.049674867   -0.32812382     0.03623124    -0.21738508    -1.6770831e-05
   8948000   0.050210341   -0.32782389     0.035980352   -0.21653288    -3.1427717e-05
   8949000   0.049580361   -0.32843064     0.036180878   -0.21788402    -0.00091170704
   8950000   0.049699205   -0.32841707     0.036081802   -0.21779127    -4.3879146e-05
   8951000   0.049621404   -0.32866487     0.036217083   -0.21802049    -0.00070696733
   8952000   0.050072658   -0.32843883     0.036042349   -0.21729233    -0.00011483081
   8953000   0.0505729     -0.32824228     0.036005009   -0.21638281    -0.00096170323
   8954000   0.049566831   -0.32814328     0.036055403   -0.21774243     0.00023562141
   8955000   0.050353676   -0.32866111     0.036103169   -0.2170323      0.00011147729
   8956000   0.050714799   -0.3283252      0.036414373   -0.21584353    -3.7599231e-05
   8957000   0.050025198   -0.32803435     0.036495279   -0.21650611    -0.00049266594
   8958000   0.050364504   -0.3283317      0.036465203   -0.21632461    -0.00084037839
   8959000   0.049896933   -0.3282482      0.036001131   -0.21740649    -0.00029597462
   8960000   0.049637177   -0.32824739     0.036043898   -0.21775253    -0.00055684378
   8961000   0.050094293   -0.32845918     0.035555455   -0.21776714    -0.00039846591
   8962000   0.049945114   -0.3284255      0.036618021   -0.21689465     0.00070904304
   8963000   0.050075047   -0.32830659     0.035549925   -0.21764894     7.4207932e-05
   8964000   0.050311692   -0.32811582     0.035383244   -0.2172699      2.6837375e-05
   8965000   0.049536773   -0.32835707     0.03563508    -0.21842162    -0.00017811724
   8966000   0.049692554   -0.32847126     0.036156335   -0.2177809     -0.00064519448
   8967000   0.050308712   -0.32865277     0.03601708    -0.21717749    -0.00032262866
   8968000   0.049775037   -0.32831217     0.035875354   -0.21777908     0.00052371887
   8969000   0.049503253   -0.3285087      0.036397181   -0.21786143    -0.00072772686
   8970000   0.049823338   -0.32858851     0.035904919   -0.21795341     0.0003165276 
   8971000   0.049761718   -0.32802685     0.035395342   -0.21799375     0.001553774  
   8972000   0.049910992   -0.32786375     0.036150301   -0.21685179    -0.0005710441 
   8973000   0.050196693   -0.32868758     0.036264677   -0.21713272    -0.00041100398
   8974000   0.050496061   -0.32826438     0.03634126    -0.21618392     0.0004764674 
   8975000   0.049980693   -0.32831526     0.035958415   -0.21739065    -0.00053908591
   8976000   0.050810871   -0.32846993     0.036053325   -0.21620522    -0.00022792484
   8977000   0.0503809     -0.32854961     0.035949457   -0.21703368     0.00027817849
   8978000   0.050478406   -0.32836413     0.036299683   -0.21635172     0.00054646523
   8979000   0.050371351   -0.32828754     0.035804907   -0.21693049    -0.00038705807
   8980000   0.049925547   -0.32826334     0.036599484   -0.21678037    -0.0012486789 
   8981000   0.049875946   -0.32830741     0.036044915   -0.21745341    -0.00048083686
   8982000   0.049688787   -0.32868157     0.035960524   -0.21819267    -0.00045529288
   8983000   0.04947171    -0.32795196     0.036162708   -0.21758647    -0.00013392776
   8984000   0.050022631   -0.3284113      0.03590286    -0.21747933    -0.00010616549
   8985000   0.049901294   -0.32795927     0.035900673   -0.21721149     0.0006297564 
   8986000   0.049759801   -0.32844556     0.035552711   -0.21825796     0.00025926803
   8987000   0.049581909   -0.3284741      0.036510288   -0.21759575     0.00010157371
   8988000   0.050281546   -0.32824964     0.036414402   -0.21641778    -0.0002503528 
   8989000   0.050307232   -0.32813781     0.036676613   -0.21600522     6.8501244e-05
   8990000   0.050119437   -0.32793597     0.035900605   -0.21686106     0.00080577537
   8991000   0.050398707   -0.32800125     0.03671566    -0.2156924      0.00022171482
   8992000   0.05094041    -0.32825678     0.036506908   -0.21534418     0.00064168015
   8993000   0.050189189   -0.32844162     0.036026316   -0.21713637     0.00016864971
   8994000   0.050355675   -0.32836543     0.036012983   -0.21682381     0.00073608793
   8995000   0.049465692   -0.32853484     0.036214732   -0.21812636    -0.00070790257
   8996000   0.050276395   -0.32879634     0.035793699   -0.21759292    -0.00040429886
   8997000   0.049680483   -0.32824133     0.036358195   -0.21736722    -0.0010797835 
   8998000   0.050047912   -0.32850193     0.03554935    -0.21788556     0.00078244042
   8999000   0.049700567   -0.32840439     0.035543561   -0.21831479     0.00051675538
   9000000   0.049534966   -0.32843169     0.035635161   -0.21849887    -4.1479488e-05
   9001000   0.050392069   -0.3282781      0.03621166    -0.21648321     0.00030677594
   9002000   0.049838747   -0.32780799     0.035732744   -0.21732194     0.00088945406
   9003000   0.05050946    -0.32852847     0.03589917    -0.21686999     0.00060624264
   9004000   0.050276701   -0.32870042     0.036078115   -0.21721212     0.00051653688
   9005000   0.050203612   -0.32825563     0.036037171   -0.2169179     -0.0002438861 
   9006000   0.049916588   -0.32830117     0.035509374   -0.21792175    -0.00029881403
   9007000   0.050223829   -0.3284527      0.035902384   -0.21721943     0.0005485635 
   9008000   0.050548127   -0.32862        0.03617073    -0.21663197    -0.00018449588
   9009000   0.049693155   -0.32817743     0.035904825   -0.21773768    -2.0781184e-05
   9010000   0.050507417   -0.32814242     0.035795453   -0.21659073     0.00036774408
   9011000   0.049649195   -0.328162       0.036285774   -0.21740723     0.001061687  
   9012000   0.049803632   -0.32807747     0.036090061   -0.21728678     0.00041605503
   9013000   0.050173846   -0.32834237     0.035493639   -0.21759282     0.00044556991
   9014000   0.049698901   -0.32825442     0.036015855   -0.21769502     0.00033833756
   9015000   0.050067837   -0.32773576     0.035724992   -0.21691386     0.00074405214
   9016000   0.049767101   -0.32828981     0.035917813   -0.21772616    -0.00090048664
   9017000   0.050189738   -0.32781465     0.036317569   -0.21621733     0.00083113548
   9018000   0.049636017   -0.32823023     0.035992423   -0.21778859     0.00022191006
   9019000   0.050527891   -0.32846142     0.035881403   -0.21679307     0.00050899003
   9020000   0.049959914   -0.32856155     0.035854411   -0.2177721     -0.00024875278
   9021000   0.049748294   -0.32864945     0.036322445   -0.21770938    -0.00031663464
   9022000   0.050097433   -0.3284207      0.035786082   -0.21749332    -0.0010705882 
   9023000   0.049999156   -0.32810844     0.035565329   -0.21754922     0.0007769953 
   9024000   0.050862154   -0.32863533     0.035978357   -0.21636867     0.00035741108
   9025000   0.050158155   -0.32895495     0.036834449   -0.21688812    -0.00016593223
   9026000   0.049813059   -0.32854951     0.036260433   -0.21757431    -0.00032861637
   9027000   0.049800747   -0.32867663     0.036022019   -0.21795831     0.00060674477
   9028000   0.050378748   -0.32893981     0.036210774   -0.21716579     0.00029403942
   9029000   0.049658797   -0.32793993     0.035671358   -0.21778518    -0.00011523006
   9030000   0.050064218   -0.3282211      0.035646679   -0.21748294    -0.00042612232
   9031000   0.049824537   -0.32797143     0.036235483   -0.21700396    -0.00024283876
   9032000   0.049968134   -0.32867925     0.036444417   -0.21728747    -0.00037135988
   9033000   0.050240025   -0.32848238     0.035718334   -0.21740887    -0.00040160748
   9034000   0.049703603   -0.32838798     0.036007239   -0.21783014    -0.00055812713
   9035000   0.050060328   -0.32840083     0.036024277   -0.2172909      0.00046618415
   9036000   0.050087839   -0.32875167     0.036399909   -0.21722485    -0.00058278681
   9037000   0.050424379   -0.32863493     0.036247543   -0.2167557      0.0009240882 
   9038000   0.050185206   -0.32862304     0.035032358   -0.21831773     0.00054437205
   9039000   0.050573039   -0.32858445     0.036081704   -0.21664808    -0.00074874976
   9040000   0.049905358   -0.32900138     0.035769872   -0.2183783     -0.0010251015 
   9041000   0.049585971   -0.32866981     0.035948151   -0.2183475      5.8124842e-05
   9042000   0.049151379   -0.32815304     0.035861629   -0.2185691     -0.0004382343 
   9043000   0.049878417   -0.32870594     0.035936042   -0.2179571      0.00058388111
   9044000   0.050888521   -0.32862362     0.035666613   -0.21662915    -3.5051762e-05
   9045000   0.050330527   -0.32847792     0.035823434   -0.21716356     7.8052459e-05
   9046000   0.050403385   -0.32865225     0.036064918   -0.21698713    -0.00011233426
   9047000   0.050310566   -0.32851301     0.035959119   -0.21709291     0.00070094573
   9048000   0.049829543   -0.3286459      0.035548212   -0.21835819     0.00028617085
   9049000   0.049427848   -0.3286947      0.03536351    -0.2191942     -0.00044452294
   9050000   0.049787503   -0.32864301     0.035800165   -0.21816641     8.6740616e-05
   9051000   0.05001128    -0.32863233     0.036361576   -0.21725868    -0.00025962652
   9052000   0.049982627   -0.32885808     0.036626207   -0.21726277    -0.00025053931
   9053000   0.049881369   -0.32875714     0.035819735   -0.21812018     0.0001951377 
   9054000   0.050294089   -0.32908346     0.035495983   -0.21815121    -0.00026125261
   9055000   0.050282158   -0.32859908     0.035845454   -0.21733526    -0.0005505518 
   9056000   0.050451994   -0.32836736     0.035404769   -0.21728949     0.0010203477 
   9057000   0.049925565   -0.32868899     0.035871342   -0.21793413    -0.0004009774 
   9058000   0.050387593   -0.32853069     0.035963142   -0.21699104    -4.9130025e-05
   9059000   0.049760906   -0.32898768     0.03631333    -0.21803781    -0.00029272679
   9060000   0.050529977   -0.32898654     0.036076131   -0.21712033    -0.00068492527
   9061000   0.049901869   -0.32877112     0.036058576   -0.21786457     0.00046677922
   9062000   0.050327365   -0.32872748     0.036247174   -0.21699413    -0.00093429673
   9063000   0.050054865   -0.32880669     0.036102102   -0.21762714    -0.00078995384
   9064000   0.050145519   -0.32838701     0.035655471   -0.21751811     4.6167886e-05
   9065000   0.049916145   -0.3285559      0.036107555   -0.21757896     0.00085717196
   9066000   0.049387548   -0.32857919     0.036563722   -0.21793892    -0.00037164598
   9067000   0.050071686   -0.32880711     0.036798935   -0.21690549    -0.0002240188 
   9068000   0.050043888   -0.32838067     0.03698649    -0.21633319     0.00083969919
   9069000   0.050342652   -0.32857675     0.036159131   -0.21690851     0.00072555447
   9070000   0.050078369   -0.32830986     0.036083428   -0.21711372     0.00033539829
   9071000   0.050298726   -0.32882861     0.036827834   -0.21655755     0.000841054  
   9072000   0.050408816   -0.32883075     0.036519272   -0.21670313    -0.00020923214
   9073000   0.050123011   -0.32858666     0.035842417   -0.21756458    -0.00066139982
   9074000   0.050235648   -0.32853723     0.036136517   -0.21705211    -2.8479908e-07
   9075000   0.050036526   -0.32862299     0.035794343   -0.2177787      4.1387744e-05
   9076000   0.050242648   -0.32864285     0.036112027   -0.21717171    -0.00036497459
   9077000   0.050562724   -0.32815959     0.035758754   -0.21656164     8.6060384e-05
   9078000   0.049955633   -0.32847237     0.036027312   -0.21751644     0.00068117383
   9079000   0.050043282   -0.32887246     0.036004586   -0.21780779    -0.00027624306
   9080000   0.050002384   -0.32857553     0.036401665   -0.21717513    -0.000640924  
   9081000   0.04984361    -0.32869891     0.036027015   -0.2179113      0.00015306642
   9082000   0.050264995   -0.32842102     0.035834531   -0.21719386     0.00047493824
   9083000   0.050137026   -0.3288212      0.035808042   -0.21781247     0.00017168641
   9084000   0.049791775   -0.32843197     0.036055908   -0.21769321     0.00022963203
   9085000   0.050249545   -0.32869899     0.035855849   -0.21747369     0.00076339464
   9086000   0.049793825   -0.32878278     0.036187338   -0.21790952    -0.00017242448
   9087000   0.050840814   -0.3286123      0.035352258   -0.21700374     0.00015168377
   9088000   0.049831068   -0.32886244     0.035994077   -0.21812659     0.00023840442
   9089000   0.049843252   -0.32861206     0.036361154   -0.21749085     0.00017020333
   9090000   0.04961448    -0.32853679     0.035867544   -0.21825233     0.00034497654
   9091000   0.049807665   -0.32882116     0.035957648   -0.21815684    -0.00063744398
   9092000   0.049939442   -0.32890284     0.036348763   -0.21764974    -0.00020064183
   9093000   0.050123291   -0.32926498     0.035489415   -0.21859548     0.00081753424
   9094000   0.05006448    -0.32920151     0.036258238   -0.2178514     -0.00047395253
   9095000   0.049925489   -0.32937897     0.036063019   -0.21843255    -0.00045271602
   9096000   0.049580998   -0.32927467     0.03578891    -0.21911906    -0.00026255761
   9097000   0.049812435   -0.32860017     0.036064426   -0.21782191    -1.0687498e-05
   9098000   0.049955194   -0.32849836     0.036457862   -0.21711254    -0.00021096852
   9099000   0.049928993   -0.32855425     0.036271011   -0.21739458    -0.00089153982
   9100000   0.050371465   -0.32860503     0.035903109   -0.2171496      5.1302663e-06
   9101000   0.050144843   -0.32891041     0.035865578   -0.21783242     0.00044968838
   9102000   0.050229981   -0.3289117      0.036425591   -0.217146       0.00045765529
   9103000   0.049736215   -0.32876784     0.036419105   -0.21774923    -0.00054409987
   9104000   0.049374632   -0.3285384      0.035497522   -0.21898371     0.00014345958
   9105000   0.050549353   -0.32912384     0.03588682    -0.21741788    -7.4711808e-05
   9106000   0.05010557    -0.32879284     0.036305051   -0.21733429     6.0121318e-05
   9107000   0.0498719     -0.32827626     0.036337079   -0.21713616    -0.00025786909
   9108000   0.05034558    -0.32850881     0.035948157   -0.21704716     0.00069230868
   9109000   0.049712475   -0.32879138     0.035810203   -0.21841728     1.6492473e-06
   9110000   0.050115342   -0.32894254     0.036655143   -0.21711923    -0.00072898361
   9111000   0.050979109   -0.3287869      0.03633121    -0.21599196     0.00050832485
   9112000   0.050719572   -0.32875261     0.036481698   -0.21619646     0.00047782263
   9113000   0.049865246   -0.32869445     0.035978634   -0.21792278    -0.0004443966 
   9114000   0.049698235   -0.32897002     0.036146367   -0.21828111    -3.1107635e-05
   9115000   0.049345632   -0.32902285     0.036345835   -0.21866334     7.241199e-05 
   9116000   0.049643785   -0.32834671     0.036515873   -0.21736996     0.00028611659
   9117000   0.050230629   -0.32869818     0.036588423   -0.21676868    -0.00071997662
   9118000   0.050431584   -0.32886427     0.035685402   -0.21753637     0.00047768173
   9119000   0.04979347    -0.32916259     0.036668538   -0.21780866    -0.00044585523
   9120000   0.050040011   -0.32897415     0.035182482   -0.21873649     0.0011191758 
   9121000   0.049775017   -0.32879512     0.035982582   -0.21815483    -0.00030442877
   9122000   0.049766021   -0.32883902     0.036047055   -0.21814775     0.00038536912
   9123000   0.049907971   -0.3294309      0.036333654   -0.21824012    -0.00060419947
   9124000   0.050237172   -0.3289545      0.03594447    -0.21765913    -7.2277117e-05
   9125000   0.049592142   -0.32856426     0.035673048   -0.2185078      0.00028006904
   9126000   0.049429145   -0.32884082     0.036140095   -0.21856179     0.00018263863
   9127000   0.050404557   -0.32868199     0.036865871   -0.21621416     0.00019752639
   9128000   0.050724258   -0.3288519      0.035834554   -0.21693587     0.00063874181
   9129000   0.050025247   -0.32869032     0.036375055   -0.21728223     0.000692763  
   9130000   0.050140669   -0.32905475     0.035607036   -0.21824157     0.00012352688
   9131000   0.049955376   -0.32899855     0.036216098   -0.21785422     0.00067180794
   9132000   0.049793635   -0.329007       0.03616162    -0.21815975     0.0010355425 
   9133000   0.050057326   -0.32872786     0.036375389   -0.21727132    -0.00014261977
   9134000   0.049780692   -0.32895722     0.03606118    -0.21822981    -6.5060821e-06
   9135000   0.049827244   -0.32869154     0.036577006   -0.21737849    -0.00032592593
   9136000   0.049847237   -0.32834288     0.035238669   -0.21833818     0.0008797678 
   9137000   0.049423713   -0.32860651     0.035698044   -0.21877768    -0.00031446472
   9138000   0.049739026   -0.32852886     0.035452319   -0.21847282    -4.9136215e-05
   9139000   0.049957818   -0.32861158     0.035928634   -0.21775105    -0.00050870688
   9140000   0.050119766   -0.32877248     0.036232973   -0.21736471     0.00079976247
   9141000   0.049477928   -0.32889068     0.036316722   -0.21836185    -0.00010223262
   9142000   0.050639322   -0.32904007     0.03532551    -0.21776048     0.00013363742
   9143000   0.049938346   -0.32883372     0.03681545    -0.21711559    -0.00043888059
   9144000   0.049732185   -0.32866831     0.035570184   -0.21850466     0.00081344215
   9145000   0.050113779   -0.32880697     0.036232177   -0.21740897    -0.00068519803
   9146000   0.049881342   -0.32881819     0.036062622   -0.21793838    -0.00036737408
   9147000   0.049808856   -0.3287801      0.036320415   -0.21775122    -0.00042919222
   9148000   0.049562736   -0.32902715     0.036430093   -0.21825775    -0.00031942937
   9149000   0.050453873   -0.32850815     0.036333481   -0.21649874     9.0128819e-05
   9150000   0.050026138   -0.32868927     0.036453817   -0.21720109    -0.00014069962
   9151000   0.050011505   -0.32880968     0.036188647   -0.21760861    -0.0003709576 
   9152000   0.049857771   -0.32867401     0.036142101   -0.21775008     0.00025361977
   9153000   0.051032367   -0.32887028     0.035622163   -0.2167045     -0.00017109075
   9154000   0.05026854    -0.3287486      0.035988598   -0.21736206    -0.00049201663
   9155000   0.050766113   -0.32895048     0.035626646   -0.21717957     0.00081359153
   9156000   0.050554757   -0.32890553     0.035913035   -0.21716525     0.00068748159
   9157000   0.049713432   -0.32852022     0.036068585   -0.2178863      0.00076487697
   9158000   0.050039245   -0.32920787     0.036103556   -0.21805029    -0.00030224725
   9159000   0.050328458   -0.32881646     0.036304954   -0.21702368    -0.00046311641
   9160000   0.049692958   -0.32845898     0.036427141   -0.21749721     1.449779e-05 
   9161000   0.050504217   -0.32846885     0.036240846   -0.21647657    -0.00048550238
   9162000   0.050172918   -0.32879078     0.035766833   -0.21776943     9.9076095e-05
   9163000   0.050155529   -0.32864067     0.03576523    -0.217647      -0.00068189434
   9164000   0.049973126   -0.32852422     0.036384664   -0.21718471    -0.00049257465
   9165000   0.050254364   -0.32911145     0.036595117   -0.21713965    -0.0004762368 
   9166000   0.050333394   -0.32896714     0.036635739   -0.21683618    -0.00097055028
   9167000   0.050506824   -0.32873231     0.035677819   -0.21729914    -0.00024326975
   9168000   0.049907035   -0.32914585     0.036819818   -0.21747031    -0.00041267089
   9169000   0.050154852   -0.32935688     0.036757975   -0.21737148    -0.00015216095
   9170000   0.050049348   -0.32896282     0.036948575   -0.21694506    -0.00084307875
   9171000   0.050097442   -0.3291573      0.035856412   -0.21815957    -0.00063802267
   9172000   0.049820162   -0.32892074     0.035614022   -0.2185813     -0.0002467097 
   9173000   0.049546473   -0.32868139     0.036721968   -0.2176445      0.00078490462
   9174000   0.049979615   -0.32911313     0.035929925   -0.21821862    -0.0011257143 
   9175000   0.050365782   -0.3290043      0.035937082   -0.21752342    -0.00020926069
   9176000   0.049956446   -0.3291447      0.035955844   -0.21825902     0.00031708881
   9177000   0.05059658    -0.32872456     0.035290102   -0.21754448     0.00040101248
   9178000   0.050293221   -0.3292873      0.036197513   -0.21765482    -0.00046616361
   9179000   0.050168403   -0.32898736     0.035926302   -0.21781331     0.00017327371
   9180000   0.049323492   -0.32858134     0.036028581   -0.2185723     -0.00037514226
   9181000   0.049774944   -0.32880824     0.035806764   -0.21834388     0.0001607659 
   9182000   0.049808883   -0.32934597     0.035965293   -0.21867217     0.00026788042
   9183000   0.049591515   -0.32904153     0.036069343   -0.21858971    -0.0001477573 
   9184000   0.050032633   -0.3289332      0.035453316   -0.21843578    -0.00035299022
   9185000   0.049910411   -0.32911351     0.035704909   -0.21854782    -0.0007981671 
   9186000   0.049416923   -0.32912368     0.0362314     -0.21877167     5.2875959e-05
   9187000   0.049874419   -0.32924897     0.036493159   -0.21794901    -3.5116737e-05
   9188000   0.04996786    -0.32893948     0.035576049   -0.21841647    -0.00051406391
   9189000   0.05026691    -0.32867307     0.036409781   -0.21686778     7.251537e-05 
   9190000   0.049844537   -0.32902666     0.035737689   -0.21852699     0.00099473673
   9191000   0.050477925   -0.32901841     0.036053935   -0.21725247     0.00015310825
   9192000   0.049757364   -0.32867457     0.036614523   -0.21742881    -0.00022710937
   9193000   0.050220082   -0.32924775     0.035482574   -0.21843991     0.00010870456
   9194000   0.050424572   -0.32879521     0.035896547   -0.21726669    -0.0010442747 
   9195000   0.04951194    -0.32930734     0.036262581   -0.21878164    -0.00058135725
   9196000   0.049904048   -0.32927852     0.036076771   -0.21835051    -0.00049415553
   9197000   0.049692244   -0.3289018      0.035227616   -0.21914063     0.00057957714
   9198000   0.049822362   -0.32885045     0.035420717   -0.21870101     0.00063788921
   9199000   0.049425314   -0.32887756     0.036225401   -0.21851897     0.00013328263
   9200000   0.050145948   -0.32943588     0.035744948   -0.21847686    -0.00101038   
   9201000   0.049909264   -0.3290196      0.035673122   -0.21848741    -0.00024015352
   9202000   0.049951212   -0.32895683     0.035796355   -0.2182385     -9.0740823e-05
   9203000   0.049626278   -0.32914308     0.036028713   -0.21867975    -0.00016837775
   9204000   0.049919607   -0.32890687     0.036315919   -0.21771637    -0.00036365523
   9205000   0.049582692   -0.32888407     0.035940032   -0.2185748      0.00011585048
   9206000   0.050014171   -0.3290635      0.035590478   -0.21845661     0.00026044108
   9207000   0.049898688   -0.32948104     0.035950052   -0.21868778    -0.00022618723
   9208000   0.049778792   -0.32933965     0.03609722    -0.21857906    -0.00013084402
   9209000   0.049896963   -0.3288847      0.0360569     -0.21798719    -0.0005243177 
   9210000   0.050393852   -0.32881372     0.036056573   -0.21717124    -0.00049654254
   9211000   0.049357289   -0.32856973     0.035840237   -0.21869834     1.7483e-05   
   9212000   0.049439759   -0.329064       0.036497095   -0.21841205    -0.00067595128
   9213000   0.050218827   -0.32892149     0.035338978   -0.21825913    -0.00078602989
   9214000   0.050502467   -0.32891583     0.035611169   -0.21755585    -0.00017099773
   9215000   0.050154547   -0.32931899     0.035571283   -0.21852074    -6.8387139e-05
   9216000   0.050246016   -0.32889359     0.036079633   -0.21744979    -0.00051945567
   9217000   0.050157079   -0.32923514     0.036534584   -0.21746979     8.8590388e-05
   9218000   0.04969489    -0.32940677     0.036141379   -0.21872787     0.0008531422 
   9219000   0.050353458   -0.3289309      0.035945099   -0.21746049    -0.00025842545
   9220000   0.050220981   -0.32888712     0.036454398   -0.21710611    -0.00029860389
   9221000   0.049861166   -0.32922626     0.0367464     -0.21769293     0.0002594005 
   9222000   0.050398445   -0.32922216     0.035724936   -0.21790443     0.00025189224
   9223000   0.050045321   -0.32894921     0.035557684   -0.21832839     0.00038161334
   9224000   0.050287084   -0.32858332     0.035370884   -0.21778667     2.2143437e-06
   9225000   0.050587771   -0.32947384     0.035930657   -0.21766642    -0.00043959546
   9226000   0.049835554   -0.32905106     0.036221996   -0.21808056    -0.00080952375
   9227000   0.05007578    -0.32889229     0.036578543   -0.21720492    -9.8251865e-05
   9228000   0.049691277   -0.32909418     0.036443909   -0.21811816    -9.1975076e-05
   9229000   0.049995894   -0.32920618     0.036030121   -0.21818705    -0.0004859796 
   9230000   0.049898094   -0.32912821     0.036495812   -0.21779009     0.00020880471
   9231000   0.050244037   -0.32922758     0.03586866    -0.21799773    -0.00028373776
   9232000   0.050047881   -0.32912382     0.035928644   -0.2181282      0.00032271771
   9233000   0.049938774   -0.32911217     0.035652129   -0.21855671    -0.00054283074
   9234000   0.049932643   -0.32899953     0.03638772    -0.21771768    -0.0004549695 
   9235000   0.050423872   -0.32901045     0.035944189   -0.21743533     0.00047659746
   9236000   0.050305588   -0.32929224     0.036169164   -0.21766956    -0.0011007016 
   9237000   0.049759412   -0.32909846     0.036319738   -0.21814442    -0.0004457558 
   9238000   0.050339066   -0.32873051     0.035652143   -0.21757464    -0.00029154256
   9239000   0.049522359   -0.32922161     0.036424207   -0.21851865    -0.00055216999
   9240000   0.049664228   -0.32907923     0.035762552   -0.21882514     0.00014989681
   9241000   0.050075155   -0.32924044     0.035596549   -0.21853601     0.0004525874 
   9242000   0.049941993   -0.32877206     0.036183072   -0.21768084    -0.00083234808
   9243000   0.049941495   -0.32899599     0.036289881   -0.2177987      0.0007283352 
   9244000   0.050055388   -0.3292057      0.035974555   -0.2181529      3.5413582e-05
   9245000   0.04961819    -0.32881942     0.036139774   -0.21825717    -0.00024867828
   9246000   0.049779132   -0.32903309     0.035776187   -0.21859302    -0.00077252065
   9247000   0.050469431   -0.32907544     0.036043185   -0.21733299     0.0003768017 
   9248000   0.05027717    -0.32916795     0.035995865   -0.2177612     -0.00056565432
   9249000   0.050574669   -0.3292199      0.036364557   -0.21699823    -0.00033467488
   9250000   0.050042877   -0.32866098     0.03584171    -0.21775979     0.0019035067 
   9251000   0.050534693   -0.32871957     0.035758209   -0.21716421     6.1663236e-05
   9252000   0.050121808   -0.3289183      0.035797454   -0.21794298    -0.00030853589
   9253000   0.049845353   -0.32944842     0.03607412    -0.2186111     -9.9638142e-05
   9254000   0.050278003   -0.32907776     0.036190778   -0.21747485     0.0001322116 
   9255000   0.050050649   -0.32934256     0.036178991   -0.21809244     0.00015337275
   9256000   0.050009441   -0.32891864     0.036111355   -0.21779797     0.00098369473
   9257000   0.050637406   -0.32942758     0.036224911   -0.21725146    -0.00018479475
   9258000   0.04990491    -0.32918954     0.036206403   -0.2181306      0.00020138404
   9259000   0.049861561   -0.32889816     0.03627989    -0.21783075     0.0001041806 
   9260000   0.050129523   -0.32896828     0.03638311    -0.21739573     0.00037610142
   9261000   0.050021605   -0.32887574     0.036118729   -0.21772944    -8.1381658e-05
   9262000   0.050187066   -0.32938598     0.035535372   -0.21857487    -0.00018656999
   9263000   0.050071639   -0.32931221     0.035378739   -0.21883086     0.00077656514
   9264000   0.050136686   -0.32962533     0.035604217   -0.21882094    -0.00028290797
   9265000   0.049703537   -0.3289054      0.035714275   -0.21864063    -0.00011574668
   9266000   0.049875135   -0.32899355     0.036204048   -0.21798163     0.00061151754
   9267000   0.050532702   -0.32911931     0.036494095   -0.21683105     0.00089821194
   9268000   0.050355035   -0.32938538     0.036467205   -0.2173905     -0.00069429765
   9269000   0.050400373   -0.32896205     0.035480219   -0.21788615     0.00037677578
   9270000   0.050225733   -0.32914008     0.036031004   -0.21777534     0.00017298295
   9271000   0.049949363   -0.329354       0.036090266   -0.21834452    -0.00068956847
   9272000   0.049636442   -0.32903136     0.03587567    -0.21870583    -0.00043426831
   9273000   0.049400498   -0.32934651     0.036138984   -0.21911156    -5.7291916e-05
   9274000   0.05021765    -0.32915241     0.035692932   -0.21813786    -0.00023688726
   9275000   0.049525311   -0.32921663     0.036438211   -0.21849525    -0.00017447705
   9276000   0.049762881   -0.32888848     0.036337481   -0.21791149    -0.00025310433
   9277000   0.050170322   -0.32952282     0.036076165   -0.21819603    -0.00093788497
   9278000   0.050073761   -0.32905552     0.03614209    -0.21780763    -0.00035107935
   9279000   0.050074973   -0.32881206     0.035897953   -0.21780649    -4.3120732e-05
   9280000   0.050068717   -0.32936978     0.036118461   -0.21815308     1.1007442e-05
   9281000   0.049589345   -0.32888243     0.036094406   -0.21840881    -0.00048228286
   9282000   0.049786216   -0.32874699     0.035542249   -0.21853023    -0.00056172894
   9283000   0.050003216   -0.32915189     0.036047463   -0.21810445    -0.00074800814
   9284000   0.050179863   -0.32896804     0.035259473   -0.21844363     8.3391658e-05
   9285000   0.049850468   -0.32906906     0.035875606   -0.21842257     0.0002096084 
   9286000   0.04962698    -0.3291947      0.036328295   -0.21843074    -0.000387339  
   9287000   0.049795058   -0.32928903     0.035799699   -0.21880156    -0.00050866446
   9288000   0.050084394   -0.32887726     0.035944756   -0.21781076    -2.6922242e-05
   9289000   0.050259511   -0.32867562     0.036133209   -0.21715801     0.00054532207
   9290000   0.050080614   -0.3290112      0.03605398    -0.21784115     0.00044084162
   9291000   0.049854925   -0.3289505      0.036082347   -0.21809059    -0.00069395574
   9292000   0.049332481   -0.3291766      0.036345804   -0.21883685    -0.0002738452 
   9293000   0.04974339    -0.32938491     0.035618732   -0.21915591    -0.00018121297
   9294000   0.049311838   -0.32882497     0.036157069   -0.21870492     0.00031271348
   9295000   0.049654152   -0.32904473     0.035723937   -0.21884437     0.00071642829
   9296000   0.049199063   -0.32914453     0.036313434   -0.21903726    -0.00072729952
   9297000   0.050611705   -0.32923686     0.035788548   -0.21753565    -0.00024102702
   9298000   0.050191876   -0.32903104     0.035426943   -0.21832114     0.00041869183
   9299000   0.049803733   -0.32922581     0.036074206   -0.21845083    -0.00026084026
   9300000   0.049958691   -0.32860353     0.036006234   -0.21766409    -0.00089281061
   9301000   0.049897464   -0.32879807     0.036565484   -0.21739121     0.00041869567
   9302000   0.050470194   -0.32879031     0.03626825    -0.21682165    -0.00038460837
   9303000   0.049309875   -0.32848094     0.036425705   -0.2180952      0.00029711737
   9304000   0.050623184   -0.32897289     0.035714225   -0.21732879    -0.00098923737
   9305000   0.049886566   -0.32891429     0.035925656   -0.21816361     0.0010248475 
   9306000   0.049766948   -0.32907347     0.036415018   -0.21801285     0.00019751019
   9307000   0.050069162   -0.32954918     0.035989661   -0.21846062    -0.00045904584
   9308000   0.049953086   -0.32953775     0.035637095   -0.21897586    -0.00047322652
   9309000   0.049692392   -0.32895498     0.03584926    -0.21857194    -0.0014264557 
   9310000   0.050351417   -0.32958711     0.036174514   -0.21789034    -0.0010167924 
   9311000   0.049630851   -0.32892484     0.036200695   -0.21828267     0.0011948198 
   9312000   0.049851893   -0.32922258     0.03631182    -0.21813774    -0.00032856635
   9313000   0.050310139   -0.32943513     0.036477089   -0.2174977      0.00024487556
   9314000   0.050137098   -0.32911768     0.035455963   -0.21846092    -0.00084131952
   9315000   0.049500712   -0.32944385     0.036065207   -0.21913237    -0.00024858656
   9316000   0.049881496   -0.32885505     0.035233308   -0.21880432     0.0010137485 
   9317000   0.050064415   -0.32942553     0.035922339   -0.21841141    -0.00061786366
   9318000   0.050110346   -0.32929203     0.036284561   -0.2178468     -0.0006552679 
   9319000   0.050068117   -0.32908233     0.036070849   -0.21791415     0.00020497344
   9320000   0.049735533   -0.32910728     0.035341129   -0.21916766     0.0010977557 
   9321000   0.049999288   -0.32941795     0.036030883   -0.21839297    -0.00029857827
   9322000   0.050183136   -0.32915626     0.036255307   -0.2176311     -0.00059995473
   9323000   0.050356296   -0.32906977     0.035957768   -0.21758243     0.00029627558
   9324000   0.050283334   -0.32918506     0.035796831   -0.2179681      0.00058531496
   9325000   0.050276956   -0.32878653     0.035676095   -0.21769986     0.001194736  
   9326000   0.049581388   -0.32928944     0.035753104   -0.21916905    -0.00064500288
   9327000   0.04987912    -0.32849273     0.035733369   -0.21794551     0.0002789887 
   9328000   0.049483459   -0.3288684      0.035625593   -0.21902241    -0.00010996817
   9329000   0.049685106   -0.32906271     0.035843211   -0.21869665     0.00064605773
   9330000   0.049439808   -0.32916632     0.03620031    -0.21881108    -0.00038930906
   9331000   0.050013186   -0.32933041     0.036207601   -0.21810788     0.00030973584
   9332000   0.050653632   -0.32906749     0.035768732   -0.21732321    -0.0006633063 
   9333000   0.050419964   -0.32922148     0.035744648   -0.21785177     0.00067825428
   9334000   0.050110909   -0.32946341     0.036600467   -0.21770143    -9.717758e-05 
   9335000   0.049620146   -0.32941179     0.035640339   -0.21934604     0.00073644   
   9336000   0.049880886   -0.32922221     0.035572968   -0.21883274    -0.00012455972
   9337000   0.049561284   -0.32911424     0.035825045   -0.21895207     0.00019731592
   9338000   0.050171661   -0.3294472      0.035436      -0.21875856    -0.00036201989
   9339000   0.049969459   -0.32903386     0.036421895   -0.21766262     0.00015919211
   9340000   0.049526973   -0.32921281     0.035907128   -0.21902002     0.00032699836
   9341000   0.049939886   -0.32903151     0.03583759    -0.21828892     0.0014849981 
   9342000   0.050143326   -0.32916669     0.036011495   -0.21794506     0.00062739093
   9343000   0.050839522   -0.32877109     0.036070699   -0.21644603    -0.0002906152 
   9344000   0.050138216   -0.32906707     0.03638597    -0.21747863     0.00023016831
   9345000   0.050000369   -0.32889853     0.036033797   -0.21786902     0.0005683328 
   9346000   0.050160822   -0.32924491     0.036559041   -0.21744949    -0.00010567269
   9347000   0.050404655   -0.32899905     0.035961064   -0.21743588     8.9004994e-05
   9348000   0.050738053   -0.32948        0.035490937   -0.21788689     0.00030690957
   9349000   0.049645206   -0.32937851     0.036458267   -0.21845724     0.00014262342
   9350000   0.049669776   -0.32902492     0.03563841    -0.21888665    -0.00016900715
   9351000   0.049263287   -0.32870713     0.035534873   -0.2192821      0.00017178398
   9352000   0.049664775   -0.32953396     0.035829434   -0.21921217    -0.00030958401
   9353000   0.049948044   -0.32912028     0.036559948   -0.2176431      0.00039636955
   9354000   0.050262961   -0.32911243     0.036597142   -0.21712571    -0.00037744473
   9355000   0.050260742   -0.32918157     0.036234985   -0.21756034     0.00032379026
   9356000   0.049741224   -0.3287865      0.036224792   -0.21795469    -0.00032973118
   9357000   0.049939106   -0.32912399     0.036201881   -0.21801828     0.00069479754
   9358000   0.049814792   -0.32909921     0.03644666    -0.21793518     1.5771986e-05
   9359000   0.050013996   -0.32913318     0.036090882   -0.21802614     0.0011124616 
   9360000   0.049887925   -0.32920657     0.035650543   -0.21872897    -0.00025059102
   9361000   0.049815231   -0.32938112     0.035824463   -0.21883863     3.9923119e-05
   9362000   0.050278486   -0.32875673     0.0361636     -0.21718027     0.00036553715
   9363000   0.050802149   -0.32930525     0.035946402   -0.21716054    -0.00068581323
   9364000   0.050159961   -0.32901985     0.036492306   -0.21729246     0.00041841818
   9365000   0.049576969   -0.32894224     0.03567553    -0.21890606     1.011054e-05 
   9366000   0.050083835   -0.32938024     0.03638207    -0.21787727     0.00039504465
   9367000   0.050226782   -0.32936541     0.0366593     -0.21737079     0.00075774508
   9368000   0.05006998    -0.32936114     0.036565016   -0.217696      -0.00013554344
   9369000   0.050422527   -0.32923065     0.035844779   -0.21775696     0.00041475797
   9370000   0.050244708   -0.32954778     0.036438834   -0.21774674     0.00042716938
   9371000   0.050002171   -0.32961436     0.036177377   -0.21843857     0.00041452952
   9372000   0.050797419   -0.32923866     0.03530841    -0.21773904     0.00034636686
   9373000   0.050495858   -0.32888846     0.035494921   -0.21765464     0.00062338976
   9374000   0.050082759   -0.32930278     0.03577869    -0.21840479    -0.00050889841
   9375000   0.049427883   -0.32915496     0.0370036     -0.21801432    -0.0014761443 
   9376000   0.050301387   -0.32899228     0.035686287   -0.21785878    -0.00038663317
   9377000   0.050031705   -0.32891517     0.035876304   -0.21799615     0.00020983006
   9378000   0.04936686    -0.32890596     0.036370651   -0.21848979    -0.00015365194
   9379000   0.050079253   -0.32887922     0.036008433   -0.21775675     0.00028033526
   9380000   0.049892645   -0.32903253     0.036128389   -0.21807        0.00093701467
   9381000   0.049886503   -0.32968122     0.036182763   -0.21867353     0.00022086863
   9382000   0.049697047   -0.32922897     0.035571666   -0.21911654    -0.00030764174
   9383000   0.049678151   -0.3293955      0.035767654   -0.21911543     0.00019887558
   9384000   0.049563498   -0.32911077     0.035529465   -0.21924085    -0.00023527202
   9385000   0.049874967   -0.32951113     0.035928855   -0.21877465    -0.00027750006
   9386000   0.049547645   -0.32947249     0.036501676   -0.21865414     0.00015355534
   9387000   0.049291482   -0.32941987     0.035860015   -0.21962741     9.8930494e-05
   9388000   0.050423478   -0.32882375     0.036259378   -0.21693403     0.00068913014
   9389000   0.050351758   -0.32951192     0.03585741    -0.21813175     0.00012445134
   9390000   0.049784251   -0.32903416     0.035832644   -0.21852996     0.00038111615
   9391000   0.050482519   -0.32912041     0.035753836   -0.21764768     0.00039564118
   9392000   0.049543165   -0.32932361     0.035671323   -0.21934233    -0.00049774346
   9393000   0.049804289   -0.32929425     0.035833811   -0.21875882     8.4696045e-05
   9394000   0.049640232   -0.32930857     0.036272074   -0.21858095    -8.449789e-05 
   9395000   0.049648909   -0.32926815     0.036110838   -0.21868875     0.0010812038 
   9396000   0.050023436   -0.32925072     0.035605945   -0.21861446     0.00071627823
   9397000   0.050624784   -0.32926495     0.036151498   -0.21718117     0.00057571768
   9398000   0.050216741   -0.3292001      0.035931745   -0.21794811    -0.00082232795
   9399000   0.050830737   -0.32930246     0.03619078    -0.21687049     0.0011467403 
   9400000   0.04986008    -0.32925205     0.035347522   -0.21911923    -0.00032322311
   9401000   0.049988268   -0.32943678     0.036287505   -0.21817172     0.00077164244
   9402000   0.050014937   -0.32878147     0.035795633   -0.21796828    -0.00045271624
   9403000   0.050412949   -0.32938618     0.036032863   -0.21773878     0.00043024598
   9404000   0.049882572   -0.3296154      0.035592687   -0.21920369    -8.8991654e-05
   9405000   0.049752984   -0.32954935     0.035733003   -0.21919169    -3.7350113e-05
   9406000   0.049475973   -0.32921917     0.035436448   -0.21957355     0.00024055951
   9407000   0.049562175   -0.32947716     0.035566443   -0.21957225     0.001044142  
   9408000   0.050064631   -0.32917742     0.036231689   -0.21785363     0.00047592367
   9409000   0.049778395   -0.32931933     0.036038752   -0.2186178     -0.00057296064
   9410000   0.050085546   -0.32893346     0.0356598     -0.21815019    -0.00020623635
   9411000   0.049660509   -0.32923184     0.035710913   -0.21903497     0.0009231332 
   9412000   0.049925036   -0.32911709     0.036125928   -0.21810844    -0.00031176294
   9413000   0.049390356   -0.32949468     0.035766398   -0.21964753    -0.00026044122
   9414000   0.049391993   -0.32908786     0.035786261   -0.21921839    -0.00069076455
   9415000   0.05017619    -0.32966698     0.036334256   -0.2180733     -0.00012044715
   9416000   0.050634191   -0.32969062     0.035954488   -0.21778974     8.9541835e-05
   9417000   0.050228805   -0.32895621     0.036997802   -0.21662006    -0.00053737483
   9418000   0.050201977   -0.32920058     0.03626696    -0.21763551    -6.2772766e-05
   9419000   0.04975871    -0.32929797     0.03625021    -0.21841451    -0.00050357878
   9420000   0.050091425   -0.32954025     0.03620632    -0.21820164    -0.0007365995 
   9421000   0.050204574   -0.3294523      0.036344084   -0.21780621    -0.0001444623 
   9422000   0.050200538   -0.32931524     0.036094024   -0.21792526    -0.0014831279 
   9423000   0.050320075   -0.32972905     0.036080198   -0.21817361    -0.00012261831
   9424000   0.050314278   -0.3296055      0.035455119   -0.21868383    -0.00014356193
   9425000   0.049881111   -0.32932402     0.036694051   -0.21781313    -0.00046860451
   9426000   0.050215363   -0.32919448     0.036229732   -0.21764656    -0.00070634877
   9427000   0.050047931   -0.32989548     0.036896254   -0.21793217    -0.00030672828
   9428000   0.049728607   -0.32935778     0.036122445   -0.21864723    -0.00091169606
   9429000   0.049910353   -0.32960088     0.035123678   -0.2196165     -0.00014723713
   9430000   0.049418462   -0.32964498     0.035533786   -0.21998828    -0.00024860767
   9431000   0.049708221   -0.32954561     0.035529232   -0.21945886     0.00037383064
   9432000   0.049834465   -0.32971891     0.035891254   -0.21908078     0.00098703756
   9433000   0.050384733   -0.32923384     0.035177652   -0.21848397     0.00044245246
   9434000   0.050779475   -0.32938885     0.035976365   -0.21724818    -0.00034667601
   9435000   0.050218103   -0.32933912     0.03587397    -0.21814286    -7.9464909e-05
   9436000   0.05023409    -0.32924343     0.036090874   -0.21780628    -0.00024181188
   9437000   0.050451872   -0.32956756     0.036392001   -0.21750263     0.0002329014 
   9438000   0.050096616   -0.32942288     0.036205959   -0.21807684    -0.00042524397
   9439000   0.049805092   -0.32974245     0.036141159   -0.21889847     0.00074725332
   9440000   0.049971573   -0.32950039     0.036085328   -0.21846254     0.00054369578
   9441000   0.050613121   -0.32962325     0.036052594   -0.21765588     0.00015386293
   9442000   0.050166734   -0.329279       0.036381772   -0.21765199     0.00011738639
   9443000   0.050763283   -0.32933394     0.03582301    -0.21737091     0.00060607265
   9444000   0.04972571    -0.32977587     0.036835322   -0.21835679    -0.0010809865 
   9445000   0.049316401   -0.3294981      0.036394609   -0.21913366    -0.00093442606
   9446000   0.049764205   -0.3292621      0.035904382   -0.21871623     0.00075216927
   9447000   0.04992883    -0.32927652     0.035981293   -0.21840681    -0.00019133211
   9448000   0.050142827   -0.32897935     0.035888867   -0.21788109     0.00050377239
   9449000   0.050308625   -0.32978909     0.035917971   -0.21841305     0.00086252428
   9450000   0.04999905    -0.32955371     0.035571241   -0.21898873     0.00030937694
   9451000   0.04970584    -0.32932119     0.035902394   -0.21886485     0.00037190857
   9452000   0.049522634   -0.32950312     0.036239221   -0.21898474    -0.00075928069
   9453000   0.049486944   -0.32971987     0.035300096   -0.22019415     0.00029327863
   9454000   0.049945307   -0.32971759     0.035747482   -0.21905698     0.00021366604
   9455000   0.049891939   -0.32949786     0.035981975   -0.2186828     -0.00044343979
   9456000   0.050450264   -0.32956479     0.035608258   -0.21828602     0.0003802275 
   9457000   0.049297078   -0.32955953     0.036008675   -0.21961001     0.00011810766
   9458000   0.050183501   -0.32954143     0.035882554   -0.21838848     0.0003838951 
   9459000   0.050262808   -0.32964834     0.036387723   -0.21787126     0.00057743162
   9460000   0.049822377   -0.32987456     0.036259351   -0.21888646    -0.00027967016
   9461000   0.049916392   -0.32946163     0.036131265   -0.21846061     0.00023775201
   9462000   0.050579038   -0.32966675     0.036246977   -0.21755612     3.5184594e-05
   9463000   0.050482927   -0.32995966     0.035843629   -0.21839653     0.0001397756 
   9464000   0.050324558   -0.33011811     0.035809199   -0.21882694    -0.00065694365
   9465000   0.049408021   -0.32960477     0.035759359   -0.21973816    -0.00069091973
   9466000   0.049854308   -0.32985042     0.03631438    -0.2187594     -0.00085762446
   9467000   0.050314023   -0.32896347     0.035672583   -0.21782473     0.00047079601
   9468000   0.050521137   -0.32951679     0.036063266   -0.21767671     0.00036572258
   9469000   0.049972075   -0.32920762     0.036079929   -0.21817441     0.00034039008
   9470000   0.049626586   -0.32947373     0.035923512   -0.21911514     0.00052955198
   9471000   0.050007796   -0.32950094     0.036127986   -0.2183661      0.00080758976
   9472000   0.050529865   -0.32956028     0.035855481   -0.21791489    -0.00040720468
   9473000   0.049552494   -0.32941433     0.036084862   -0.21900552    -0.00054153266
   9474000   0.050990061   -0.3294379      0.036204238   -0.21675351     0.00044176598
   9475000   0.050643951   -0.32930666     0.036136591   -0.21720904    -0.00055021234
   9476000   0.050485312   -0.32943268     0.036141967   -0.21756763    -6.131011e-05 
   9477000   0.050030653   -0.32963611     0.035992715   -0.21860226     0.00058120968
   9478000   0.049921626   -0.32946475     0.035835843   -0.2187513      0.00054962932
   9479000   0.049904018   -0.32966558     0.036127514   -0.21868687    -0.00011170446
   9480000   0.050244726   -0.32958378     0.036254296   -0.21796726     0.00026658539
   9481000   0.049648349   -0.32970837     0.036399753   -0.2188409      1.2127059e-05
   9482000   0.049796892   -0.32975265     0.036430596   -0.21863154    -0.00030614405
   9483000   0.04964483    -0.32940462     0.03623515    -0.21870702     0.00019721013
   9484000   0.050011197   -0.32955166     0.03644915    -0.21809055    -0.00013854382
   9485000   0.049813634   -0.32932695     0.036734488   -0.21787684     0.00089508467
   9486000   0.049897036   -0.32946013     0.036193826   -0.21842558    -0.00012822914
   9487000   0.050241662   -0.32960784     0.035688037   -0.21856218     0.00033764466
   9488000   0.050120663   -0.3293867      0.035747952   -0.2184626      0.00042102487
   9489000   0.049958259   -0.32999018     0.036144039   -0.21891359    -0.00050893265
   9490000   0.04954724    -0.32999748     0.036552075   -0.21912934    -0.0010766847 
   9491000   0.049662163   -0.32945617     0.036145109   -0.21882262     0.00070950789
   9492000   0.049967548   -0.32949261     0.036323706   -0.21822242    -9.9871011e-05
   9493000   0.049758548   -0.32969543     0.036203982   -0.21885845    -0.00053832915
   9494000   0.049935216   -0.32988928     0.036047151   -0.21894414    -0.00042321237
   9495000   0.049080084   -0.32972376     0.036350725   -0.21975766     0.00052863107
   9496000   0.050569102   -0.32984198     0.035679766   -0.21831345     0.00049922816
   9497000   0.050076827   -0.32985468     0.036167233   -0.21857706    -0.00061900979
   9498000   0.050569012   -0.32957896     0.036196639   -0.21753369    -0.00080608238
   9499000   0.050261249   -0.32994142     0.036081466   -0.21847294     9.6583733e-05
   9500000   0.04990598    -0.3296868      0.035679938   -0.21915272     0.00061620092
   9501000   0.050007552   -0.32967945     0.035603502   -0.21906946     0.0011530947 
   9502000   0.04967576    -0.32989802     0.035949357   -0.21943983    -0.0001328324 
   9503000   0.049921695   -0.32997952     0.035886149   -0.21921566     0.000298511  
   9504000   0.049877754   -0.3298329      0.035873841   -0.21914726     0.00031444083
   9505000   0.050393691   -0.32953993     0.035546088   -0.21840818     0.00054521525
   9506000   0.050371171   -0.32973017     0.035881538   -0.21829675     0.00087284024
   9507000   0.049773398   -0.32974356     0.036376514   -0.21871177     0.00089827727
   9508000   0.049958721   -0.33031535     0.036684304   -0.2186978     -0.0005961105 
   9509000   0.050269056   -0.32983946     0.035839427   -0.21860131     0.00026167986
   9510000   0.049596139   -0.32969397     0.035398319   -0.21990625     0.0002375518 
   9511000   0.04960803    -0.329687       0.035559687   -0.21972007     0.0004532021 
   9512000   0.050526015   -0.32976043     0.03604272    -0.21793358    -0.0001949238 
   9513000   0.04955859    -0.32957559     0.035651379   -0.21959112     0.0003497708 
   9514000   0.050665827   -0.32995547     0.035884297   -0.21807733    -0.00019523857
   9515000   0.049731533   -0.32927386     0.035698632   -0.21898274     0.0008628787 
   9516000   0.049646803   -0.32976578     0.036110112   -0.21919027    -0.00022199993
   9517000   0.049365897   -0.32966617     0.035952348   -0.21966976     0.00013152543
   9518000   0.049789214   -0.32962747     0.036174014   -0.21877445     0.0010109271 
   9519000   0.049506472   -0.33008614     0.03621514    -0.21961608     0.00035173991
   9520000   0.049441406   -0.32982941     0.036239642   -0.21943245     0.00042101434
   9521000   0.049848493   -0.32968591     0.036110541   -0.21880745     0.00065827369
   9522000   0.050233272   -0.32977118     0.036398883   -0.21802725     0.00034368381
   9523000   0.049820512   -0.33013582     0.036099694   -0.21931018    -0.00069049628
   9524000   0.050695668   -0.32989331     0.035846185   -0.21800853    -0.00029318661
   9525000   0.050121477   -0.32998559     0.036070565   -0.21873766     0.0005860299 
   9526000   0.05002734    -0.32946978     0.035534513   -0.21889909     0.00074202309
   9527000   0.050726923   -0.32957618     0.035283874   -0.21820684     0.00077464488
   9528000   0.050126471   -0.32948177     0.034984262   -0.21931265     0.00035328887
   9529000   0.049915125   -0.33021367     0.035868973   -0.21947684     0.00039720484
   9530000   0.050430429   -0.32968419     0.036263137   -0.21778029     0.00045381513
   9531000   0.050044997   -0.32949296     0.03588445    -0.21854585     0.00083685958
   9532000   0.049308624   -0.32986104     0.035726288   -0.22017659     0.0014091919 
   9533000   0.049479292   -0.32993209     0.036455312   -0.21926263    -0.00039872708
   9534000   0.049974172   -0.32987196     0.036185412   -0.21873013     5.0359431e-05
   9535000   0.04990812    -0.32998932     0.03586618    -0.21926579    -0.00051497178
   9536000   0.049641214   -0.32971061     0.036289522   -0.21896407    -4.4009569e-07
   9537000   0.049699825   -0.32979195     0.035790629   -0.21945639     0.00022692397
   9538000   0.049936187   -0.32979789     0.036114638   -0.21878381    -0.00045998131
   9539000   0.050432169   -0.33019932     0.03626112    -0.21829482     8.5090348e-05
   9540000   0.050423458   -0.3297702      0.03595276    -0.21818713     0.00086199291
   9541000   0.050468303   -0.3295977      0.036330109   -0.21757002    -4.0530627e-05
   9542000   0.049882142   -0.32952861     0.036635596   -0.21807463     0.00026206921
   9543000   0.050571518   -0.32961616     0.036280437   -0.21748334     0.00088825741
   9544000   0.050282279   -0.33015913     0.036349811   -0.21839077     6.7612759e-05
   9545000   0.050596403   -0.33030342     0.035913615   -0.2185001     -0.00058749381
   9546000   0.049846382   -0.32976337     0.035907935   -0.21909068     0.00024241567
   9547000   0.050218553   -0.32946918     0.036182564   -0.21796364     0.00033707125
   9548000   0.050468624   -0.32986028     0.035959905   -0.21820233    -0.00036556883
   9549000   0.049929793   -0.3298499      0.035882611   -0.21907743    -0.00045582493
   9550000   0.049560183   -0.32960044     0.036139836   -0.21912512    -0.00034846175
   9551000   0.05002065    -0.32997014     0.035972587   -0.21897141    -0.00024789034
   9552000   0.049759169   -0.32962286     0.03619584    -0.21879309     0.00024376094
   9553000   0.049908469   -0.32965781     0.035827374   -0.21897256     0.00054186817
   9554000   0.050475556   -0.32976632     0.03556537    -0.2184925     -0.00013039188
   9555000   0.050141434   -0.32990126     0.03581268    -0.21888129    -0.00021920196
   9556000   0.050511249   -0.32976549     0.036210166   -0.21779334     0.00025077401
   9557000   0.050372198   -0.32927035     0.036545801   -0.21717112     0.00062612508
   9558000   0.050039656   -0.32955919     0.036273161   -0.21823139     0.00030218873
   9559000   0.049908139   -0.32951681     0.035821712   -0.21883771     0.00040753938
   9560000   0.050391272   -0.32993734     0.036546228   -0.21780908    -0.00055315228
   9561000   0.049905737   -0.32980213     0.036540143   -0.21840821    -0.00015802567
   9562000   0.049645614   -0.32969635     0.036599438   -0.21863329     0.00039999696
   9563000   0.050160774   -0.32982583     0.035825637   -0.21876389     0.00038063678
   9564000   0.050123838   -0.3298089      0.036132062   -0.21849594    -0.0006114464 
   9565000   0.05016332    -0.32986304     0.036189451   -0.21843346     2.2208687e-05
   9566000   0.050315517   -0.33017565     0.036071557   -0.21863569    -0.00023216879
   9567000   0.049961632   -0.32987667     0.036565918   -0.21837314    -0.0012840037 
   9568000   0.050032692   -0.33018778     0.035990514   -0.21915307     0.00068436088
   9569000   0.049782608   -0.32993988     0.035927681   -0.21934311    -0.00046541707
   9570000   0.050038822   -0.32977304     0.035603812   -0.21911584     8.9816652e-05
   9571000   0.050186104   -0.33050915     0.0357411     -0.21949375    -0.00033381716
   9572000   0.050157856   -0.33004689     0.036006791   -0.21880817     0.00018664166
   9573000   0.050086969   -0.32992713     0.03583849    -0.21896303     0.00018449535
   9574000   0.050288785   -0.33016939     0.035949615   -0.21879146     0.00065158514
   9575000   0.049674828   -0.33006436     0.035827374   -0.21972955     0.00062949549
   9576000   0.050033335   -0.33000106     0.03540092    -0.21955498     0.00075208124
   9577000   0.050381456   -0.33026374     0.035917721   -0.21877871     4.5341957e-05
   9578000   0.049884946   -0.33027568     0.035988781   -0.21946431     0.00052314282
   9579000   0.04990339    -0.33008794     0.03612027    -0.21911741    -0.00061125754
   9580000   0.05006346    -0.33010156     0.036801982   -0.21820923    -0.00025653897
   9581000   0.049765784   -0.32998092     0.035774891   -0.21956217     0.00059572074
   9582000   0.049865963   -0.33009626     0.035592393   -0.21970975     0.001303206  
   9583000   0.049979343   -0.32986559     0.036273587   -0.21862783     0.00099187055
   9584000   0.050055546   -0.33005614     0.036223745   -0.21875392    -0.0011586594 
   9585000   0.050204266   -0.32974508     0.036021114   -0.21842242     0.00042671625
   9586000   0.050427548   -0.32961534     0.036101704   -0.21787719    -0.00060575997
   9587000   0.049443125   -0.32978685     0.036317748   -0.2193092      0.0004545905 
   9588000   0.049368554   -0.32989673     0.036128624   -0.21972005    -4.0503401e-05
   9589000   0.050043375   -0.33007822     0.035921257   -0.21909674    -0.00018878602
   9590000   0.049514419   -0.33050273     0.035987681   -0.22024821     0.00065003817
   9591000   0.050265582   -0.32983027     0.036667854   -0.21776891     0.0001244092 
   9592000   0.050528777   -0.33004299     0.035641788   -0.21861293     0.0010260204 
   9593000   0.049586137   -0.32987884     0.035842635   -0.2196618      4.5054582e-05
   9594000   0.049278243   -0.32992108     0.035943751   -0.22006474     0.00062966145
   9595000   0.049328383   -0.32995451     0.035809013   -0.22015769     0.00028611308
   9596000   0.049003651   -0.32970768     0.03580292    -0.22040402     0.00016414359
   9597000   0.049709945   -0.32958085     0.035464822   -0.21955592     0.00089429141
   9598000   0.049738923   -0.33009129     0.036091504   -0.21939622    -0.00025221526
   9599000   0.050195619   -0.32978052     0.03502909    -0.21946286     0.00059246729
   9600000   0.050267771   -0.32985533     0.035585359   -0.21887318     0.00040170942
   9601000   0.050219489   -0.32997343     0.036220826   -0.21842823    -0.00045123388
   9602000   0.049913621   -0.32980258     0.036676569   -0.21826041    -0.00040179999
   9603000   0.050360994   -0.32989685     0.035585251   -0.21877498     0.00051680761
   9604000   0.050317675   -0.33026706     0.035820606   -0.21897481     0.00059035854
   9605000   0.049907715   -0.33012915     0.035613013   -0.21965939     0.00081914618
   9606000   0.050662929   -0.32991422     0.035269941   -0.21865479     0.00013262023
   9607000   0.050046674   -0.33035281     0.035607373   -0.21968027     0.00012572752
   9608000   0.04934584    -0.3298644      0.035909369   -0.21994105     0.0005506107 
   9609000   0.049793813   -0.32988387     0.036328496   -0.21886948    -0.00064387625
   9610000   0.049892667   -0.32993289     0.036054438   -0.21904428     0.0004144005 
   9611000   0.050455619   -0.33024013     0.036087241   -0.21847435     9.2629935e-05
   9612000   0.049229854   -0.329974       0.036423282   -0.2197107      0.00061927744
   9613000   0.0496617     -0.33041194     0.035657631   -0.22026656    -0.00046815564
   9614000   0.05000637    -0.33012157     0.035851617   -0.21926524    -0.00016917364
   9615000   0.049792725   -0.33059113     0.036070208   -0.21983665    -0.00021103624
   9616000   0.049810891   -0.33025233     0.035516393   -0.22002442     6.1089468e-05
   9617000   0.05038565    -0.32982712     0.035467154   -0.21878636     0.0010210829 
   9618000   0.049968152   -0.33006098     0.035736179   -0.21937741    -0.00029776155
   9619000   0.049447417   -0.32966561     0.036092148   -0.21940712     0.00048948951
   9620000   0.049847468   -0.33006985     0.035422654   -0.21988081    -9.8432841e-05
   9621000   0.049934012   -0.32994721     0.036119432   -0.21893159    -6.559032e-06 
   9622000   0.050301059   -0.33031794     0.035927498   -0.21894372    -7.8992368e-05
   9623000   0.05049824    -0.33018825     0.035835581   -0.21861019     0.00024044118
   9624000   0.04982503    -0.33001132     0.036026754   -0.21925185    -0.00034933233
   9625000   0.050834985   -0.33022674     0.03563435    -0.21834483    -0.00026841972
   9626000   0.050238832   -0.33036123     0.036017667   -0.21899018     2.7707008e-05
   9627000   0.049911218   -0.32990168     0.03625154    -0.21878814     0.00018825987
   9628000   0.050187001   -0.3303077      0.036001189   -0.21903087    -0.00050438772
   9629000   0.049922847   -0.3299593      0.035852466   -0.21922739     0.00036325616
   9630000   0.050392416   -0.3299929      0.036081523   -0.21832763    -0.00060386538
   9631000   0.050398016   -0.33018362     0.035977127   -0.21861435     0.0010287549 
   9632000   0.049984106   -0.3303956      0.036127093   -0.21929719     0.00027652316
   9633000   0.049954037   -0.33016623     0.036802334   -0.21843768     0.00035196146
   9634000   0.050225338   -0.32976666     0.036557018   -0.2178765      5.2799782e-05
   9635000   0.049555357   -0.33009039     0.03572468    -0.22003747     0.00097185795
   9636000   0.049765898   -0.33017591     0.035744176   -0.2197877     -0.0005850007 
   9637000   0.049701467   -0.33001946     0.035396143   -0.22007593     0.00015034699
   9638000   0.050069684   -0.33006973     0.036127608   -0.21884244    -0.00079413935
   9639000   0.049908254   -0.33034135     0.035668693   -0.2198151      0.00029766282
   9640000   0.049976613   -0.33036147     0.036111946   -0.21928944    -0.00065932912
   9641000   0.049738668   -0.32998532     0.036006321   -0.21937581     0.00015008388
   9642000   0.049826132   -0.32988491     0.035950467   -0.21920007     0.00023036697
   9643000   0.050138108   -0.33044946     0.036262913   -0.21898424    -0.00079033172
   9644000   0.049811596   -0.33054158     0.035466091   -0.22036292    -0.00021552916
   9645000   0.049956828   -0.33020145     0.035487741   -0.2197833      0.00081894341
   9646000   0.050023293   -0.33034237     0.036322459   -0.21898982    -0.00095828364
   9647000   0.050305033   -0.32952056     0.036013773   -0.2180541     -0.00048728703
   9648000   0.049960113   -0.32978547     0.036393016   -0.21845712     0.00053643103
   9649000   0.049622507   -0.33019972     0.035661995   -0.22010876     0.0003518685 
   9650000   0.049654474   -0.33038294     0.035754401   -0.22015163     0.00030415052
   9651000   0.050009006   -0.33025236     0.035610474   -0.21963322     0.00027311422
   9652000   0.049945933   -0.32990845     0.035926142   -0.21906824    -0.0004289492 
   9653000   0.050223943   -0.32981156     0.035614481   -0.21886602     6.7306519e-05
   9654000   0.050004173   -0.32996806     0.035953722   -0.21901292     6.8696185e-05
   9655000   0.049733783   -0.32999642     0.035928899   -0.21947166    -0.001010996  
   9656000   0.049704088   -0.33002203     0.036451804   -0.2190189     -0.00068891127
   9657000   0.050108506   -0.32997163     0.036140441   -0.21867328    -0.00024538035
   9658000   0.049842565   -0.33050999     0.036148301   -0.21960266    -0.0004509012 
   9659000   0.050555725   -0.33004623     0.035786567   -0.21843097    -3.0445674e-06
   9660000   0.049860923   -0.32998423     0.035992276   -0.2192054     -0.00010284809
   9661000   0.050820429   -0.33025391     0.035919604   -0.21810858    -9.4571926e-05
   9662000   0.049575054   -0.32991098     0.036722457   -0.21883074    -0.0007079518 
   9663000   0.049922673   -0.33022928     0.036118872   -0.21923122    -6.3359659e-07
   9664000   0.050300194   -0.33004448     0.035888436   -0.21871062     0.00058078445
   9665000   0.049768425   -0.33022002     0.036475525   -0.21909668     0.00027119631
   9666000   0.049764203   -0.32980866     0.036185739   -0.21898143     0.00064569959
   9667000   0.051325374   -0.32995837     0.036319957   -0.21665532     0.0010685474 
   9668000   0.050107664   -0.33004825     0.036281266   -0.21861034     0.00035158496
   9669000   0.050331232   -0.32980938     0.036486477   -0.21783093    -0.00066798729
   9670000   0.050222686   -0.33000356     0.036372501   -0.2183019      0.00070412391
   9671000   0.050229202   -0.32989909     0.035974668   -0.21858548     7.1613621e-05
   9672000   0.049833268   -0.32963182     0.035843472   -0.21904327     0.0005083102 
   9673000   0.04942859    -0.33049095     0.035563931   -0.22078892    -0.00086256377
   9674000   0.049884948   -0.33006499     0.035581838   -0.21966056     0.00011612908
   9675000   0.049866307   -0.3292925      0.036244896   -0.21825297     0.00040544762
   9676000   0.049940906   -0.32991142     0.03587046    -0.21913443     0.00046400958
   9677000   0.050425161   -0.32984687     0.035737554   -0.21847646    -0.00019139599
   9678000   0.049905581   -0.32982928     0.036424449   -0.21855128    -0.00055676471
   9679000   0.050073653   -0.32993428     0.036278282   -0.21855037     0.00021539052
   9680000   0.049789597   -0.33021838     0.035978517   -0.21956028     0.00039812997
   9681000   0.049566366   -0.33007145     0.03584894    -0.21987776    -0.00029895544
   9682000   0.049418113   -0.32995023     0.036292818   -0.21953502     0.00089476068
   9683000   0.049732226   -0.33038381     0.035959472   -0.21983081    -0.0010596461 
   9684000   0.049999345   -0.33025074     0.035861443   -0.21939511     0.00047877482
   9685000   0.050175074   -0.33018293     0.035697741   -0.21922744    -0.00032294722
   9686000   0.050050337   -0.32987539     0.036160591   -0.21864414    -7.4678975e-06
   9687000   0.04963534    -0.33016584     0.035956713   -0.21976092     0.00066055637
   9688000   0.049768328   -0.33011501     0.035757415   -0.21970991     0.00032335343
   9689000   0.050064589   -0.3300762      0.036242346   -0.21874182     0.00013549491
   9690000   0.04975535    -0.33046022     0.03612033    -0.21971168    -0.00069204269
   9691000   0.049280937   -0.3303129      0.036042335   -0.22035393    -0.00025875485
   9692000   0.049884418   -0.3303599      0.036097514   -0.21944058    -5.8613284e-05
   9693000   0.050036156   -0.3303984      0.036496177   -0.21885283     0.0012244017 
   9694000   0.050004009   -0.33033209     0.036272387   -0.21905853     0.00040192691
   9695000   0.050141369   -0.33025163     0.035851794   -0.21919264    -0.00020175241
   9696000   0.050571417   -0.33028354     0.036026235   -0.21840507    -0.0002879316 
   9697000   0.049782135   -0.3299433      0.035856782   -0.21941813     0.00063595976
   9698000   0.050023608   -0.33009981     0.035417688   -0.21965155    -0.00014679045
   9699000   0.050151315   -0.33004371     0.03572166    -0.21909993     0.000356801  
   9700000   0.050316813   -0.32982608     0.036157624   -0.2181981      0.00092497927
   9701000   0.050558036   -0.32991802     0.035962266   -0.21812359     0.00087753145
   9702000   0.050101473   -0.33013134     0.036225227   -0.21875875     0.00032091706
   9703000   0.049682099   -0.33025779     0.036173656   -0.2195658      0.00029054038
   9704000   0.050100595   -0.33015033     0.035808515   -0.21919577     0.00072050323
   9705000   0.050422551   -0.33030373     0.036664424   -0.21801036    -2.4080211e-05
   9706000   0.049947904   -0.33030086     0.036541498   -0.21884234     0.00021965722
   9707000   0.049988741   -0.33023113     0.035920139   -0.21933271    -4.9470592e-05
   9708000   0.049797906   -0.32984398     0.035533919   -0.21961802     0.00052486545
   9709000   0.050040131   -0.33014698     0.03611148    -0.21898014     0.00019774975
   9710000   0.049687466   -0.32991597     0.036070439   -0.21931914     0.00085656748
   9711000   0.049861771   -0.33033861     0.03540683    -0.22014395     0.00011785783
   9712000   0.049867206   -0.33060894     0.036289574   -0.21952338    -0.0010424577 
   9713000   0.049385537   -0.32996202     0.036127032   -0.21976146    -0.00024187231
   9714000   0.050608978   -0.33034818     0.035467816   -0.2189718     -0.00013206538
   9715000   0.049942374   -0.3301255      0.036658822   -0.21855795    -0.00014088899
   9716000   0.049621525   -0.32995219     0.035655139   -0.21986956     0.00023827016
   9717000   0.049721504   -0.33007091     0.03584612    -0.21964734     0.00036672447
   9718000   0.04996385    -0.33034075     0.036095643   -0.21930417     0.00017396328
   9719000   0.049350235   -0.33008715     0.035780878   -0.2202857      0.00037875418
   9720000   0.050674392   -0.33005334     0.035686316   -0.21836034     0.0004902008 
   9721000   0.04963592    -0.32968983     0.03583849    -0.21940226     0.00046566528
   9722000   0.050187075   -0.32999867     0.036627216   -0.21809569    -0.00019679197
   9723000   0.049842306   -0.33036949     0.036600349   -0.21901051     0.00037450139
   9724000   0.050079206   -0.3300968      0.036081399   -0.21890144    -0.00043071173
   9725000   0.049800632   -0.33068869     0.036600772   -0.21939179     0.00034422614
   9726000   0.049725242   -0.33001146     0.035410649   -0.22001776    -0.00034208806
   9727000   0.049428164   -0.33015134     0.035777138   -0.22023673     0.00017577606
   9728000   0.049493106   -0.33035833     0.03617014    -0.21995332    -0.00037821556
   9729000   0.049207099   -0.33034886     0.036074523   -0.22046845     0.00050138644
   9730000   0.050100487   -0.33016198     0.036160278   -0.21885582     0.00075581246
   9731000   0.049551091   -0.33030071     0.035794444   -0.22018443    -5.1248978e-06
   9732000   0.049960554   -0.33033224     0.035647324   -0.21974892     0.00019402994
   9733000   0.049469388   -0.33036946     0.036302733   -0.21986743     0.0010374238 
   9734000   0.050011037   -0.33044978     0.036586466   -0.2188516     -0.0010054794 
   9735000   0.050389612   -0.33007692     0.036086063   -0.21841132     0.00013071353
   9736000   0.049569211   -0.33000107     0.036237701   -0.21941435     0.00027173475
   9737000   0.049929674   -0.33009673     0.036059051   -0.219148       0.00076833325
   9738000   0.050434307   -0.33033702     0.035454043   -0.2192364      0.00092737068
   9739000   0.050209324   -0.3296726      0.036047761   -0.21831571    -0.00033020143
   9740000   0.049870762   -0.33031491     0.035698151   -0.21981545    -0.00014256663
   9741000   0.049651496   -0.33000875     0.036420965   -0.21911534     0.00039745007
   9742000   0.04968835    -0.32983775     0.036527997   -0.21878204    -0.00019987003
   9743000   0.049901533   -0.32995017     0.03596444    -0.21913826     0.00026918311
   9744000   0.049763406   -0.32994596     0.036371883   -0.21893378    -1.50987e-05  
   9745000   0.050121088   -0.33045625     0.036355541   -0.21892393    -0.00098584808
   9746000   0.050468478   -0.32981615     0.036125016   -0.2179933      0.00050869262
   9747000   0.049882266   -0.33019895     0.036254609   -0.21912577    -0.00095084806
   9748000   0.050760569   -0.3300566      0.035950429   -0.21797023     3.6642557e-05
   9749000   0.050253491   -0.33017197     0.03614282    -0.21865378     0.00029865876
   9750000   0.050532476   -0.33047939     0.035981849   -0.21870372    -0.00039448381
   9751000   0.050040403   -0.33000042     0.035807532   -0.21913712     0.00077499981
   9752000   0.05032555    -0.33049142     0.036333797   -0.21867417    -0.00057140992
   9753000   0.049951171   -0.33072754     0.035905184   -0.21990044     0.00052925433
   9754000   0.049569095   -0.33057897     0.03614639    -0.22008374    -0.00032632275
   9755000   0.0495952     -0.3302093      0.035581146   -0.22024015     0.00063198534
   9756000   0.050197234   -0.33028079     0.036043067   -0.21894673    -0.00017313641
   9757000   0.050358898   -0.32995808     0.035504266   -0.21892034     0.00042064009
   9758000   0.050257281   -0.33011444     0.035965304   -0.21876807     0.00014183364
   9759000   0.050230225   -0.33042644     0.036698253   -0.21838771     7.9648176e-05
   9760000   0.050186642   -0.33054076     0.036389022   -0.21887663    -0.00049386903
   9761000   0.0503456     -0.3302711      0.036065296   -0.21869228     0.00042233273
   9762000   0.050000612   -0.33023095     0.036197883   -0.21903699    -0.00056619739
   9763000   0.050120419   -0.33058295     0.036258512   -0.21914867     7.6494998e-05
   9764000   0.049453338   -0.32994238     0.03605641    -0.21971075     0.0006052559 
   9765000   0.049467257   -0.32998195     0.036201101   -0.21958475     6.2097266e-05
   9766000   0.050238924   -0.32991019     0.036386374   -0.21817029     0.00060331536
   9767000   0.049950258   -0.33011845     0.035998323   -0.21919957    -0.00011613297
   9768000   0.050173626   -0.33017947     0.036383868   -0.21854002     0.00028653306
   9769000   0.05027651    -0.33022526     0.036364127   -0.21845124     0.00014086629
   9770000   0.050414618   -0.33019088     0.035948081   -0.21862575     0.00061530073
   9771000   0.05034414    -0.33046871     0.036206112   -0.21875126    -0.00030595606
   9772000   0.049776553   -0.3304151      0.035949079   -0.21980601     0.00015389939
   9773000   0.049800227   -0.33010437     0.036024264   -0.21938458    -0.00078274308
   9774000   0.050515879   -0.33018715     0.036021284   -0.21839694     0.00061026873
   9775000   0.050218196   -0.33026463     0.036407965   -0.21853423    -0.00012714705
   9776000   0.049568134   -0.33036282     0.036033152   -0.21998227     0.00044567385
   9777000   0.049702109   -0.33033339     0.035803113   -0.21998193    -0.00022182271
   9778000   0.049565206   -0.33021107     0.03609869    -0.21976937     0.00073036321
   9779000   0.049561906   -0.3307334      0.035547459   -0.22084788     0.00052524849
   9780000   0.050022311   -0.33026637     0.035818372   -0.21941937    -9.4998699e-05
   9781000   0.050212673   -0.33041837     0.035996578   -0.21910764     0.00034790936
   9782000   0.050284385   -0.33001075     0.036277238   -0.2183118      9.6536752e-05
   9783000   0.050252702   -0.33003993     0.036188059   -0.21847768    -0.00033351768
   9784000   0.050481277   -0.33002929     0.036384008   -0.21792825    -0.00018200791
   9785000   0.049721822   -0.33044447     0.036061101   -0.21980545     0.00053807922
   9786000   0.050358513   -0.33009986     0.036043626   -0.21852334     0.00037742251
   9787000   0.049871622   -0.32981345     0.035749498   -0.21926135    -0.0001908565 
   9788000   0.049494865   -0.33048168     0.035777466   -0.22046671     2.3909436e-05
   9789000   0.049383241   -0.33020026     0.035832851   -0.22029733    -0.00027847547
   9790000   0.049297399   -0.33007534     0.035904123   -0.22022988     0.00015203465
   9791000   0.049623562   -0.33021062     0.036214888   -0.21956519     0.00028918784
   9792000   0.049826725   -0.33026941     0.035658191   -0.21987596     1.5786326e-05
   9793000   0.049870856   -0.32995729     0.036913717   -0.21824212    -1.7470045e-05
   9794000   0.050039425   -0.33031174     0.036165537   -0.21909191     0.00022143325
   9795000   0.049976638   -0.33016397     0.035616318   -0.21958753    -5.56565e-05  
   9796000   0.050031172   -0.33039152     0.035982005   -0.21936759    -4.8113893e-05
   9797000   0.050249214   -0.33021485     0.036382283   -0.21846361     0.00020418542
   9798000   0.049772843   -0.33003867     0.035991273   -0.21939295     0.00025514935
   9799000   0.049656752   -0.33004371     0.035297921   -0.22026546     0.0003306486 
   9800000   0.049710696   -0.33020116     0.035607238   -0.22003268    -0.00050469011
   9801000   0.050265333   -0.32999687     0.035609753   -0.21899398     0.00057138388
   9802000   0.049889398   -0.33014399     0.035468916   -0.21984581     0.00072794246
   9803000   0.05025236    -0.33039067     0.035469374   -0.21954762    -0.0006871767 
   9804000   0.049518309   -0.33022134     0.03587349    -0.22007518    -0.00031096645
   9805000   0.049691133   -0.33048365     0.035468732   -0.22048303     2.9607479e-06
   9806000   0.049456605   -0.33032709     0.036111058   -0.22003591    -0.00028537461
   9807000   0.049719068   -0.33062161     0.035549502   -0.22049832    -0.00016853381
   9808000   0.049442977   -0.33036648     0.035340336   -0.22086646    -0.00025108779
   9809000   0.049779825   -0.33029845     0.035027636   -0.2206059      0.00043215928
   9810000   0.050195953   -0.33010744     0.035869438   -0.21894893     0.00025862847
   9811000   0.049160201   -0.3301703      0.035669163   -0.22076559     0.00062355328
   9812000   0.05012079    -0.33013902     0.03615324    -0.21880945     0.00012520774
   9813000   0.050043494   -0.33032392     0.036139395   -0.21912413    -0.00035799578
   9814000   0.050474333   -0.32974664     0.036106795   -0.21793323    -0.00040584972
   9815000   0.049717452   -0.33057846     0.036369087   -0.21963801    -3.7825249e-05
   9816000   0.049927742   -0.33063058     0.036397345   -0.21934645    -0.00085247192
   9817000   0.049829877   -0.33049298     0.03564098    -0.220112       0.00022791954
   9818000   0.050238388   -0.33040332     0.03616037    -0.21889022    -0.0003215774 
   9819000   0.050116655   -0.33054002     0.03577633    -0.21959356    -8.9158249e-05
   9820000   0.05030253    -0.3304185      0.036141389   -0.21882818    -0.00020262095
   9821000   0.049881271   -0.33027475     0.036060903   -0.21939677     0.00033837603
   9822000   0.050108615   -0.33068082     0.035146258   -0.22037649     2.2369562e-05
   9823000   0.050187868   -0.33040254     0.036152822   -0.21897277    -0.00074128762
   9824000   0.04968672    -0.33014557     0.036594554   -0.21902575    -0.00053929312
   9825000   0.05053427    -0.33069381     0.036201995   -0.2186953     -0.00081615524
   9826000   0.050187257   -0.33013567     0.035714649   -0.21914499    -0.00032513876
   9827000   0.050170285   -0.33093586     0.036178802   -0.21950649    -0.00063667085
   9828000   0.049498523   -0.33052132     0.036443341   -0.21983499    -0.00072250919
   9829000   0.050082734   -0.33027874     0.035720136   -0.21943935     0.00084691201
   9830000   0.04981693    -0.33064573     0.03600245    -0.2199227      0.00061698112
   9831000   0.050167915   -0.33011976     0.036021071   -0.21885168     0.001028598  
   9832000   0.050441266   -0.3306821      0.036724815   -0.21830027     0.000139866  
   9833000   0.050272052   -0.33068974     0.036432813   -0.21885372     0.00019654073
   9834000   0.050062289   -0.3303006      0.036267061   -0.21894495    -1.6819106e-05
   9835000   0.049882784   -0.33038001     0.035692762   -0.2198679      0.00019919076
   9836000   0.050147292   -0.3300674      0.035854453   -0.21899686    -0.00011832879
   9837000   0.050393152   -0.33052584     0.036115328   -0.21882566     4.175064e-05 
   9838000   0.04992016    -0.33013078     0.036188552   -0.21906681    -0.0010653964 
   9839000   0.050700371   -0.33019239     0.036031427   -0.21811531     0.00072140984
   9840000   0.050317103   -0.33021997     0.03629355    -0.21845564     0.00051208743
   9841000   0.050063813   -0.33011797     0.035942359   -0.21908473     0.00071434678
   9842000   0.049974866   -0.33049807     0.036070022   -0.21947059    -0.0004401618 
   9843000   0.050207916   -0.33071171     0.035945706   -0.21945899     0.00069183343
   9844000   0.050105998   -0.33055435     0.03618485    -0.21921535     0.00015680165
   9845000   0.049562598   -0.33018361     0.036139518   -0.21970499     0.00014005078
   9846000   0.049688708   -0.33022968     0.035947259   -0.21975417    -0.00052372367
   9847000   0.049686534   -0.33036126     0.035688852   -0.22014742     0.00061614935
   9848000   0.049603825   -0.33039137     0.036023748   -0.21996668    -0.0007353929 
   9849000   0.050055859   -0.33041057     0.03561728    -0.21971435     0.00061236205
   9850000   0.049616306   -0.330257       0.035778068   -0.22005927     0.0012127584 
   9851000   0.049653199   -0.32982449     0.035416522   -0.21993298     0.00040345582
   9852000   0.04963301    -0.33021627     0.035737218   -0.22003434    -0.00050479998
   9853000   0.049831829   -0.33029832     0.035932899   -0.2196225     -9.0267216e-05
   9854000   0.049775693   -0.33052309     0.036072695   -0.21979167    -2.9576239e-05
   9855000   0.050046581   -0.32999905     0.03617733    -0.21875669    -0.00015479216
   9856000   0.049792419   -0.33030053     0.036100169   -0.21951655    -0.00064750189
   9857000   0.049646771   -0.33052959     0.036240918   -0.21982332    -0.00051108104
   9858000   0.050515009   -0.33063769     0.035408666   -0.2194614      0.00024484683
   9859000   0.049876959   -0.33048229     0.035885317   -0.21978636    -0.00058370429
   9860000   0.049849947   -0.33055345     0.035818233   -0.21996512    -0.00073661524
   9861000   0.04989537    -0.3307074      0.035544628   -0.22032455     0.00019582125
   9862000   0.050130677   -0.33061021     0.035990148   -0.2194289      0.00026580414
   9863000   0.049608817   -0.33052442     0.035700329   -0.22041567    -0.00025885772
   9864000   0.050035776   -0.33099039     0.036019351   -0.21992222    -0.00028408747
   9865000   0.049967326   -0.33065712     0.035648225   -0.22006274     0.00037542177
   9866000   0.050039859   -0.33057489     0.036468271   -0.21905167    -0.00038321255
   9867000   0.049756089   -0.33011121     0.035749748   -0.21973215    -0.0003132163 
   9868000   0.049649465   -0.32989133     0.036097938   -0.219324       0.00014911687
   9869000   0.049395551   -0.33072375     0.035801369   -0.22083384     0.00093894705
   9870000   0.050446414   -0.32990219     0.035833228   -0.21840423     0.0010120385 
   9871000   0.050434042   -0.33023169     0.036278069   -0.21830744     8.383059e-05 
   9872000   0.050421333   -0.3300806      0.036385838   -0.21806764     0.00013551338
   9873000   0.05032615    -0.33013252     0.036084713   -0.21856346     0.0010480176 
   9874000   0.050248461   -0.33050025     0.036140133   -0.21899229    -0.00070809215
   9875000   0.050751489   -0.33044114     0.03680326    -0.21751556    -1.1789579e-05
   9876000   0.050066013   -0.33022405     0.035440302   -0.21968957     0.00071539092
   9877000   0.049683981   -0.330509       0.035794041   -0.2201938     -0.00011080653
   9878000   0.050439608   -0.32996246     0.035541045   -0.21876688     0.0013035715 
   9879000   0.050146786   -0.33027782     0.035549084   -0.21951341     0.00013301239
   9880000   0.048927514   -0.33073148     0.036082787   -0.22126216    -0.0006259872 
   9881000   0.050079457   -0.33035319     0.036430009   -0.21880884    -0.00064587985
   9882000   0.049973725   -0.33000299     0.035851676   -0.21919556     0.00014401963
   9883000   0.050364415   -0.33024941     0.036443685   -0.21826398     0.00045691768
   9884000   0.049978994   -0.33032568     0.035590812   -0.21977121    -0.00010707921
   9885000   0.049647306   -0.33071946     0.036096259   -0.22015705    -0.00028578859
   9886000   0.049800322   -0.33060845     0.035804278   -0.2201085      4.0034694e-05
   9887000   0.050015896   -0.33076895     0.035513899   -0.22023605     0.00012492284
   9888000   0.049894481   -0.33028986     0.035708126   -0.21974485     0.00012209101
   9889000   0.049798752   -0.33053019     0.035617983   -0.2202189      0.00080863837
   9890000   0.049668437   -0.33046986     0.035045211   -0.2209268      0.00035401993
   9891000   0.050196749   -0.33100138     0.035853659   -0.21985745    -0.00029957557
   9892000   0.050033266   -0.33066126     0.03630147    -0.21931474    -0.0010725828 
   9893000   0.04978708    -0.33042039     0.036452541   -0.21929205    -0.00029758551
   9894000   0.049671073   -0.33066511     0.036256143   -0.21990716     3.7825704e-05
   9895000   0.049336277   -0.33037266     0.036411501   -0.21996152     0.00029822078
   9896000   0.050815513   -0.33029151     0.036220795   -0.21785236     0.00026812604
   9897000   0.050135242   -0.33059758     0.036656921   -0.21874265    -0.00062071416
   9898000   0.049900929   -0.33091262     0.036158445   -0.21990761    -0.00039973461
   9899000   0.050183681   -0.33044569     0.036134974   -0.21904005     0.00092008216
   9900000   0.050102235   -0.33081212     0.036245213   -0.2194184     -0.00054264247
   9901000   0.049889208   -0.3310757      0.035768633   -0.22047808    -0.00042493862
   9902000   0.049647766   -0.33057924     0.03529019    -0.2208222      0.00084130755
   9903000   0.04961145    -0.33104947     0.036420917   -0.22021618    -0.00016564543
   9904000   0.049839015   -0.33062982     0.036523413   -0.2193527     -0.00031497144
   9905000   0.04970259    -0.33034096     0.036405657   -0.21938622     0.00028843349
   9906000   0.050034485   -0.33064942     0.036221192   -0.21938134    -0.00084520374
   9907000   0.049790928   -0.33021971     0.035670998   -0.21986714    -0.00035803722
   9908000   0.050066789   -0.3304934      0.036069369   -0.21932869     0.00066207723
   9909000   0.050114098   -0.33033536     0.036417441   -0.21875162    -0.00022295304
   9910000   0.049986381   -0.33088885     0.036124267   -0.21978985     9.1853797e-05
   9911000   0.04973121    -0.33023624     0.035808179   -0.21983605     0.00017721129
   9912000   0.04986184    -0.33083228     0.035809305   -0.22023504    -0.00079349123
   9913000   0.050146616   -0.33070035     0.036087897   -0.21939739    -0.00089897579
   9914000   0.050562641   -0.33069493     0.036152238   -0.21870363     0.00023859905
   9915000   0.049455663   -0.33084594     0.035703475   -0.22096375     0.00037456042
   9916000   0.049894929   -0.33045515     0.03587984    -0.21973774    -0.00061326482
   9917000   0.050060866   -0.33034455     0.036272065   -0.21898603    -0.0015514898 
   9918000   0.0503124     -0.33064863     0.036066005   -0.21911889    -0.00033465029
   9919000   0.049976172   -0.33045248     0.036478304   -0.21901476    -0.0003438015 
   9920000   0.049905092   -0.33045817     0.035816808   -0.21978855    -0.000572479  
   9921000   0.049505202   -0.33038845     0.035887405   -0.22024803     0.00073541892
   9922000   0.050429472   -0.33058261     0.03654081    -0.21840247     0.00042228352
   9923000   0.050163006   -0.3309199      0.036283402   -0.21939684    -0.00042479734
   9924000   0.049606297   -0.33035737     0.036262741   -0.21968998     0.00027735054
   9925000   0.049689907   -0.33043923     0.035668168   -0.22024101     0.00058537257
   9926000   0.049670847   -0.33091296     0.036293163   -0.22011834    -0.0001699296 
   9927000   0.050132053   -0.33076067     0.035682516   -0.21988492     0.0014181753 
   9928000   0.049899697   -0.3306702      0.035761832   -0.22006365    -0.00011824765
   9929000   0.049806146   -0.33078669     0.035487293   -0.22059499     0.00078884158
   9930000   0.050419907   -0.3307893      0.036343575   -0.21882075     0.00016142361
   9931000   0.050219176   -0.33051762     0.036576318   -0.21861739    -0.00021036635
   9932000   0.050301547   -0.3306633      0.035535785   -0.21968006     0.00027810523
   9933000   0.050034102   -0.32994327     0.035564473   -0.21933248     0.00016078098
   9934000   0.049664162   -0.33028011     0.035566494   -0.22022218     0.00061769945
   9935000   0.050090176   -0.33003711     0.035799434   -0.21910726    -0.00030140745
   9936000   0.050443423   -0.33081064     0.036061466   -0.21908892    -0.00042657939
   9937000   0.05002625    -0.33063574     0.036624296   -0.21897692     0.00030403606
   9938000   0.050074074   -0.33027494     0.036470711   -0.21869797     0.00018857325
   9939000   0.050203663   -0.33054967     0.036396931   -0.2188521     -5.6160526e-05
   9940000   0.05013525    -0.33075178     0.03647882    -0.21907494     0.00051314998
   9941000   0.049824831   -0.33045144     0.036149345   -0.21956967     0.00049521937
   9942000   0.049838766   -0.33033056     0.036223967   -0.21935326     0.00014649085
   9943000   0.050069918   -0.33024028     0.035859204   -0.21928104     0.00012395775
   9944000   0.050228344   -0.33059697     0.036326424   -0.2189329     -0.0007180025 
   9945000   0.05023937    -0.33042893     0.036027301   -0.21904744    -0.00057030348
   9946000   0.050136841   -0.33029108     0.035657692   -0.21943298    -9.8288315e-05
   9947000   0.049971879   -0.3303118      0.035873041   -0.21948578    -0.00041604856
   9948000   0.049755897   -0.33039773     0.035721671   -0.22004703     2.729146e-06 
   9949000   0.049726857   -0.33100682     0.03573312    -0.22068823    -0.00032285645
   9950000   0.049349827   -0.33006995     0.035772851   -0.22027714    -3.4654578e-05
   9951000   0.049646128   -0.33070818     0.036186151   -0.22005764    -0.00063971987
   9952000   0.05019152    -0.33049642     0.036414188   -0.21879981     0.00070804289
   9953000   0.049814599   -0.33067791     0.035753096   -0.22020774     0.00017311874
   9954000   0.049802069   -0.33058941     0.035611121   -0.22028001     6.6834975e-06
   9955000   0.049680204   -0.33059984     0.036015224   -0.22006912     0.00043422898
   9956000   0.050256729   -0.330854       0.036194296   -0.21927947    -0.00085372032
   9957000   0.050179136   -0.330594       0.036182441   -0.21914771     0.00079739078
   9958000   0.050113167   -0.33045417     0.035948681   -0.21934059     0.00046257559
   9959000   0.050104695   -0.33036039     0.035475722   -0.21973247     0.00042743171
   9960000   0.050032757   -0.33044338     0.036680114   -0.21871898    -0.00073656229
   9961000   0.049690671   -0.33058468     0.036214046   -0.21983943     0.00025476036
   9962000   0.049158866   -0.33066354     0.036302966   -0.22062703    -0.0003520751 
   9963000   0.049940068   -0.33060876     0.035571631   -0.22013186     0.00056094187
   9964000   0.049813872   -0.33056336     0.03663672    -0.21921065    -0.00047181323
   9965000   0.050129178   -0.3303851      0.035668282   -0.21952791     0.00087645387
   9966000   0.050096      -0.33016348     0.035679374   -0.21934495     0.0005227323 
   9967000   0.049683553   -0.33086259     0.036349603   -0.21999246    -0.00050198506
   9968000   0.049719677   -0.33082659     0.03663084    -0.21962105    -0.00051958418
   9969000   0.050742582   -0.33018295     0.036421076   -0.21765291    -0.0012111939 
   9970000   0.050864181   -0.3303051      0.036879418   -0.21713433     7.6188938e-06
   9971000   0.050251268   -0.33037271     0.036160621   -0.21884005     0.0011995411 
   9972000   0.050557387   -0.33045334     0.03623849    -0.21838366     4.1067538e-05
   9973000   0.050087448   -0.33049355     0.036086929   -0.2192803      3.5698656e-05
   9974000   0.049623174   -0.33061126     0.036446461   -0.21973484     0.00016678856
   9975000   0.050106069   -0.33073567     0.035893774   -0.21968764    -0.00085516601
   9976000   0.04963873    -0.3302578      0.036815105   -0.2189894     -0.00048135082
   9977000   0.049921542   -0.3300583      0.035679076   -0.21950174    -4.5151224e-05
   9978000   0.049221556   -0.33032615     0.036113309   -0.22038527    -1.2870489e-05
   9979000   0.050009278   -0.33107714     0.036005397   -0.22006266    -8.7969319e-05
   9980000   0.05011227    -0.33032596     0.035868981   -0.21929342     0.00065312836
   9981000   0.049764791   -0.3304366      0.036589206   -0.21920502    -0.00070161838
   9982000   0.049744264   -0.33063338     0.036465471   -0.21955633     0.00011501017
   9983000   0.050305128   -0.3304804      0.036065104   -0.21896247    -0.00028860648
   9984000   0.049991784   -0.33053514     0.036668479   -0.21888382    -0.00022969549
   9985000   0.049975181   -0.33024543     0.036263892   -0.21902361    -8.7240821e-05
   9986000   0.049882459   -0.33072044     0.035703042   -0.22019853    -0.00049445343
   9987000   0.050550511   -0.3306999      0.036602241   -0.21827678    -0.00092300692
   9988000   0.049532653   -0.33040222     0.036038328   -0.22006971     1.0875763e-05
   9989000   0.05007625    -0.33006312     0.035522643   -0.21943094     0.00029121706
   9990000   0.049958854   -0.33057352     0.035712178   -0.21992789     0.0012770536 
   9991000   0.050055076   -0.33057153     0.036098205   -0.21939556    -6.8219271e-05
   9992000   0.050291539   -0.33045731     0.036062095   -0.21896277     0.00079314643
   9993000   0.049678042   -0.32997384     0.035973786   -0.2194878      0.00036629642
   9994000   0.050216637   -0.33052975     0.035813982   -0.21939568    -0.00050465814
   9995000   0.04944179    -0.33069021     0.035778935   -0.22075338    -0.001222757  
   9996000   0.050533692   -0.33039243     0.035652417   -0.21894436     0.00071853122
   9997000   0.050366689   -0.3308263      0.035952881   -0.21932826     0.00054737785
   9998000   0.049849163   -0.33050931     0.036328576   -0.21941181    -0.00051975071
   9999000   0.050183802   -0.33084166     0.035670406   -0.21990041     0.0005853491 
  10000000   0.050268923   -0.33043755     0.035825492   -0.21921354     0.00087985007
Loop time of 10998 on 8 procs for 9500000 steps with 15500 atoms

Performance: 74631.691 tau/day, 863.793 timesteps/s, 13.389 Matom-step/s
94.1% CPU use with 8 MPI tasks x 1 OpenMP threads

MPI task timing breakdown:
Section |  min time  |  avg time  |  max time  |%varavg| %total
---------------------------------------------------------------
Pair    | 2373.1     | 2545.1     | 2746       | 244.3 | 23.14
Bond    | 855.92     | 913.85     | 981.92     | 127.3 |  8.31
Neigh   | 17.569     | 17.609     | 17.664     |   0.8 |  0.16
Comm    | 712.06     | 940.42     | 1161       | 512.0 |  8.55
Output  | 374.03     | 376.38     | 378.58     |   7.8 |  3.42
Modify  | 6067.7     | 6077.3     | 6094.8     |  11.8 | 55.26
Other   |            | 127.3      |            |       |  1.16

Nlocal:         1937.5 ave        2160 max        1745 min
Histogram: 2 0 1 2 0 0 0 1 1 1
Nghost:        1230.12 ave        1440 max         992 min
Histogram: 2 0 0 0 2 0 0 2 1 1
Neighs:              0 ave           0 max           0 min
Histogram: 8 0 0 0 0 0 0 0 0 0
FullNghs:      18151.2 ave       20072 max       16147 min
Histogram: 1 1 2 0 1 0 0 0 0 3

Total # of neighbors = 145210
Ave neighs/atom = 9.3683871
Ave special neighs/atom = 2.1612903
Neighbor list builds = 10311
Dangerous builds = 0

# Write data for deformation

write_restart ${Dir}/${file4_name}
write_restart /home/franvt/GitRepos/molDynLammps/polymericGels/gel-batch-1/data/2026-04-08-192136_9/${file4_name}
write_restart /home/franvt/GitRepos/molDynLammps/polymericGels/gel-batch-1/data/2026-04-08-192136_9/data.hydrogel
System init for write_restart ...
WARNING: Using a manybody potential with bonds/angles/dihedrals and special_bond exclusions (src/pair.cpp:250)
Hybrid pair style last /omp style table/omp
Last active /omp style is angle_style harmonic/omp
Total wall time: 3:12:32
