LAMMPS (22 Jul 2025)
OMP_NUM_THREADS environment is not set. Defaulting to 1 thread.
  using 1 OpenMP thread(s) per MPI task
package omp 0
using multi-threaded neighbor list subroutines
# Input Script of lammps for assembly simulation of polimeric gel network.
# Patchy particle script by Felipe Benavides: https://github.com/PipeB62/Hydrogel-Simulation
# Assembly protocolo based on: https://doi.org/10.1021/acs.macromol.7b01600
# Last Main modification: March 5, 2026 | Threebody interaction

# Initialization
units lj
dimension 3
boundary p p p

# Styles of atoms and that stuff
atom_style full
bond_style harmonic
angle_style harmonic
pair_style hybrid/overlay zero 0.0 lj/cut/omp 1.12 table/omp linear 128 threebody/table

newton on

# Create simulaiton box
region simulation_box block -$L $L -$L $L -$L $L
region simulation_box block -32.282517 $L -$L $L -$L $L
region simulation_box block -32.282517 32.282517 -$L $L -$L $L
region simulation_box block -32.282517 32.282517 -32.282517 $L -$L $L
region simulation_box block -32.282517 32.282517 -32.282517 32.282517 -$L $L
region simulation_box block -32.282517 32.282517 -32.282517 32.282517 -32.282517 $L
region simulation_box block -32.282517 32.282517 -32.282517 32.282517 -32.282517 32.282517
# N-atom-types region-ID keyword value Is necesesary the extra/special/per/atom (# of special neighbors per atom)
create_box 4 simulation_box     bond/types 1     angle/types 2     extra/bond/per/atom 10     extra/angle/per/atom 6     extra/special/per/atom 10
Created orthogonal box = (-32.282517 -32.282517 -32.282517) to (32.282517 32.282517 32.282517)
  2 by 2 by 2 MPI processor grid

# Atom types
mass 1 1.0      # CL
mass 2 1.0      # MO
mass 3 1.0      # PA (CL)
mass 4 1.0      # PB (MO)

# Coefficients
include potential.in
# Script with the pair-wise interaction and bonds between particles

bond_coeff 1 100.0 0.4
angle_coeff 1 100.0 180
angle_coeff 2 100.0 109.4712
pair_coeff 1 3 zero 0.5
pair_coeff 1 4 zero 0.5
pair_coeff 2 3 zero 0.5
pair_coeff 2 4 zero 0.5
pair_coeff 3 3 zero 0.5
pair_coeff 1 1 lj/cut/omp 1.0 1.0 1.12
pair_coeff 2 2 lj/cut/omp 1.0 1.0 1.12
pair_coeff 1 2 lj/cut/omp 1.0 1.0 1.12
pair_coeff 3 4 table/omp sysFiles/pachTab.table POT 0.6 # sw/omp sysFiles/patchyPot.sw NULL NULL PA PB
Reading pair table potential file sysFiles/pachTab.table with DATE: 2025-02-09
WARNING: 1 of 128 force values in table POT are inconsistent with -dE/dr.
WARNING:  Should only be flagged at inflection points (src/pair_table.cpp:469)
pair_coeff 4 4 table/omp sysFiles/pachTab.table POT 0.6 # sw/omp sysFiles/patchyPot.sw NULL NULL PA PB
Reading pair table potential file sysFiles/pachTab.table with DATE: 2025-02-09
WARNING: 1 of 128 force values in table POT are inconsistent with -dE/dr.
WARNING:  Should only be flagged at inflection points (src/pair_table.cpp:469)
pair_coeff * * threebody/table swapMech.3b NULL NULL PA PB
pair_modify pair lj/cut/omp shift yes


# Molecules
include molecules.in
# Script with all molecule information and create groups for computes

# Read the molecule information
molecule CL sysFiles/molecule.patchy.CL
Read molecule template CL:
# Patchy Cross-Linker
  1 molecules
  0 fragments
  0 bodies
  5 atoms with max type 3
  4 bonds with max type 1
  6 angles with max type 2
  0 dihedrals with max type 0
  0 impropers with max type 0
molecule MO sysFiles/molecule.patchy.MO
Read molecule template MO:
# Patchy Monomer
  1 molecules
  0 fragments
  0 bodies
  3 atoms with max type 4
  2 bonds with max type 1
  1 angles with max type 1
  0 dihedrals with max type 0
  0 impropers with max type 0

# Introduce the molecules
# ID style args keyword arg
region spawn_box block -$L $L -$L $L -$L $L
region spawn_box block -32.282517 $L -$L $L -$L $L
region spawn_box block -32.282517 32.282517 -$L $L -$L $L
region spawn_box block -32.282517 32.282517 -32.282517 $L -$L $L
region spawn_box block -32.282517 32.282517 -32.282517 32.282517 -$L $L
region spawn_box block -32.282517 32.282517 -32.282517 32.282517 -32.282517 $L
region spawn_box block -32.282517 32.282517 -32.282517 32.282517 -32.282517 32.282517

# create_atoms type style args keyword values
# style_random: N seed region-ID
# keyword_mol: template-ID seed
# keyword_overlap: overlap value = only insert if at least this distance from all existing atoms
# keyword_maxtry: maxtry value = number of attempts to insert a particle before failure
create_atoms 0 random ${NCL} ${seed1} spawn_box mol CL ${seed1} overlap 1.0 maxtry 5000 #xls
create_atoms 0 random 250 ${seed1} spawn_box mol CL ${seed1} overlap 1.0 maxtry 5000 
create_atoms 0 random 250 7 spawn_box mol CL ${seed1} overlap 1.0 maxtry 5000 
create_atoms 0 random 250 7 spawn_box mol CL 7 overlap 1.0 maxtry 5000 
Created 1250 atoms
  using lattice units in orthogonal box = (-32.282517 -32.282517 -32.282517) to (32.282517 32.282517 32.282517)
  create_atoms CPU = 0.015 seconds
create_atoms 0 random ${NMO} ${seed2} spawn_box mol MO ${seed2} overlap 1.0 maxtry 5000 #mon
create_atoms 0 random 4750 ${seed2} spawn_box mol MO ${seed2} overlap 1.0 maxtry 5000 
create_atoms 0 random 4750 24 spawn_box mol MO ${seed2} overlap 1.0 maxtry 5000 
create_atoms 0 random 4750 24 spawn_box mol MO 24 overlap 1.0 maxtry 5000 
Created 14250 atoms
  using lattice units in orthogonal box = (-32.282517 -32.282517 -32.282517) to (32.282517 32.282517 32.282517)
  create_atoms CPU = 0.472 seconds

# Create patchy particles
group CrossLinker type 1 3
1250 atoms in group CrossLinker
group Monomer type 2 4
14250 atoms in group Monomer
group Patches type 3 4
10500 atoms in group Patches
group CL type 1
250 atoms in group CL
group MO type 2
4750 atoms in group MO
group PA type 3
1000 atoms in group PA
group PB type 4
9500 atoms in group PB
group CM type 1 2
5000 atoms in group CM

# Neighbor list
neighbor 1.2 bin # extra-distance style
#neigh_modify delay 0 every 1 check no
#neigh_modify exclude molecule/intra CrossLinker
#neigh_modify exclude molecule/intra Monomer

# COMPUTES

# Compute global kinetic and potential energy and temperature
compute t all temp
compute p all pressure t
compute ep all pe
compute ek all ke
variable eT equal etotal
variable eB equal ebond
variable eA equal eangle
variable eM equal emol
variable ec equal ecouple
variable eC equal econserve

# Potencial energy per pair-wise interaction
compute wcaPair all pair lj/cut/omp epair
compute patchPair all pair table/omp epair
compute swapPair all pair threebody/table epair

# Compute the pressure
compute press all pressure t ke virial
compute pressVirial all pressure t virial
compute pressVirialMod all pressure t pair bond angle

# Computes for the stress
compute cstress all stress/atom t ke pair bond angle
compute cstressVirial all stress/atom t virial
compute cstressVirialMod all stress/atom t pair bond angle
compute stress all reduce sum c_cstress[*]
compute stressVirial all reduce sum c_cstressVirial[*]
compute stressVirialMod all reduce sum c_cstressVirialMod[*]

# Get the number of central particles per cluster
compute clusters all aggregate/atom 0.6                             # Create the clusters

# DUMPS and FIXES

thermo ${Ndump}
thermo 1000

# Save global energies and temperature
fix Energy all ave/time 1 ${Nsave} ${Nsave} c_t c_wcaPair c_patchPair c_swapPair c_ep c_ek v_eT v_ec v_eC c_p v_eB v_eA v_eM file ${Dir}/${file1_name}
fix Energy all ave/time 1 100000 ${Nsave} c_t c_wcaPair c_patchPair c_swapPair c_ep c_ek v_eT v_ec v_eC c_p v_eB v_eA v_eM file ${Dir}/${file1_name}
fix Energy all ave/time 1 100000 100000 c_t c_wcaPair c_patchPair c_swapPair c_ep c_ek v_eT v_ec v_eC c_p v_eB v_eA v_eM file ${Dir}/${file1_name}
fix Energy all ave/time 1 100000 100000 c_t c_wcaPair c_patchPair c_swapPair c_ep c_ek v_eT v_ec v_eC c_p v_eB v_eA v_eM file /home/franvt/GitRepos/molDynLammps/polymericGels/gel-batch-1/data/2026-03-27-180301_3/${file1_name}
fix Energy all ave/time 1 100000 100000 c_t c_wcaPair c_patchPair c_swapPair c_ep c_ek v_eT v_ec v_eC c_p v_eB v_eA v_eM file /home/franvt/GitRepos/molDynLammps/polymericGels/gel-batch-1/data/2026-03-27-180301_3/system_assembly.fixf

# Save Pressure and Stress tensor
fix fixStress5 all ave/time 1 ${NsaveStress} ${NsaveStress} c_p c_press[*] c_pressVirial[*] c_pressVirialMod[*] c_stress[*] c_stressVirial[*] c_stressVirialMod[*] file ${Dir}/${file2_name}
fix fixStress5 all ave/time 1 100000 ${NsaveStress} c_p c_press[*] c_pressVirial[*] c_pressVirialMod[*] c_stress[*] c_stressVirial[*] c_stressVirialMod[*] file ${Dir}/${file2_name}
fix fixStress5 all ave/time 1 100000 100000 c_p c_press[*] c_pressVirial[*] c_pressVirialMod[*] c_stress[*] c_stressVirial[*] c_stressVirialMod[*] file ${Dir}/${file2_name}
fix fixStress5 all ave/time 1 100000 100000 c_p c_press[*] c_pressVirial[*] c_pressVirialMod[*] c_stress[*] c_stressVirial[*] c_stressVirialMod[*] file /home/franvt/GitRepos/molDynLammps/polymericGels/gel-batch-1/data/2026-03-27-180301_3/${file2_name}
fix fixStress5 all ave/time 1 100000 100000 c_p c_press[*] c_pressVirial[*] c_pressVirialMod[*] c_stress[*] c_stressVirial[*] c_stressVirialMod[*] file /home/franvt/GitRepos/molDynLammps/polymericGels/gel-batch-1/data/2026-03-27-180301_3/stress_assembly.fixf

# Save atom positions with cluster id
dump dumpID all custom ${Ndump} ${Dir}/traj/${file3_name} id mol c_clusters type x y z vx vy vz
dump dumpID all custom 1000 ${Dir}/traj/${file3_name} id mol c_clusters type x y z vx vy vz
dump dumpID all custom 1000 /home/franvt/GitRepos/molDynLammps/polymericGels/gel-batch-1/data/2026-03-27-180301_3/traj/${file3_name} id mol c_clusters type x y z vx vy vz
dump dumpID all custom 1000 /home/franvt/GitRepos/molDynLammps/polymericGels/gel-batch-1/data/2026-03-27-180301_3/traj/traj_assembly.*.dumpf id mol c_clusters type x y z vx vy vz
dump_modify dumpID pbc yes # remap atoms via periodic boundary conditions

# RUN SIMULATION

# Brownian Dynamics using Langevin Thermostat

timestep ${tstep}
timestep 0.001

fix VelVerlet all nve # Use Velocity Verlet integrator

# First elevate the temperature
fix ThermoLng all langevin 0.0 ${temp} ${damp} ${seed3} tally yes zero yes # Brownian Dynamics: langevin + nve
fix ThermoLng all langevin 0.0 0.05 ${damp} ${seed3} tally yes zero yes 
fix ThermoLng all langevin 0.0 0.05 1 ${seed3} tally yes zero yes 
fix ThermoLng all langevin 0.0 0.05 1 31 tally yes zero yes 
run ${stepsheat}
run 500000
WARNING: Using a manybody potential with bonds/angles/dihedrals and special_bond exclusions (src/pair.cpp:250)
Hybrid pair style last /omp style table/omp
Last active /omp style is angle_style harmonic/omp
Neighbor list info ...
  update: every = 1 steps, delay = 0 steps, check = yes
  max neighbors/atom: 2000, page size: 100000
  master list distance cutoff = 2.32
  ghost atom cutoff = 2.32
  binsize = 1.16, bins = 56 56 56
  7 neighbor lists, perpetual/occasional/extra = 6 1 0
  (1) pair zero, perpetual, skip from (7)
      attributes: half, newton on, omp
      pair build: skip/omp
      stencil: none
      bin: none
  (2) pair lj/cut/omp, perpetual, skip from (7)
      attributes: half, newton on, omp
      pair build: skip/omp
      stencil: none
      bin: none
  (3) pair table/omp, perpetual, skip from (7)
      attributes: half, newton on, omp
      pair build: skip/omp
      stencil: none
      bin: none
  (4) pair threebody/table, perpetual, skip from (6)
      attributes: full, newton on, omp
      pair build: skip/omp
      stencil: none
      bin: none
  (5) compute aggregate/atom, occasional, copy from (6)
      attributes: full, newton on, omp
      pair build: copy
      stencil: none
      bin: none
  (6) neighbor class addition, perpetual
      attributes: full, newton on, omp
      pair build: full/bin/omp
      stencil: full/bin/3d
      bin: standard
  (7) neighbor class addition, perpetual, half/full from (6)
      attributes: half, newton on, omp
      pair build: halffull/newton/omp
      stencil: none
      bin: none
Per MPI rank memory allocation (min/avg/max) = 19.26 | 19.26 | 19.27 Mbytes
   Step          Temp          E_pair         E_mol          TotEng         Press     
         0   0              3.1958976e-05  2.7795448      2.7795767      7.1940258e-05
      1000   0.48383952     0              0.38113269     1.1068451      0.016538648  
      2000   0.13050681     0              0.22623202     0.42197961    -0.0039348633 
      3000   0.058898402    5.7227185e-08  0.070725134    0.15906709     0.00031174042
      4000   0.020127926    0              0.02910708     0.05929702     0.0024451822 
      5000   0.0059536918   0              0.013618653    0.022548614   -0.00069956184
      6000   0.0025617875   1.3809532e-08  0.0053442023   0.0091866495  -0.00084449142
      7000   0.0019286395   1.0026088e-07  0.001423687    0.00431656     0.00028466945
      8000   0.0010864082   0              0.0010402165   0.0026697236   0.00028680831
      9000   0.0009847483   0              0.00071076591  0.0021877931  -8.206225e-05 
     10000   0.00095770939  1.0202901e-07  0.00072625151  0.0021628249  -0.00011515837
     11000   0.0010454558   0              0.00071188752  0.0022799701   6.3572379e-05
     12000   0.0011320026   0              0.00075866279  0.0024565571   7.3812369e-05
     13000   0.0012320572   8.0872818e-09  0.00082760992  0.0026755846  -1.7387358e-05
     14000   0.0013145619   0              0.00090291959  0.0028746352   1.766272e-05 
     15000   0.0014218971   0              0.00097373131  0.0031064394   4.5853387e-05
     16000   0.0015352162   0              0.001050806    0.0033534817  -1.6290974e-07
     17000   0.0016509707   3.0914383e-08  0.0011070267   0.0035833539   8.7925689e-06
     18000   0.0017142416   0              0.0011708333   0.0037420299   7.6901049e-05
     19000   0.0018266351   2.1635181e-07  0.0012158077   0.0039558      3.5609506e-05
     20000   0.0019177627   8.5145284e-08  0.00130091     0.0041774536   7.0648802e-05
     21000   0.0020352834  -1.4005652e-09  0.0013730453   0.004425772    1.4027768e-05
     22000   0.0021620428  -5.9448537e-05  0.0014567249   0.0046401313   1.8986161e-05
     23000   0.0022629813  -6.4244749e-05  0.0015051793   0.0048351874   2.7407907e-05
     24000   0.0023313095  -6.4046872e-05  0.0015867619   0.0050194537   1.8370537e-05
     25000   0.0024321823  -6.4194276e-05  0.0016468623   0.005230706    2.7317832e-05
     26000   0.0025048226  -6.3736357e-05  0.0017100073   0.0054032625  -1.8914109e-05
     27000   0.0026176373  -6.4167356e-05  0.0017863486   0.0056483839   2.2116924e-05
     28000   0.0027029379  -6.4345549e-05  0.0018549649   0.0058447646  -1.0945909e-06
     29000   0.0028257158  -6.3752371e-05  0.0019181778   0.0060927256   8.9521901e-05
     30000   0.0029362404  -6.4481195e-05  0.0019737764   0.0063133717   0.00011128958
     31000   0.0030150489  -6.3636847e-05  0.0020551361   0.0065137808   5.308017e-05 
     32000   0.0031037071  -6.447719e-05   0.0021426545   0.0067334376   6.2675915e-05
     33000   0.0032561574  -0.00010932948  0.0021852519   0.0069598433   6.1364555e-05
     34000   0.0033637423  -0.0001852411   0.0022670169   0.0071270638   4.2812708e-05
     35000   0.0034276862  -0.00018825995  0.0023040365   0.0072569742   1.0663555e-05
     36000   0.0035075731  -0.00019338479  0.002387485    0.0074551204   1.7116569e-05
     37000   0.0036608373  -0.00036591957  0.0025107948   0.007635777    3.2437644e-05
     38000   0.0037783401  -0.00044022826  0.0025629063   0.0077898224   5.4440125e-05
     39000   0.00381152    -0.00044579338  0.0026151934   0.0078863113   6.6314475e-05
     40000   0.0039408941  -0.00048382301  0.0026566292   0.0080837659   0.00014485599
     41000   0.0040533922  -0.00051251327  0.0027164226   0.0082836053   6.808077e-05 
     42000   0.0041345707  -0.00051448266  0.0027814264   0.0084683998   9.8717286e-05
     43000   0.0041623062  -0.000512964    0.0028830722   0.0086131647   0.00010889766
     44000   0.0043279347  -0.0005149496   0.0029446861   0.0089212197   7.2107798e-05
     45000   0.0044741984  -0.00056408224  0.0030044044   0.0091511868   8.0110501e-05
     46000   0.0045360864  -0.00061598114  0.0031181343   0.0093058438   9.7698308e-05
     47000   0.0046129933  -0.00064019266  0.0031092902   0.009388141    0.00016704648
     48000   0.0047028591  -0.00076910146  0.0032517385   0.0095364705   8.1662887e-05
     49000   0.0048633426  -0.00093143768  0.0033770586   0.0097401641   7.6877346e-05
     50000   0.0049469732  -0.00096145733  0.0033626979   0.0098212216   6.8287047e-05
     51000   0.0049620276  -0.00096344402  0.0034038847   0.0098830019   6.2825874e-05
     52000   0.005183383   -0.0011490267   0.0035070843   0.01013263     4.2629053e-05
     53000   0.0052401372  -0.001215538    0.0035432419   0.010187403    0.00010347365
     54000   0.0052497641  -0.0012157987   0.0036680463   0.010326386    1.3341293e-05
     55000   0.0054344555  -0.001217763    0.0036771623   0.010610557    0.00010765569
     56000   0.0054896159  -0.0012763735   0.0037554084   0.010712928    0.00014715194
     57000   0.0056680414  -0.0012848985   0.0037950852   0.0110117      0.00014369499
     58000   0.0057446777  -0.0013340801   0.0039322962   0.011214677    2.3031208e-05
     59000   0.0057724044  -0.0014060435   0.0040519326   0.011303937    3.6501614e-05
     60000   0.0059751174  -0.0014677473   0.0040940937   0.011588444    9.0808416e-05
     61000   0.0060920978  -0.0016034195   0.0042186115   0.011752749    0.00021448311
     62000   0.0061830343  -0.0017038661   0.0042043668   0.011774454    0.00013908266
     63000   0.0063007869  -0.0017245897   0.0041854161   0.011911397    2.869621e-05 
     64000   0.0063322872  -0.0018538336   0.0043777536   0.012021738    0.00010097737
     65000   0.0064065243  -0.0018519384   0.0044071895   0.012164418    0.00021967178
     66000   0.0065627203  -0.0019824738   0.0044456689   0.01230664     0.0001503615 
     67000   0.0067370696  -0.0020649193   0.0045216843   0.012561717    6.3222092e-05
     68000   0.0067891862  -0.0021716165   0.0045805221   0.012592028    7.936518e-05 
     69000   0.0068151168  -0.0022886059   0.0046883384   0.012621748    0.00014783406
     70000   0.0070674136  -0.0024622359   0.0047009593   0.01283916     0.00016634062
     71000   0.0070708146  -0.0026360155   0.0048609545   0.012830477    7.3422073e-05
     72000   0.0071584781  -0.0027477593   0.0048819351   0.0128712      0.00016132638
     73000   0.0073787547  -0.003002215    0.0050436649   0.013108868    0.0002017678 
     74000   0.0074825166  -0.0033808366   0.0051862797   0.013028494    0.00010567604
     75000   0.0074688728  -0.003487151    0.0050972855   0.012812721    0.00015195516
     76000   0.0075535335  -0.0036238187   0.0051806126   0.012886363    0.00011530639
     77000   0.0075844257  -0.003706415    0.0052947339   0.012964224    0.00019846945
     78000   0.0077846683  -0.003847492    0.0052629856   0.013091743    0.00010874735
     79000   0.0078269102  -0.0039071677   0.00541681     0.01324925     0.0001490393 
     80000   0.0078900154  -0.0039127033   0.0053283377   0.013249894    0.00019180878
     81000   0.0081312543  -0.0041447563   0.0054351056   0.013486444    0.00015971897
     82000   0.0080811569  -0.0042207613   0.0056423376   0.01354253     0.00013900327
     83000   0.0081947778  -0.0042893341   0.0056908776   0.013692917    0.00012622849
     84000   0.0083800508  -0.0044264756   0.0057050889   0.013847879    4.9245493e-05
     85000   0.0084289316  -0.0044814125   0.0057528412   0.01391401     0.00022223525
     86000   0.0086302857  -0.0045952416   0.0057879734   0.014137325    0.00023020118
     87000   0.0086464286  -0.0046784011   0.0059481469   0.014238552    0.00017390316
     88000   0.0087710173  -0.0049573645   0.0061221139   0.014320426    0.0001467384 
     89000   0.0089423855  -0.005007317    0.0060328999   0.014438296    0.00012105064
     90000   0.0089244584  -0.0052047366   0.0061813505   0.014362438    0.00020416044
     91000   0.0089641681  -0.0053061424   0.006325405    0.014464647    0.00014322112
     92000   0.0092118327  -0.0053154782   0.0062058689   0.014707248    0.00026938651
     93000   0.0092574034  -0.0054565441   0.0062712653   0.01469993     0.00012367238
     94000   0.0093379112  -0.0055098412   0.0064609743   0.014957096    5.313914e-05 
     95000   0.0095387203  -0.005611206    0.0063566905   0.015052642    0.00028713096
     96000   0.0094618275  -0.0057123277   0.0065647672   0.015044265    0.00016542393
     97000   0.0096832658  -0.0057741831   0.0066319309   0.015381709    0.00012594694
     98000   0.0097446171  -0.0058208613   0.0067666417   0.015561763    0.00022540247
     99000   0.0099377397  -0.0059515196   0.0067483793   0.015702508    0.00027541374
    100000   0.010103302   -0.0060784094   0.0068672235   0.01594279     0.00012959977
    101000   0.010129189   -0.0062052276   0.007007517    0.015995093    6.2877965e-05
    102000   0.010351684   -0.0065026241   0.007069871    0.016093772    0.00020192327
    103000   0.010424953   -0.006561524    0.0070168102   0.016091707    0.00027301899
    104000   0.010370629   -0.0066005119   0.0071768719   0.0161313      0.00013599596
    105000   0.010523537   -0.0067049669   0.007192792    0.016272112    0.00024493163
    106000   0.010636534   -0.0069146673   0.0072402529   0.016279357    0.0002605573 
    107000   0.010601753   -0.0069634239   0.0072851866   0.016223366    0.00017378796
    108000   0.010768877   -0.0072069673   0.007385894    0.0163312      0.00015001647
    109000   0.01100244    -0.0074079344   0.0075491936   0.016643855    0.00034705224
    110000   0.011022369   -0.0075482677   0.0076767522   0.016660972    0.00024383878
    111000   0.011039181   -0.0075903225   0.0076549254   0.016622307    0.00016617501
    112000   0.011079323   -0.0076633067   0.0075914556   0.016546061    0.00033689849
    113000   0.011172703   -0.0078759229   0.0076713376   0.016553388    0.00021317466
    114000   0.01124557    -0.0079226396   0.0076358366   0.016580463    0.00025276062
    115000   0.011436778   -0.0080295155   0.0078487517   0.016973297    0.00016496552
    116000   0.011591752   -0.0081179626   0.0080770658   0.017345609    0.00016825651
    117000   0.011723598   -0.0081969542   0.0079987324   0.017386041    0.00035751603
    118000   0.011833637   -0.0085277034   0.0080949263   0.017316534    0.00017347142
    119000   0.011902541   -0.0086797721   0.0081557353   0.017328623    0.00012178904
    120000   0.012215286   -0.0089988369   0.0082696294   0.017592539    0.00020440934
    121000   0.012186868   -0.0092558459   0.0084160297   0.017439306    0.00029796822
    122000   0.012172333   -0.0093062697   0.008518463    0.017469515    0.00031370666
    123000   0.012376405   -0.00939005     0.0083581276   0.017531488    0.00023241468
    124000   0.012368584   -0.0096190608   0.008538284    0.017470902    0.00028080408
    125000   0.012392407   -0.0097139247   0.0086570169   0.017530503    0.00012780514
    126000   0.012628037   -0.009858367    0.0086556056   0.017738072    0.00019608775
    127000   0.01261478    -0.010071558    0.0087054051   0.017554796    0.00031259589
    128000   0.012875187   -0.010347125    0.0088094296   0.017773839    0.00020117039
    129000   0.012891189   -0.010429009    0.0088017286   0.017708256    0.00018271116
    130000   0.012850708   -0.010520519    0.0088213879   0.017575687    0.00027387366
    131000   0.012981903   -0.010760225    0.0089884832   0.017699857    0.00026635145
    132000   0.013318909   -0.010915257    0.0090025224   0.01806434     8.9810603e-05
    133000   0.013201143   -0.011230304    0.0089813588   0.017551492    0.00022498469
    134000   0.013151855   -0.011234831    0.009014522    0.017506201    0.000304967  
    135000   0.013480761   -0.011397269    0.0092265772   0.018049146    0.00018707995
    136000   0.01371593    -0.011544676    0.0092665769   0.018294469    0.00029530424
    137000   0.013705601   -0.011628203    0.0093461426   0.018275014    0.00028210139
    138000   0.013758464   -0.011986588    0.0096137382   0.018263515    0.00017808857
    139000   0.013977909   -0.012211459    0.0095176672   0.01827172     0.00017706887
    140000   0.014053933   -0.012277101    0.0096943949   0.018496834    0.00020682653
    141000   0.014201494   -0.012452713    0.009680318    0.018528472    0.00011736885
    142000   0.014142584   -0.012497776    0.0097158258   0.018430558    0.00022803787
    143000   0.014268622   -0.012666416    0.0097792705   0.018514406    0.00030697447
    144000   0.014507038   -0.01306596     0.0098287413   0.018521934    0.0002936408 
    145000   0.014502737   -0.013229355    0.009976253    0.018499599    0.00012941854
    146000   0.014577025   -0.01341163     0.010050753    0.01850325     0.00018358446
    147000   0.014755076   -0.013605692    0.010077257    0.018602751    0.00031159149
    148000   0.014924904   -0.013942943    0.010147586    0.018590554    0.00026042459
    149000   0.014944764   -0.01437815     0.010120696    0.018158246    0.00035312022
    150000   0.014917456   -0.014491918    0.010401559    0.018284382    0.00037841755
    151000   0.015054856   -0.014811774    0.010365129    0.018134182    0.00017466503
    152000   0.015265764   -0.015026376    0.010549925    0.018420718    0.00024757183
    153000   0.015454633   -0.015433109    0.010429188    0.018176533    0.00042691205
    154000   0.015712543   -0.015608186    0.010463267    0.018422375    0.00040617623
    155000   0.015610214   -0.015809832    0.010613128    0.018217106    0.00016343867
    156000   0.015425703   -0.016039368    0.010680682    0.017778375    0.00028609505
    157000   0.015779625   -0.016218419    0.010609516    0.018059007    0.0005099367 
    158000   0.015678332   -0.01651028     0.010868766    0.017874466    0.00039104332
    159000   0.016003048   -0.016829495    0.011058158    0.018231687    9.7878434e-05
    160000   0.015997558   -0.016939637    0.010996019    0.018051171    0.00036482923
    161000   0.015976041   -0.017106491    0.010974069    0.017830094    0.00029913943
    162000   0.016282535   -0.017410826    0.011121633    0.018133034    0.00041887595
    163000   0.01616101    -0.017685156    0.010983047    0.017537843    0.00016617271
    164000   0.016404564   -0.017869132    0.01116777     0.017903897    0.00020181142
    165000   0.016370807   -0.018134822    0.011309417    0.017729221    0.00027220502
    166000   0.016441903   -0.018368359    0.011395211    0.017688115    0.00028200005
    167000   0.016701499   -0.0185158      0.011566436    0.018101268    0.00018931826
    168000   0.016597827   -0.018601728    0.011561018    0.017854424    0.00041239388
    169000   0.017013151   -0.018792573    0.011521417    0.018246924    0.0003288835 
    170000   0.01701613    -0.018878423    0.011685568    0.018329693    0.00028610469
    171000   0.017111775   -0.018990234    0.011757705    0.018433476    0.00037669097
    172000   0.017018368   -0.019250774    0.011685317    0.017960448    0.00033476422
    173000   0.017130653   -0.019516616    0.01186743     0.018045135    0.00034484428
    174000   0.017380449   -0.019686672    0.011838515    0.018220834    0.00026276677
    175000   0.01755255    -0.020142474    0.012022462    0.018207115    0.00039480268
    176000   0.017479827   -0.020315443    0.012234911    0.018137518    0.00051150639
    177000   0.017652455   -0.020429036    0.012139878    0.018187817    0.00041123976
    178000   0.017612429   -0.020520154    0.012152241    0.018049025    0.0004272873 
    179000   0.017967912   -0.020752174    0.012344769    0.018542724    0.00021059932
    180000   0.018145816   -0.02101487     0.012376545    0.018578642    0.00040979457
    181000   0.018195352   -0.021197162    0.012558954    0.01865306     0.00041710467
    182000   0.018342043   -0.021302985    0.012595806    0.01880411     0.00021049175
    183000   0.018305306   -0.021452989    0.012627875    0.018631074    0.00047523575
    184000   0.01844341    -0.021609286    0.012524984    0.018579029    0.00034976024
    185000   0.018641214   -0.022006898    0.012875571    0.01882869     0.00016844353
    186000   0.018784466   -0.022284878    0.012627162    0.018517164    0.00046900674
    187000   0.018537421   -0.022453325    0.01282475     0.018175762    0.00034692238
    188000   0.018846079   -0.022574174    0.012888568    0.018581688    0.00035033842
    189000   0.018620361   -0.022576945    0.012976524    0.018328318    0.00028307965
    190000   0.018919476   -0.022887006    0.012949839    0.018440217    0.00048270675
    191000   0.01914782    -0.02296784     0.012987823    0.01873986     5.6450375e-05
    192000   0.019496389   -0.023116544    0.013144681    0.019270833    0.00016776969
    193000   0.019535322   -0.023222209    0.013388853    0.019467737    0.00056572794
    194000   0.019472341   -0.023430629    0.013464329    0.019240328    0.00029360181
    195000   0.019469447   -0.023490177    0.013458544    0.019170654    0.00021487693
    196000   0.019524895   -0.023610335    0.013375406    0.019050524    0.0005520876 
    197000   0.019507232   -0.0237508      0.013620429    0.019128589    0.00036879083
    198000   0.019738837   -0.023956004    0.013554485    0.019204827    0.00023010267
    199000   0.019635189   -0.024242265    0.013889328    0.019097946    0.000298314  
    200000   0.020066053   -0.024546587    0.013830446    0.019380996    0.00039311754
    201000   0.020147899   -0.024780841    0.013996928    0.019435986    0.00028713793
    202000   0.020235968   -0.025022383    0.013840808    0.019170419    0.00028561149
    203000   0.020246905   -0.025083925    0.014050203    0.019334675    0.00051382434
    204000   0.020306281   -0.025468092    0.014290696    0.01928006     0.00031257946
    205000   0.020525798   -0.0256469      0.014036745    0.019176556    0.0002654827 
    206000   0.021082619   -0.02593876     0.014157388    0.019840516    0.00057119051
    207000   0.021048283   -0.026438048    0.014178062    0.019310401    0.00050548776
    208000   0.020671327   -0.026651697    0.014115782    0.018469076    0.00038765846
    209000   0.02108744    -0.026968865    0.014282429    0.018942683    0.0003570243 
    210000   0.021119543   -0.027132483    0.014314619    0.018859407    0.00047294866
    211000   0.021150822   -0.027222831    0.014537675    0.01903903     0.00036763696
    212000   0.021078102   -0.027443647    0.014390087    0.018561554    0.00029864638
    213000   0.021258709   -0.027620964    0.014656915    0.018921958    0.00034663839
    214000   0.021466862   -0.027741659    0.014687584    0.019144141    0.00034507557
    215000   0.021284514   -0.028033839    0.014821758    0.01871263     0.00039176679
    216000   0.02172253    -0.028226365    0.014797693    0.01915302     0.00040112816
    217000   0.021719201   -0.028756171    0.014986923    0.018807452    0.00039372683
    218000   0.021895185   -0.028881233    0.014965727    0.018925153    0.00039667209
    219000   0.022066112   -0.028996343    0.014848419    0.018949109    0.00025749126
    220000   0.021747349   -0.029169453    0.014940646    0.018390112    0.00038713749
    221000   0.022203926   -0.029445978    0.015305004    0.019162766    0.00044544721
    222000   0.022493531   -0.029956268    0.015361761    0.019143614    0.00035130137
    223000   0.022471636   -0.030145751    0.015413214    0.018972742    0.00033919532
    224000   0.022346481   -0.030743502    0.015636925    0.018410982    0.0005854602 
    225000   0.022255875   -0.031050905    0.015577625    0.017908379    0.00031163849
    226000   0.022433935   -0.031207244    0.01563981     0.018081297    0.0003440187 
    227000   0.022559858   -0.031443583    0.015538747    0.017932767    0.000432717  
    228000   0.022823082   -0.031654979    0.015620985    0.018198421    0.00049320678
    229000   0.022738512   -0.031779939    0.01587887     0.0182045      0.00045224652
    230000   0.022824056   -0.031850647    0.016003938    0.018387166    0.00036652465
    231000   0.02312023    -0.031975673    0.015888117    0.018590551    0.00044261935
    232000   0.023343184   -0.032337227    0.015694873    0.018370164    0.0005876367 
    233000   0.023408283   -0.032297731    0.015811974    0.018624401    0.00048979923
    234000   0.023344217   -0.032566122    0.016504449    0.018952392    0.00027610292
    235000   0.023639857   -0.032739343    0.016179187    0.018897341    0.0003170294 
    236000   0.023532934   -0.03279613     0.016096921    0.018597913    0.00042392996
    237000   0.023662855   -0.033018927    0.016291703    0.018764769    0.0004171514 
    238000   0.02374803    -0.033511244    0.016154588    0.01826309     0.00051345513
    239000   0.023600421   -0.03370782     0.016505989    0.018196517    0.00032394666
    240000   0.0240219     -0.033729185    0.016436113    0.018737453    0.00054829797
    241000   0.024083431   -0.033890431    0.016526374    0.01875876     0.00063310057
    242000   0.024135917   -0.034081607    0.016697714    0.018817647    0.00030742067
    243000   0.024274476   -0.034098688    0.016606526    0.018917203    0.00037032978
    244000   0.024199759   -0.034198528    0.016628895    0.018727664    0.00062017322
    245000   0.024755143   -0.034449989    0.016467711    0.019148042    0.00038637069
    246000   0.024515547   -0.034654934    0.017022163    0.019138177    0.00019640238
    247000   0.024919081   -0.034814869    0.016916289    0.019477631    0.00059374693
    248000   0.025125034   -0.035148287    0.017114237    0.01965107     0.00034570324
    249000   0.025111139   -0.035520019    0.017088115    0.019232375    0.00053107768
    250000   0.024645608   -0.035586089    0.017065357    0.018445295    0.00036518308
    251000   0.025158779   -0.035787226    0.016896499    0.018845006    0.00042530856
    252000   0.025109831   -0.036093791    0.017109071    0.018677596    0.0004177107 
    253000   0.025298638   -0.036213149    0.017045619    0.018777979    0.00018957011
    254000   0.025353343   -0.036248238    0.01727325     0.019052572    0.00069897289
    255000   0.025249505   -0.036411938    0.017154969    0.018614845    0.00048926624
    256000   0.025592195   -0.036822182    0.017415033    0.018978667    0.00027241187
    257000   0.025711825   -0.036968337    0.017611193    0.019208105    0.00054570139
    258000   0.025715716   -0.037021589    0.017683446    0.019232943    0.00058513248
    259000   0.025860125   -0.037215338    0.017646104    0.01921845     0.00040319726
    260000   0.025739689   -0.037236711    0.018081415    0.019451747    0.00048552121
    261000   0.02629733    -0.037348009    0.017563836    0.019659277    0.00047840585
    262000   0.026014103   -0.037738428    0.018042427    0.019322636    0.00053609774
    263000   0.026399538   -0.037934669    0.017941439    0.019603523    0.00067451959
    264000   0.026078314   -0.038338322    0.018353179    0.019129803    0.00064385183
    265000   0.026324586   -0.038484194    0.018042691    0.019042829    0.00025404897
    266000   0.026597806   -0.038649187    0.018417883    0.019662831    0.00059611605
    267000   0.026685252   -0.038866447    0.018505973    0.019664822    0.00031867087
    268000   0.026614274   -0.038899682    0.01849337     0.019512524    0.00063083731
    269000   0.027006568   -0.039178083    0.018464256    0.019793412    0.00031848328
    270000   0.026972517   -0.039261743    0.018294895    0.019489316    0.00049214185
    271000   0.026761187   -0.039374476    0.018455541    0.019220255    0.00081618206
    272000   0.026855276   -0.039800976    0.018399222    0.018878561    0.00025352651
    273000   0.027255944   -0.04000056     0.018806879    0.019687598    0.00054869466
    274000   0.027348291   -0.040027481    0.018597289    0.019589599    0.00060657244
    275000   0.027417749   -0.04029416     0.018778129    0.019607939    0.00043695096
    276000   0.027741016   -0.040673801    0.019083303    0.020018341    0.0002180008 
    277000   0.027864224   -0.040680332    0.019236709    0.020350017    0.00037679406
    278000   0.027961724   -0.04092297     0.019216707    0.020233617    0.00055488974
    279000   0.028050667   -0.04127457     0.019384955    0.02018367     0.00026747577
    280000   0.027694536   -0.041272314    0.01963938     0.019906189    0.00015092291
    281000   0.028160337   -0.041436982    0.019064654    0.019865452    0.00041626873
    282000   0.028212284   -0.041812892    0.019249057    0.019751861    0.00065414302
    283000   0.028186454   -0.041892206    0.019450062    0.019834808    0.00051722782
    284000   0.028347991   -0.042282136    0.019822055    0.020059161    0.00048474928
    285000   0.028450077   -0.042562903    0.019743031    0.01985249     0.00063099287
    286000   0.028549485   -0.042782113    0.019632157    0.01967151     0.00044259496
    287000   0.02887301    -0.042857064    0.019989425    0.020439082    0.00052193247
    288000   0.028661383   -0.04320326     0.020108618    0.019894658    0.00020882766
    289000   0.02916888    -0.043515211    0.019996839    0.020232126    0.00047796672
    290000   0.029028139   -0.043668279    0.0199192      0.01979032     0.00064283505
    291000   0.029433464   -0.043768073    0.020277598    0.020656872    0.00031695262
    292000   0.029469766   -0.043896887    0.020286811    0.020591721    0.00038049077
    293000   0.029317296   -0.044203317    0.020369851    0.02013964     0.0004260659 
    294000   0.029416967   -0.044352195    0.020338887    0.020109295    0.00018564857
    295000   0.029321923   -0.044532842    0.020255771    0.019702976    0.00038310423
    296000   0.029617258   -0.044775419    0.020303207    0.01995081     0.0004116887 
    297000   0.029302118   -0.045100204    0.02060092     0.019451058    0.00038695749
    298000   0.029688673   -0.045487569    0.020388764    0.019431331    0.00056827451
    299000   0.030123451   -0.045606283    0.020719629    0.020295608    0.0006010412 
    300000   0.030087191   -0.04553829     0.020369891    0.019959476    0.00053037334
    301000   0.030124076   -0.045853288    0.020645909    0.01997582     0.00044813962
    302000   0.030075158   -0.046209562    0.020913332    0.019813597    0.00055036807
    303000   0.03013021    -0.046462871    0.020752651    0.019482179    0.000108876  
    304000   0.030491406   -0.046721354    0.02089835     0.019911154    0.00072119047
    305000   0.030602197   -0.046894824    0.020837069    0.019842579    0.00079223314
    306000   0.030588449   -0.047207744    0.021102361    0.019774329    0.00020687269
    307000   0.030520287   -0.04740226     0.020893093    0.01926831     0.00061811021
    308000   0.030466974   -0.047573501    0.020911541    0.019035552    0.0004990625 
    309000   0.030616549   -0.047762215    0.021060093    0.019219738    0.00063536075
    310000   0.030471094   -0.047891997    0.021313189    0.019124884    0.00037712763
    311000   0.030825742   -0.04814451     0.021050306    0.019141426    0.00034239613
    312000   0.031105138   -0.048393844    0.021446749    0.019707601    0.00051287677
    313000   0.03129345    -0.048488172    0.021862722    0.020311697    0.00071867637
    314000   0.031282013   -0.048773098    0.021601039    0.019747932    0.00051881506
    315000   0.031474258   -0.048828829    0.021769885    0.020149397    0.000533664  
    316000   0.031938443   -0.049242159    0.021798419    0.020460834    0.00043969554
    317000   0.03167294    -0.04941576     0.021563853    0.019654438    0.00055689959
    318000   0.031433951   -0.049805687    0.021660004    0.0190022      0.00055837932
    319000   0.032013804   -0.050015418    0.021930384    0.019932575    0.00055698906
    320000   0.031923846   -0.050036778    0.022010294    0.019856194    0.00037531889
    321000   0.032130537   -0.050151688    0.022227279    0.020268288    0.00067110843
    322000   0.032042664   -0.050436382    0.02243741     0.020061922    0.00069247691
    323000   0.032257874   -0.050694338    0.022203294    0.019892645    0.00045269005
    324000   0.032414431   -0.050756384    0.022382096    0.020244222    0.00053302687
    325000   0.032769942   -0.051090467    0.022414659    0.020475934    0.00041866149
    326000   0.032552029   -0.051184383    0.022508817    0.020149326    0.00066457623
    327000   0.033063162   -0.051487859    0.022107464    0.020211148    0.000360045  
    328000   0.032743009   -0.051726749    0.022738613    0.020123208    0.00042068918
    329000   0.033309085   -0.051990368    0.022600863    0.020570899    0.00093715555
    330000   0.032964177   -0.052161451    0.022832053    0.020113677    0.00076073385
    331000   0.033115011   -0.052495735    0.022559705    0.019733281    0.00075559441
    332000   0.03343463    -0.05288256     0.022797334    0.020063484    0.00048575516
    333000   0.033594378   -0.052869496    0.022818425    0.020337245    0.00040773706
    334000   0.033500421   -0.052979731    0.023200532    0.020468191    0.00052536525
    335000   0.033527676   -0.053248335    0.022934951    0.019974884    0.00035870483
    336000   0.033885432   -0.053456568    0.023093145    0.020461446    0.00046760519
    337000   0.03364155    -0.053609917    0.023346928    0.020196081    0.00088118352
    338000   0.033968263   -0.054094853    0.023192301    0.020046555    0.00062047782
    339000   0.033999962   -0.05446393     0.023852201    0.020384923    0.00055369597
    340000   0.033952591   -0.054571368    0.023586031    0.019940265    0.00056317623
    341000   0.033905976   -0.054680267    0.023633535    0.019808951    0.00042291756
    342000   0.034338077   -0.054919401    0.023230169    0.01981456     0.00052364189
    343000   0.034466883   -0.055112154    0.023636643    0.020221478    0.00058227156
    344000   0.034344719   -0.055152815    0.023566933    0.019927873    0.00064392918
    345000   0.034234762   -0.055252894    0.02387587     0.019971805    0.0003270017 
    346000   0.034640925   -0.055539551    0.023743451    0.020161935    0.00066357726
    347000   0.034737545   -0.055827208    0.024103259    0.020379007    0.00053796953
    348000   0.034977476   -0.055940351    0.023957865    0.020480342    0.00043045418
    349000   0.034936123   -0.056076935    0.023775662    0.02009953     0.000752086  
    350000   0.034817815   -0.056272791    0.024554034    0.020504595    0.00042113863
    351000   0.034703128   -0.056452487    0.024207034    0.019805881    0.00062080338
    352000   0.035093443   -0.056713574    0.024547124    0.020470318    0.00075138216
    353000   0.035463423   -0.057072269    0.024448155    0.020567589    0.00075409578
    354000   0.035331656   -0.057331979    0.024826561    0.020488646    0.00055864386
    355000   0.035820276   -0.057322971    0.024789353    0.021193329    0.00059131146
    356000   0.0358638     -0.057630035    0.024886206    0.0210484      0.00029701763
    357000   0.03549878    -0.057959598    0.024789021    0.020074158    0.00052316718
    358000   0.035916764   -0.058068819    0.024250868    0.020053718    0.00083861186
    359000   0.035578438   -0.058292703    0.024608       0.019679511    0.00076594162
    360000   0.035572467   -0.058546032    0.024484559    0.019293785    0.00059748651
    361000   0.035949294   -0.058829271    0.02482622     0.019917411    0.00048106821
    362000   0.036569558   -0.059346257    0.024917576    0.020422116    0.00059512239
    363000   0.036259205   -0.059477197    0.024996153    0.019904255    0.00085542269
    364000   0.036315986   -0.059817123    0.025387876    0.020041217    0.00033209602
    365000   0.036366534   -0.059997033    0.025069991    0.019619241    0.00056111523
    366000   0.036376861   -0.060442339    0.025053527    0.019172959    0.00056807414
    367000   0.036460807   -0.060809315    0.024901269    0.018779636    0.0004379017 
    368000   0.036966658   -0.061068591    0.024843498    0.019221318    0.00055325973
    369000   0.036997664   -0.061144628    0.025159416    0.019507704    0.00065243193
    370000   0.036788161   -0.061364138    0.025495084    0.019309628    0.0007068    
    371000   0.036915912   -0.061509004    0.025260212    0.019121505    0.00055901675
    372000   0.037386999   -0.061808298    0.02534607     0.019614652    0.00095586736
    373000   0.037127458   -0.061877689    0.025793743    0.019603648    0.00030791587
    374000   0.037594484   -0.062150019    0.025837148    0.020075218    0.0003983922 
    375000   0.037602942   -0.062607733    0.025722921    0.019515962    0.00067656926
    376000   0.038062882   -0.062731343    0.025711789    0.020071085    0.00072192668
    377000   0.037719568   -0.062928419    0.02605096     0.019698243    0.00053591194
    378000   0.037440484   -0.063348443    0.025525402    0.018334061    0.00035503752
    379000   0.037520298   -0.063677985    0.025829514    0.018428345    0.00056051689
    380000   0.038217499   -0.063849933    0.026010018    0.019482635    0.00064003829
    381000   0.037928168   -0.063953292    0.026266491    0.019201781    0.00059415636
    382000   0.038199191   -0.06429686     0.026243744    0.019241974    0.00037679464
    383000   0.038341664   -0.064629586    0.026196225    0.019075424    0.00045615417
    384000   0.038416594   -0.064773277    0.026537426    0.019385323    0.0009023714 
    385000   0.038842795   -0.064995974    0.026133749    0.019398209    0.00039657987
    386000   0.038543106   -0.065335147    0.026742286    0.019218068    0.00059660976
    387000   0.038873576   -0.065694974    0.026726962    0.01933859     0.00079740129
    388000   0.03898593    -0.065963086    0.026651957    0.019163995    0.00057838161
    389000   0.0391599     -0.066083291    0.026716496    0.019369266    0.0005919021 
    390000   0.039140576   -0.066150847    0.026781716    0.019337944    0.00064804938
    391000   0.039063289   -0.066515336    0.026613958    0.018689775    0.00066000607
    392000   0.03906004    -0.066757871    0.027199223    0.019027632    0.00069977069
    393000   0.039650425   -0.066944466    0.027562202    0.020089537    0.00061315006
    394000   0.039470783   -0.067171772    0.02714601     0.019176593    0.00069911226
    395000   0.039915128   -0.067092998    0.027494216    0.020270048    0.00081703118
    396000   0.040145203   -0.067361734    0.027125358    0.019977543    0.00036358924
    397000   0.039523904   -0.067482294    0.027396224    0.019195961    0.00062453207
    398000   0.039249618   -0.067468623    0.026949683    0.018351689    0.00046672113
    399000   0.03916664    -0.067992744    0.027821253    0.018574679    0.00040946991
    400000   0.040220861   -0.068165142    0.027323478    0.019485735    0.00070035007
    401000   0.039733337   -0.06818728     0.027888979    0.019297859    0.00041275002
    402000   0.039933412   -0.068444848    0.027940546    0.019391951    0.00036287035
    403000   0.040012792   -0.068966086    0.027886041    0.018935271    0.00066827695
    404000   0.040523142   -0.068971365    0.027940794    0.01975022     0.00054607089
    405000   0.040747329   -0.069204229    0.02768198     0.019594801    0.00068972388
    406000   0.04021276    -0.069561463    0.028501713    0.019255498    0.00032690963
    407000   0.041219162   -0.070108143    0.027969082    0.019685693    0.00070010614
    408000   0.041048003   -0.070471961    0.028373857    0.019469929    0.00059497474
    409000   0.041200137   -0.070570374    0.027999161    0.019225005    0.00072429492
    410000   0.04108101    -0.070696179    0.028330866    0.019252227    0.00050707337
    411000   0.041009192   -0.070884155    0.028710582    0.019336247    0.00068188315
    412000   0.040975849   -0.071130047    0.028739824    0.019069586    0.00091527201
    413000   0.041521383   -0.071167364    0.02863029     0.019740983    0.00046936364
    414000   0.04170085    -0.071333292    0.028805662    0.02001961     0.0005425287 
    415000   0.041792206   -0.071416091    0.029392845    0.020661019    0.00059230699
    416000   0.040932229   -0.071508652    0.028836916    0.018722647    0.0007442032 
    417000   0.041450161   -0.072005754    0.028875099    0.019040575    0.00056325073
    418000   0.041718724   -0.072138334    0.02888502     0.019320734    0.00076248599
    419000   0.042271006   -0.072373366    0.028804606    0.019833659    0.00082645453
    420000   0.042056457   -0.072398503    0.029467735    0.020149847    0.00040314723
    421000   0.042478429   -0.072586076    0.029342078    0.020469535    0.00074800694
    422000   0.042417203   -0.07285558     0.02913663     0.01990275     0.00085679996
    423000   0.04185925    -0.073217138    0.029236367    0.018804053    0.00040958552
    424000   0.042710466   -0.07346069     0.029159372    0.019760248    0.00057163449
    425000   0.042794732   -0.073873683    0.029295014    0.019609288    0.00045942318
    426000   0.042810214   -0.074054444    0.02926451     0.019421245    0.00064255632
    427000   0.042909467   -0.074602434    0.030229973    0.019987587    0.00072229634
    428000   0.043066673   -0.074686367    0.02963397     0.019543446    0.00069259779
    429000   0.042827172   -0.074969127    0.029942924    0.019210409    0.00052231574
    430000   0.043124815   -0.075193972    0.029902282    0.01939136     0.00046981723
    431000   0.043449857   -0.075375396    0.029871964    0.019667149    0.00083130948
    432000   0.043363141   -0.075506847    0.02982462     0.019358288    0.00065388073
    433000   0.043199396   -0.075594657    0.029941718    0.019141975    0.00032408133
    434000   0.043450753   -0.075653546    0.029992933    0.019511311    0.00076527815
    435000   0.043434586   -0.076236306    0.030039704    0.018951074    0.00055380833
    436000   0.043292883   -0.076442315    0.029879871    0.018372691    0.00063443366
    437000   0.043509099   -0.076754149    0.030767993    0.019273282    0.00075464754
    438000   0.043587449   -0.076897734    0.030293442    0.018772662    0.00039164892
    439000   0.04371591    -0.077504261    0.030231155    0.018296529    0.00060702047
    440000   0.043783638   -0.077633918    0.03010062     0.018137922    0.00059253543
    441000   0.043987626   -0.077753704    0.030361246    0.018584725    0.00052033097
    442000   0.043739362   -0.077923061    0.030974876    0.018656625    0.00089078065
    443000   0.044125958   -0.078001195    0.0304486      0.018632072    0.00078069584
    444000   0.04435196    -0.07815529     0.031213102    0.01958146     0.00030336016
    445000   0.044811062   -0.078517025    0.030464926    0.019160158    0.00055115718
    446000   0.044760792   -0.078608084    0.031187462    0.019716233    0.00065605655
    447000   0.045240756   -0.078928929    0.031244368    0.020172196    0.00052946207
    448000   0.044796179   -0.079167065    0.031259401    0.019282269    0.00038635656
    449000   0.044763306   -0.079194682    0.031266397    0.019212342    0.00055149635
    450000   0.044975157   -0.079396265    0.031250908    0.019313025    0.0013222947 
    451000   0.044530571   -0.07965735     0.031174978    0.018309175    0.00092656701
    452000   0.045042407   -0.079651551    0.031101741    0.019009442    0.00062684997
    453000   0.045159544   -0.080021976    0.031297743    0.019010713    0.00066831744
    454000   0.045536343   -0.080182605    0.030950133    0.019067636    0.00069287962
    455000   0.045984597   -0.080553668    0.031656185    0.020074961    0.00040680182
    456000   0.045652444   -0.080777487    0.03147162     0.019168381    0.00066011625
    457000   0.045328163   -0.080955548    0.03158985     0.018622159    0.00076316757
    458000   0.045759879   -0.081206017    0.031741635    0.019171009    0.00059055366
    459000   0.046182657   -0.081201596    0.031936411    0.020004331    0.00073283345
    460000   0.046353567   -0.081489422    0.031603289    0.019639731    0.00061456588
    461000   0.045894138   -0.081415371    0.032167272    0.019588667    0.00061440662
    462000   0.04647082    -0.081814359    0.0321363      0.020023674    0.00081056967
    463000   0.046383987   -0.081967138    0.032605486    0.020209839    0.00092453628
    464000   0.046490747   -0.082158881    0.031494255    0.019066994    0.00047490325
    465000   0.046181027   -0.082437719    0.03229779     0.019127143    0.00043237369
    466000   0.046014139   -0.082464236    0.032145828    0.018698347    0.0006420915 
    467000   0.04704977    -0.082769606    0.03186699     0.019667486    0.00068131391
    468000   0.047014697   -0.082945076    0.032500156    0.020072577    0.00058879339
    469000   0.046635933   -0.083132816    0.032668654    0.019485224    0.00042827024
    470000   0.047003001   -0.083469261    0.032925956    0.019956648    0.00063848793
    471000   0.047013782   -0.083635143    0.032882709    0.01976369     0.00079062226
    472000   0.047101213   -0.083787792    0.031978382    0.018837851    0.00070825389
    473000   0.047728088   -0.084150712    0.032313597    0.019750398    0.00087836716
    474000   0.04714158    -0.084172818    0.033286149    0.019821138    0.00044509486
    475000   0.047308808   -0.08454388     0.033121007    0.019535761    0.00051732957
    476000   0.047251081   -0.084508903    0.032486273    0.018849418    0.00090151104
    477000   0.047342596   -0.084693109    0.032717294    0.019033498    0.00061996938
    478000   0.047175744   -0.084579592    0.033092362    0.019271821    0.00097785758
    479000   0.047628937   -0.084956232    0.032598621    0.019081185    0.00080131976
    480000   0.047894636   -0.085415769    0.032835448    0.019256998    0.00016742071
    481000   0.048035672   -0.085707916    0.032635861    0.018976804    0.0006936979 
    482000   0.047968822   -0.086049395    0.033058339    0.018957535    0.00066135297
    483000   0.048160894   -0.0860126      0.033406012    0.019630092    0.00070199181
    484000   0.047821747   -0.08632111     0.033341072    0.018747954    0.00075018094
    485000   0.048783918   -0.086422052    0.033454799    0.020203903    0.00075688077
    486000   0.048686088   -0.086486222    0.033927104    0.020465301    0.00076264247
    487000   0.049131683   -0.087095747    0.033773076    0.0203701      0.00048102521
    488000   0.04842719    -0.087196369    0.034170025    0.019609754    0.00040767513
    489000   0.049802201   -0.087468762    0.03376925     0.02099897     0.00057406488
    490000   0.048713963   -0.087897       0.034989431    0.020158661    0.00061773663
    491000   0.049543574   -0.08781481     0.033845129    0.020340885    0.00063505889
    492000   0.048959728   -0.088060173    0.033922352    0.019297032    0.00033769085
    493000   0.048872835   -0.088413087    0.034466247    0.019357682    0.00030386959
    494000   0.049682133   -0.088579746    0.034093122    0.020031767    0.00073675104
    495000   0.049866224   -0.088649559    0.034119874    0.020264825    0.00092193265
    496000   0.050235134   -0.088898211    0.034604047    0.021053675    0.00091175906
    497000   0.049917316   -0.088993593    0.034885407    0.020762957    0.0001995305 
    498000   0.050099039   -0.089046257    0.034858577    0.02095603     0.00037970943
    499000   0.049739191   -0.088978351    0.03480889     0.020434511    0.00061756569
    500000   0.050120907   -0.089348671    0.034538789    0.020366629    0.00072352963
Loop time of 455.713 on 8 procs for 500000 steps with 15500 atoms

Performance: 94796.441 tau/day, 1097.181 timesteps/s, 17.006 Matom-step/s
94.4% CPU use with 8 MPI tasks x 1 OpenMP threads

MPI task timing breakdown:
Section |  min time  |  avg time  |  max time  |%varavg| %total
---------------------------------------------------------------
Pair    | 68.961     | 74.052     | 80.963     |  45.5 | 16.25
Bond    | 42.869     | 46.142     | 49.073     |  32.6 | 10.13
Neigh   | 0.4633     | 0.46514    | 0.46675    |   0.2 |  0.10
Comm    | 23.772     | 33.585     | 41.637     | 101.5 |  7.37
Output  | 2.2048     | 2.316      | 2.4258     |   4.8 |  0.51
Modify  | 292.84     | 293.45     | 294        |   2.3 | 64.39
Other   |            | 5.704      |            |       |  1.25

Nlocal:         1937.5 ave        2061 max        1808 min
Histogram: 2 0 0 1 1 0 1 1 1 1
Nghost:          955.5 ave        1020 max         910 min
Histogram: 2 1 1 0 1 1 0 0 0 2
Neighs:              0 ave           0 max           0 min
Histogram: 8 0 0 0 0 0 0 0 0 0
FullNghs:         5059 ave        5726 max        4054 min
Histogram: 1 0 1 0 0 2 1 0 0 3

Total # of neighbors = 40472
Ave neighs/atom = 2.6110968
Ave special neighs/atom = 2.1612903
Neighbor list builds = 411
Dangerous builds = 0

unfix ThermoLng

# Now we let the system to create the polymeric network
fix ThermoLng all langevin ${temp} ${temp} ${damp} ${seed3} tally yes zero yes # Brownian Dynamics: langevin + nve
fix ThermoLng all langevin 0.05 ${temp} ${damp} ${seed3} tally yes zero yes 
fix ThermoLng all langevin 0.05 0.05 ${damp} ${seed3} tally yes zero yes 
fix ThermoLng all langevin 0.05 0.05 1 ${seed3} tally yes zero yes 
fix ThermoLng all langevin 0.05 0.05 1 31 tally yes zero yes 
run ${steps}
run 9500000
WARNING: Using a manybody potential with bonds/angles/dihedrals and special_bond exclusions (src/pair.cpp:250)
Hybrid pair style last /omp style table/omp
Last active /omp style is angle_style harmonic/omp
Per MPI rank memory allocation (min/avg/max) = 23.43 | 23.44 | 23.44 Mbytes
   Step          Temp          E_pair         E_mol          TotEng         Press     
    500000   0.050120907   -0.089348671    0.034538789    0.020366629    0.00072352963
    501000   0.050304143   -0.089591785    0.034635237    0.020494798    0.0011594937 
    502000   0.050121332   -0.089903943    0.034672697    0.019945902    0.00032908452
    503000   0.050322839   -0.090250831    0.034910914    0.02013947     0.00070939991
    504000   0.05044612    -0.090234982    0.034757973    0.020187289    0.0011064481 
    505000   0.050006299   -0.090484597    0.034811661    0.019331672    0.00063931523
    506000   0.05048289    -0.090465894    0.034365027    0.019618582    0.00067851331
    507000   0.050312882   -0.090591383    0.034896911    0.019769982    0.00082046835
    508000   0.049538874   -0.090643008    0.03525212     0.018912628    0.00061666492
    509000   0.050374983   -0.091138808    0.035190098    0.019608889    0.00056535987
    510000   0.0508783     -0.0914857      0.034897948    0.019724775    0.0007977299 
    511000   0.050463119   -0.09163155     0.034782428    0.018840672    0.0010432013 
    512000   0.049807726   -0.091894637    0.035227473    0.018039604    0.00031722415
    513000   0.04981397    -0.091852654    0.034628197    0.017491677    0.00057034881
    514000   0.05009639    -0.092064364    0.034491519    0.017566892    0.00075093469
    515000   0.049679208   -0.092084788    0.034568822    0.016998039    0.0011036275 
    516000   0.050306235   -0.092082416    0.034876689    0.018248757    0.00062374435
    517000   0.049583648   -0.092420186    0.034997744    0.016948232    0.00021357012
    518000   0.049767128   -0.092545817    0.034924011    0.017024069    0.00069270676
    519000   0.049954256   -0.092854406    0.034695771    0.016767915    0.0003311292 
    520000   0.050434684   -0.093081656    0.034753407    0.017318896    0.00077798608
    521000   0.050448629   -0.093617502    0.034509483    0.016560042    0.00086785048
    522000   0.050093939   -0.09362781     0.034689226    0.016197476    0.00052528253
    523000   0.049795261   -0.093642349    0.034451338    0.015497062    0.00061267548
    524000   0.050125066   -0.09430971     0.034485779    0.015358817    0.0010064848 
    525000   0.050180363   -0.094272533    0.03389841     0.014891565    0.00072811186
    526000   0.050310349   -0.094930975    0.034741823    0.015271503    0.00035851167
    527000   0.050292454   -0.095070901    0.035025687    0.015388601    0.00073591214
    528000   0.050403202   -0.095448128    0.035056575    0.015208372    0.0006123438 
    529000   0.050349382   -0.095684015    0.034572988    0.014408172    0.00066512354
    530000   0.049786813   -0.096005791    0.035015696    0.013685306    0.00094737763
    531000   0.050149003   -0.096353757    0.034434395    0.013299289    0.00060013428
    532000   0.049921676   -0.096508079    0.03453534     0.012904945    0.00049529641
    533000   0.050253081   -0.096609407    0.034780848    0.0135462      0.0005998684 
    534000   0.050151985   -0.097112288    0.034391361    0.012502197    0.00076588163
    535000   0.050699862   -0.097024865    0.034261735    0.013281756    0.00066472814
    536000   0.049588634   -0.09723304     0.034581952    0.011727063    0.00067916471
    537000   0.05043389    -0.09742542     0.035384197    0.013604731    0.00053586527
    538000   0.050330896   -0.097841255    0.034542201    0.012192419    0.00084101547
    539000   0.050042337   -0.097928814    0.034614864    0.011744713    0.00057493702
    540000   0.049992288   -0.097749132    0.034498755    0.011733217    0.00061120941
    541000   0.050575702   -0.098293434    0.034105035    0.01167026     0.00048176168
    542000   0.050182691   -0.098660739    0.034844168    0.011452609    0.000761674  
    543000   0.04971046    -0.098615969    0.034689722    0.010634631    0.00050830305
    544000   0.050043191   -0.098733807    0.035111419    0.011437556    0.00074544906
    545000   0.049984978   -0.098810326    0.034000891    0.010163194    0.00097824997
    546000   0.049649964   -0.099028794    0.03466598     0.010107327    0.00053772165
    547000   0.049483956   -0.099434793    0.033934454    0.0087208057   0.00030380223
    548000   0.049383656   -0.099392533    0.034206677    0.0088848486   0.00061353362
    549000   0.050682662   -0.099536197    0.03455176     0.011034652    0.00079809442
    550000   0.050605354   -0.099929651    0.034626042    0.010599526    0.00095153075
    551000   0.049828239   -0.100103       0.034337935    0.0089724732   0.00078673814
    552000   0.049719838   -0.10011007     0.034356186    0.0088210659   0.00067279271
    553000   0.050561596   -0.10023527     0.034362293    0.0099645271   0.00091674626
    554000   0.050163213   -0.10038738     0.034346214    0.0091987987   0.00056679826
    555000   0.050190284   -0.10050289     0.034674801    0.0094524845   0.00079667465
    556000   0.049758713   -0.10080599     0.034918336    0.008745603    0.00079905067
    557000   0.049807082   -0.10108683     0.035004095    0.0086230708   0.00094409056
    558000   0.049776385   -0.10170887     0.034695261    0.0076461514   0.00074736369
    559000   0.050186517   -0.10189533     0.034534116    0.0079137017   0.00073290955
    560000   0.050621251   -0.10218689     0.034284397    0.008024482    0.0011131446 
    561000   0.050004928   -0.10230395     0.035107462    0.0078060643   0.00088718152
    562000   0.049914322   -0.10242124     0.034843323    0.0072887382   0.00024922906
    563000   0.050390936   -0.1026941      0.034782979    0.0076704102   0.00045319226
    564000   0.050380474   -0.10276484     0.03441867     0.0072196652   0.00073342351
    565000   0.050052793   -0.1028718      0.03482954     0.0070320844   0.00083957064
    566000   0.050790743   -0.10316626     0.034967627    0.0079825684   0.00075467896
    567000   0.050282701   -0.10361721     0.034788548    0.006590519    0.00076195429
    568000   0.050056259   -0.1037812      0.034826107    0.0061244498   0.00030578923
    569000   0.050333954   -0.1039717      0.034980432    0.0065047904   0.00096859941
    570000   0.049886655   -0.10434983     0.034768769    0.0052440907   0.00048462984
    571000   0.049833588   -0.10466815     0.034833789    0.0049111991   0.00053113034
    572000   0.050336642   -0.10475433     0.034534456    0.0052802232   0.00083686828
    573000   0.049748482   -0.10469602     0.034198799    0.0041206923   0.00034122593
    574000   0.049409892   -0.10489665     0.034954087    0.0041674885   0.0007452056 
    575000   0.050681179   -0.10523752     0.034516971    0.0052963103   0.00031166595
    576000   0.049978469   -0.10509868     0.034820869    0.0046850595   0.00095026541
    577000   0.050111892   -0.10567308     0.035017238    0.004507148    0.00059723389
    578000   0.049637114   -0.10560344     0.034492178    0.0033396074   0.00054535059
    579000   0.050190856   -0.10575699     0.034512745    0.0040371796   0.00048503776
    580000   0.050088626   -0.10621364     0.035401147    0.0043155994   0.00087219869
    581000   0.050002301   -0.10661961     0.03491511     0.0032941101   0.00063062184
    582000   0.05023676    -0.10680246     0.034671542    0.003219365    0.00063763381
    583000   0.049938222   -0.1065883      0.035338133    0.0036523369   0.00055076668
    584000   0.050365014   -0.10697614     0.035132942    0.0036994514   0.00070340234
    585000   0.051218257   -0.10719379     0.034729099    0.0043577388   0.00042304327
    586000   0.049821877   -0.10738051     0.034854412    0.0022018953   0.00051840894
    587000   0.049809029   -0.10768264     0.034260507    0.0012865869   0.00086305343
    588000   0.050296991   -0.10781205     0.034513764    0.0021423347   0.00043860598
    589000   0.050192373   -0.10769077     0.034449959    0.0020428955   0.00064945783
    590000   0.049746912   -0.10821878     0.035202352    0.0015991268   0.00078735173
    591000   0.05024984    -0.1084001      0.035001601    0.0019713947   0.00064290697
    592000   0.049639356   -0.1087516      0.034809898    0.00051252776  0.00041054918
    593000   0.049854007   -0.10899514     0.034497821    0.00027887142  0.00044395986
    594000   0.050018865   -0.10881412     0.034153625    0.00036296294  0.00090518385
    595000   0.049711612   -0.10923584     0.035561184    0.00088795168  0.00044478674
    596000   0.050102451   -0.10913996     0.034887754    0.00089661787  0.0005684478 
    597000   0.050321618   -0.10943859     0.034891128    0.00093009057  0.00066259131
    598000   0.0497806     -0.10992329     0.034936184   -0.00032102343  0.00033915874
    599000   0.049867364   -0.11003651     0.034149016   -0.0010912692   0.0009067085 
    600000   0.049718333   -0.10984781     0.034655785   -0.00061934022  0.00069816615
    601000   0.050095001   -0.1100441      0.034529331   -0.00037711862  0.00093330836
    602000   0.050285566   -0.1098825      0.034842206    0.0003831853   0.00074383974
    603000   0.04968596    -0.11026805     0.034758115   -0.00098580176  0.00062875086
    604000   0.050222736   -0.11036454     0.035326739    0.00029144419  0.00079283569
    605000   0.050342967   -0.11016584     0.034497131   -0.000159129    0.0011235084 
    606000   0.050253057   -0.11066506     0.034805165   -0.00048517427  0.00017625975
    607000   0.050214978   -0.11079729     0.03499475    -0.00048493122  0.00061926359
    608000   0.050193861   -0.11081664     0.034569511   -0.00096119255  0.00072494631
    609000   0.049440581   -0.11114209     0.034783661   -0.0022023438   0.00058725064
    610000   0.04965304    -0.11094685     0.034672612   -0.001799483    0.00079526669
    611000   0.050128572   -0.11129961     0.034893923   -0.0012176845   0.0005067064 
    612000   0.04996869    -0.11128146     0.03517736    -0.0011559009   0.00082438142
    613000   0.050292979   -0.11162252     0.034482183   -0.0017057404   0.0008971869 
    614000   0.049978796   -0.11183597     0.034780713   -0.0020919007   0.00041069529
    615000   0.050200179   -0.11187684     0.034903306   -0.0016781209   0.00095839805
    616000   0.050038991   -0.11219194     0.035243884   -0.0018944073   0.00043021134
    617000   0.050283187   -0.11224214     0.03502009    -0.0018021389   0.00025007065
    618000   0.049934172   -0.11257835     0.034646548   -0.0030353786   0.00059585511
    619000   0.050020371   -0.11279311     0.034274442   -0.0034929526   0.0007476082 
    620000   0.049612391   -0.11269655     0.034555749   -0.0037270196   0.00059291854
    621000   0.049554037   -0.11303305     0.034668645   -0.0040381506   0.00034258716
    622000   0.049858118   -0.11312835     0.035258333   -0.0030876635   0.00061898165
    623000   0.050152975   -0.11318116     0.034888928   -0.0030676201   0.00041417707
    624000   0.050179548   -0.11318671     0.034538116   -0.0033841289   0.00062804219
    625000   0.049874553   -0.11343545     0.0351442     -0.0034842499   0.00095905414
    626000   0.050326011   -0.11353593     0.03459071    -0.003461078    0.00044998383
    627000   0.049775271   -0.11392373     0.034524765   -0.0047408747   0.00057265169
    628000   0.050188829   -0.11397323     0.034166294   -0.0045285449   0.0005534595 
    629000   0.049945232   -0.11388695     0.034456249   -0.0045176852   0.00053142579
    630000   0.050374767   -0.1145533      0.035205643   -0.0037903795   0.00076371378
    631000   0.05038926    -0.11434271     0.034253379   -0.0045103202   0.00087712388
    632000   0.050092712   -0.11479546     0.034466567   -0.0051946695   0.00059287947
    633000   0.049814885   -0.11501926     0.034808918   -0.0054928374   0.00068582306
    634000   0.050088762   -0.1151426      0.035020036   -0.0049942729   0.00071554857
    635000   0.050295616   -0.11510397     0.034754166   -0.0049112467   0.00066328112
    636000   0.050159127   -0.11525497     0.034552089   -0.0054690474   0.00058351108
    637000   0.050969119   -0.11552253     0.03453615    -0.0045376321   0.00041005767
    638000   0.050248923   -0.11551533     0.034748822   -0.0053979882   0.00071106021
    639000   0.050287605   -0.11609295     0.034842092   -0.0058243173   0.00062883733
    640000   0.050185965   -0.11628041     0.034432538   -0.0065737767   0.00053659146
    641000   0.049821651   -0.11635965     0.0344852     -0.0071467973   0.000528624  
    642000   0.050042327   -0.11640168     0.034574657   -0.0067683792   0.00092865546
    643000   0.049961754   -0.11656735     0.034730482   -0.006899074    0.0001379729 
    644000   0.049553177   -0.11681896     0.034765843   -0.0077281449   0.00074193243
    645000   0.050479811   -0.11726881     0.034629229   -0.0069247445   0.00081096083
    646000   0.050456709   -0.11731273     0.034551072   -0.0070814814   0.00047828623
    647000   0.050234707   -0.11765542     0.035273301   -0.0070349193   0.00050726802
    648000   0.049642424   -0.11792099     0.034752555   -0.0087095987   0.00038003279
    649000   0.049902147   -0.11791401     0.034459345   -0.0086062705   0.00081286819
    650000   0.049932927   -0.11796152     0.034501233   -0.0085657301   0.00063109255
    651000   0.049456372   -0.11803455     0.034321928   -0.0095328454   0.00088112188
    652000   0.050158395   -0.11781651     0.034360309   -0.0082234568   0.00059775557
    653000   0.049633045   -0.11835093     0.034906234   -0.0089999279   0.00092603598
    654000   0.050439977   -0.11860413     0.035425907   -0.007523135    0.00073248287
    655000   0.050522557   -0.11902686     0.035034348   -0.0082135612   0.00054592622
    656000   0.050520716   -0.1184276      0.035577211   -0.0070742066   0.00067213036
    657000   0.050317305   -0.11898866     0.034905421   -0.0086121545   0.00031037952
    658000   0.050196307   -0.11912185     0.034482527   -0.0093497238   0.00079519151
    659000   0.049932721   -0.11909117     0.034788642   -0.0094082754   0.00094830163
    660000   0.049653946   -0.11958187     0.034724647   -0.01038111     0.00040994679
    661000   0.050078646   -0.11946901     0.034912658   -0.0094432265   0.00040203007
    662000   0.050063558   -0.11984674     0.034638081   -0.010118169    0.00052387415
    663000   0.050449506   -0.11990448     0.034451767   -0.0097833349   0.00074236117
    664000   0.050010854   -0.120384       0.034962024   -0.010410535    0.00064501256
    665000   0.050525653   -0.12017794     0.03446108    -0.0099332713   0.00035909985
    666000   0.05016305    -0.12044859     0.034484497   -0.010724369    0.0010040295 
    667000   0.050385242   -0.12078952     0.034794762   -0.010421771    0.0008032555 
    668000   0.049865309   -0.12067837     0.034381242   -0.011503987    0.00043593583
    669000   0.04987295    -0.12144822     0.035444093   -0.011199526    0.00050181133
    670000   0.050345397   -0.12137197     0.034639199   -0.011219549    0.00049580421
    671000   0.05029908    -0.12165032     0.034710852   -0.011495721    0.00049109987
    672000   0.05012013    -0.12191948     0.034684549   -0.012059586    0.00067733079
    673000   0.050386691   -0.12184765     0.034818312   -0.011454181    0.00065139386
    674000   0.049786762   -0.12200346     0.035044328   -0.012283809    0.00048668986
    675000   0.04971367    -0.12216636     0.034779884   -0.012820782    0.00063805377
    676000   0.04941129    -0.12183045     0.034770894   -0.012947399    0.00061125372
    677000   0.050696251   -0.12237036     0.03514063    -0.011190264    0.00075042916
    678000   0.050566135   -0.1226332      0.035471357   -0.011317536    0.00067446978
    679000   0.050611147   -0.1224697      0.034786225   -0.01177165     0.00068330039
    680000   0.049650068   -0.12289603     0.034862113   -0.01356362     0.00052995134
    681000   0.049729637   -0.12304104     0.034588035   -0.013863365    0.00039383046
    682000   0.050200657   -0.12300864     0.034786966   -0.012925544    0.00047596997
    683000   0.050121286   -0.12344028     0.035195669   -0.013067529    0.00031497777
    684000   0.050010373   -0.12358601     0.035134356   -0.013440935    0.00035370645
    685000   0.049792452   -0.12365034     0.03482236    -0.014144123    0.0010840536 
    686000   0.050260088   -0.12387937     0.034738165   -0.013755936    0.00026934214
    687000   0.050054975   -0.12378351     0.035223979   -0.01348191     0.00034950412
    688000   0.050317572   -0.12418638     0.034726239   -0.013988656    0.00041347185
    689000   0.05026227    -0.12399658     0.034799085   -0.013808956    0.0006952959 
    690000   0.049940176   -0.12410855     0.035109252   -0.014093869    0.00065447545
    691000   0.050316302   -0.12433355     0.03526426    -0.013599702    0.00015596279
    692000   0.050314695   -0.12447795     0.034734066   -0.014276712    0.00077694459
    693000   0.049532258   -0.12474421     0.034844839   -0.015605781    0.00062379052
    694000   0.05002464    -0.12496287     0.0343201     -0.015610649    0.00032091236
    695000   0.050219911   -0.12490523     0.035006056   -0.014574168    0.00043798502
    696000   0.049502042   -0.12509259     0.034678226   -0.016166092    0.00076455793
    697000   0.050061722   -0.12539482     0.034557339   -0.015749745    0.00067475569
    698000   0.049698843   -0.12545231     0.035210957   -0.015697896    0.00036004772
    699000   0.050312803   -0.12554238     0.035024825   -0.015053224    0.00073886179
    700000   0.050624951   -0.12567521     0.034805157   -0.014937522    0.0008768787 
    701000   0.050136794   -0.12607568     0.035493873   -0.01538147     0.0006658092 
    702000   0.049953858   -0.12604115     0.034776703   -0.016338493    0.00053525357
    703000   0.050604778   -0.12612579     0.035029041   -0.015194479    9.0863738e-05
    704000   0.050377831   -0.12625563     0.034788835   -0.015904918    0.00046961837
    705000   0.049986722   -0.126618       0.035040139   -0.016602612    0.00052723392
    706000   0.050615518   -0.1267552      0.034382835   -0.016453982    0.00079887436
    707000   0.050348531   -0.12703004     0.034855985   -0.016656126    0.00055002961
    708000   0.049936406   -0.12731475     0.034713725   -0.01770125     0.00044468063
    709000   0.049883162   -0.12736495     0.034905242   -0.017639793    0.00097656507
    710000   0.050144645   -0.12757999     0.034388631   -0.017979239    0.00049475281
    711000   0.049855998   -0.12772602     0.034896721   -0.018050125    0.00062536926
    712000   0.050281275   -0.12814382     0.034281816   -0.018444962    0.00066367245
    713000   0.050228388   -0.12832468     0.035198283   -0.017788678    0.00076144122
    714000   0.050171329   -0.12820283     0.034407841   -0.01854285     0.000614329  
    715000   0.049725643   -0.12852452     0.034877189   -0.019063679    0.00041672502
    716000   0.049567867   -0.12887893     0.03550627    -0.019025655    0.00049222808
    717000   0.050032291   -0.12935795     0.034924021   -0.019390338    0.00018146798
    718000   0.050455717   -0.12911994     0.034678875   -0.018762373    0.00077669327
    719000   0.049693742   -0.12954835     0.034979035   -0.020033507    0.00050023295
    720000   0.049971644   -0.12940662     0.03437814    -0.020075854    0.00074523975
    721000   0.049599243   -0.12975886     0.034942296   -0.020422502    0.00043517351
    722000   0.049486467   -0.12989056     0.034979218   -0.020686433    0.0003004306 
    723000   0.050417881   -0.13016164     0.034869243   -0.01967045     0.00043561896
    724000   0.050017493   -0.12996339     0.035214687   -0.019727304    0.00077969637
    725000   0.050155403   -0.13013081     0.034776206   -0.02012635     0.00052574368
    726000   0.050315511   -0.13024377     0.034548417   -0.020226953    0.00074374875
    727000   0.049884532   -0.13026397     0.034853125   -0.020588875    0.00056698395
    728000   0.050323564   -0.13071289     0.034290338   -0.020942072    0.0005190948 
    729000   0.05038991    -0.13081271     0.034630375   -0.020602342    0.00030785082
    730000   0.050547738   -0.1307101      0.035234344   -0.019659039    0.0010399516 
    731000   0.050444315   -0.13085212     0.03504161    -0.02014892     0.00039965637
    732000   0.05051318    -0.13124343     0.035259301   -0.020219252    0.00062308066
    733000   0.050166592   -0.13156267     0.035045481   -0.021272154    0.00048745351
    734000   0.050413998   -0.13182418     0.034340078   -0.021867985    0.0010078096 
    735000   0.049743989   -0.13166843     0.034621825   -0.022435433    0.00026809356
    736000   0.049558536   -0.13247832     0.035266825   -0.022878492    0.0005464048 
    737000   0.049177379   -0.13218342     0.034826998   -0.023595107    0.00049119798
    738000   0.050327798   -0.13244939     0.035054948   -0.021907615    0.00032497611
    739000   0.050489189   -0.13257059     0.034670916   -0.022170772    0.00092778565
    740000   0.050231651   -0.13251841     0.034643242   -0.022532552    0.00040381032
    741000   0.050426888   -0.13291828     0.034403079   -0.022879748    0.00061542235
    742000   0.049370523   -0.13267053     0.034545154   -0.024074373    0.00063866631
    743000   0.050199676   -0.13292255     0.034243921   -0.023383971    0.0010102307 
    744000   0.050259416   -0.13319697     0.03458045    -0.023232263    0.00055102649
    745000   0.050007709   -0.13329782     0.034473957   -0.023817139    0.00072763915
    746000   0.049566293   -0.13329829     0.034808694   -0.024144956    0.00050390475
    747000   0.049861758   -0.13339609     0.034422591   -0.024185686    0.00047521459
    748000   0.049760814   -0.1334781      0.034500445   -0.024341253    0.00040747758
    749000   0.049984259   -0.13362557     0.033556275   -0.025097746    0.00093430648
    750000   0.049864372   -0.13384923     0.034743989   -0.024313508    0.00039334854
    751000   0.050272427   -0.13399192     0.034944205   -0.023643939    0.00096154545
    752000   0.049878978   -0.13424757     0.035287501   -0.024146429    6.6572338e-05
    753000   0.049960507   -0.13436551     0.034438498   -0.024991086    0.00089840579
    754000   0.04999166    -0.13429896     0.034757014   -0.02455929     0.00058896249
    755000   0.050235679   -0.13427878     0.035304698   -0.023625426    0.0005840023 
    756000   0.049913392   -0.13470454     0.034434027   -0.025405258    0.0009296707 
    757000   0.049802008   -0.13486813     0.034579737   -0.025590197    0.00054414786
    758000   0.050054276   -0.13476625     0.03454583    -0.025143846    0.00045633135
    759000   0.050012751   -0.13514161     0.034484593   -0.025642732    0.00072078107
    760000   0.050273473   -0.13545621     0.034502767   -0.025548101    0.00036593861
    761000   0.04977332    -0.13547171     0.034763372   -0.026053169    0.00052812365
    762000   0.049979472   -0.13538711     0.034258031   -0.026164708    0.00059030253
    763000   0.050958116   -0.13568204     0.035350412   -0.023899389    0.00016707179
    764000   0.050309597   -0.13577117     0.034853017   -0.025458629    0.00066899808
    765000   0.05001939    -0.13602072     0.035296029   -0.025700448    0.00083527499
    766000   0.050079925   -0.13614032     0.03540343    -0.02562185     0.00064601702
    767000   0.050075377   -0.13627481     0.035534368   -0.025632218    0.00033002392
    768000   0.050709513   -0.13645805     0.034816736   -0.025581952    0.00073051111
    769000   0.049795678   -0.13701682     0.034796568   -0.027531554    0.00032121694
    770000   0.049873454   -0.13689678     0.034556164   -0.027535265    0.00085143008
    771000   0.049792543   -0.13709388     0.034701283   -0.0277086      0.00056045939
    772000   0.049887027   -0.13740105     0.035215116   -0.027360218    0.00040277746
    773000   0.050311734   -0.1373855      0.035290818   -0.026631955    0.00067664704
    774000   0.050138942   -0.13760991     0.034753534   -0.027652815    0.00023923261
    775000   0.049899522   -0.13770748     0.034655578   -0.028207445    0.0004425147 
    776000   0.049957585   -0.1378319      0.034973393   -0.027926964    0.00028589412
    777000   0.050318564   -0.13780457     0.035445705   -0.026885886    0.00065297681
    778000   0.050460717   -0.13780715     0.035139025   -0.026981928    0.00064625026
    779000   0.050010458   -0.13761887     0.034723159   -0.027884863    0.0005229274 
    780000   0.049793404   -0.13809738     0.035174868   -0.028237224    0.00063034928
    781000   0.050220911   -0.13808001     0.034795897   -0.027957605    0.00067272961
    782000   0.050065764   -0.1381113      0.034392849   -0.028624648    0.00055474532
    783000   0.04991297    -0.1383569      0.035717744   -0.027774533    0.00050304886
    784000   0.050768928   -0.13866143     0.03501671    -0.027496243    0.00062210895
    785000   0.050123119   -0.13911159     0.035212996   -0.028718763    0.00043732902
    786000   0.050066737   -0.13929452     0.035003009   -0.029196253    0.00070618746
    787000   0.04968494    -0.13934253     0.034271859   -0.03054807     0.00031241945
    788000   0.049515946   -0.1393151      0.034791256   -0.030254717    0.00019683372
    789000   0.050090639   -0.13966303     0.034708449   -0.029823471    0.00062058496
    790000   0.049668206   -0.13989528     0.034590937   -0.03080684     0.00056316985
    791000   0.050592646   -0.13989332     0.034808676   -0.029200566    0.00058627382
    792000   0.050367845   -0.14056011     0.035082298   -0.029930916    0.00029952753
    793000   0.050274452   -0.14034852     0.034602209   -0.030339498    0.0009068161 
    794000   0.050460007   -0.14098901     0.035367774   -0.02993611     0.00054549011
    795000   0.050535637   -0.14087366     0.035044388   -0.03003071     0.00034430663
    796000   0.05030125    -0.14099143     0.035093013   -0.030451411    0.00061197317
    797000   0.049966147   -0.14124046     0.035636149   -0.03065993     0.00033350642
    798000   0.050997034   -0.14138042     0.035141808   -0.029747996    0.00039387037
    799000   0.04959349    -0.14143824     0.034805356   -0.032247451    0.00018173755
    800000   0.049881336   -0.14169095     0.034571992   -0.03230178     0.00068987794
    801000   0.050012749   -0.14197686     0.034846052   -0.03211652     0.0006846517 
    802000   0.05044094    -0.1419915      0.034865385   -0.031469583    0.00067356903
    803000   0.050147652   -0.14293856     0.034343601   -0.03337833     0.00075952162
    804000   0.049605357   -0.14284497     0.034729146   -0.033712589    0.00012445528
    805000   0.050020884   -0.14267086     0.034599974   -0.033044404    0.0008261017 
    806000   0.050059499   -0.1429609      0.03431253    -0.033563969    0.00072005563
    807000   0.050304145   -0.1429979      0.034711251   -0.032835297    9.576387e-05 
    808000   0.05024202    -0.1430572      0.034534989   -0.033164046    0.00066620684
    809000   0.049919821   -0.14307185     0.03544973    -0.032747215    0.00036203628
    810000   0.050207669   -0.14321727     0.034631918   -0.033278705    0.00052008272
    811000   0.050368305   -0.14320635     0.034768898   -0.032889872    0.0006424456 
    812000   0.049901353   -0.14342659     0.034961045   -0.033618349    0.00061497734
    813000   0.049949024   -0.14379951     0.034787925   -0.034092884    0.00093125374
    814000   0.049748943   -0.14408478     0.035100911   -0.034365271    0.00015568224
    815000   0.049847069   -0.14440605     0.034326945   -0.035313324    0.00041747133
    816000   0.049744517   -0.14468932     0.034309583   -0.03576778     0.00045748861
    817000   0.049692236   -0.14492379     0.034968291   -0.035421953    0.00043325442
    818000   0.050371467   -0.14441808     0.034651937   -0.034213821    0.00067822579
    819000   0.050142532   -0.14478116     0.034701712   -0.034870501    0.00034354642
    820000   0.050405394   -0.14490772     0.034650556   -0.034653948    0.00065552336
    821000   0.049712577   -0.14511807     0.034855983   -0.035698029    0.00061699865
    822000   0.050424918   -0.14538235     0.035149005   -0.03460085     0.0003570762 
    823000   0.049986469   -0.14559528     0.034664256   -0.035956155    0.00030501856
    824000   0.050035496   -0.14557781     0.034977216   -0.035552194    0.00018977421
    825000   0.049981888   -0.14620701     0.034837973   -0.036401038    0.00066602459
    826000   0.049953623   -0.14579362     0.035036718   -0.0358313      0.0001846144 
    827000   0.04980389    -0.14603257     0.034820761   -0.036510791    0.00071198756
    828000   0.049267125   -0.14635918     0.034577314   -0.037885945    0.00086853083
    829000   0.049896179   -0.14614071     0.034531204   -0.036770061    0.00027948642
    830000   0.050258889   -0.14668327     0.035069399   -0.0362304      0.00055395259
    831000   0.049820502   -0.14665852     0.034437375   -0.037495214    0.00029157115
    832000   0.049311122   -0.14689667     0.034728662   -0.0382061      0.00046792219
    833000   0.050020264   -0.14688957     0.034577969   -0.037286045    0.00040720584
    834000   0.050611845   -0.14713185     0.034448775   -0.036770205    0.00053515186
    835000   0.049921322   -0.14751796     0.034279402   -0.038361412    0.00043624468
    836000   0.049671152   -0.14723445     0.034487884   -0.038244641    0.00043895933
    837000   0.049551682   -0.14769485     0.035035815   -0.038336311    0.00038918492
    838000   0.050064106   -0.14788824     0.034544294   -0.038252631    0.00048278462
    839000   0.049716714   -0.14792478     0.035070976   -0.038283544    0.00047367136
    840000   0.0495976     -0.14814806     0.035017169   -0.038739287    0.00014792727
    841000   0.049591211   -0.1479965      0.034919267   -0.038695214    0.0006729657 
    842000   0.050045323   -0.148074       0.034109151   -0.038901706    0.00040647402
    843000   0.049375825   -0.14803267     0.034972737   -0.039000977    0.00074158086
    844000   0.050369394   -0.1480481      0.034239516   -0.03825937     0.00019180614
    845000   0.05009459    -0.14810113     0.034976133   -0.037987963    0.00085064817
    846000   0.050161114   -0.14810682     0.034521169   -0.038348837    0.00046070958
    847000   0.049561436   -0.14847768     0.035525932   -0.038614395    0.00030289206
    848000   0.050217637   -0.14853646     0.035061517   -0.038153348    0.00041389169
    849000   0.049830898   -0.14861349     0.035049587   -0.038822374    0.00078461447
    850000   0.049970362   -0.14887226     0.03477171    -0.039149843    0.00022826189
    851000   0.050071447   -0.14883818     0.0350604     -0.038675454    0.00061000106
    852000   0.050003386   -0.14936975     0.035320216   -0.039049292    0.00049065929
    853000   0.050111472   -0.14950132     0.035754011   -0.038584948    0.00040389877
    854000   0.050650796   -0.14920711     0.034766304   -0.038469511    0.00065077672
    855000   0.049935143   -0.14976506     0.035125886   -0.039741295    0.00017831985
    856000   0.050215062   -0.14967498     0.03490753    -0.039449717    0.00032495345
    857000   0.050319052   -0.14941399     0.034958707   -0.038981579    0.00085281587
    858000   0.050843297   -0.14988743     0.03506273    -0.038564672    6.9801124e-05
    859000   0.050178045   -0.15014942     0.034903722   -0.039983481    0.00053821403
    860000   0.05010823    -0.15028277     0.035311691   -0.039813584    0.00022594154
    861000   0.049605595   -0.15027858     0.034858455   -0.041016536    5.5550833e-05
    862000   0.050816695   -0.15079373     0.034329085   -0.040244523    0.0005459843 
    863000   0.050388208   -0.15099226     0.034536515   -0.040878309    0.00074808147
    864000   0.049973546   -0.15072041     0.035173091   -0.040591835    0.00042119226
    865000   0.050972806   -0.15105343     0.035232848   -0.03936631     0.00035241896
    866000   0.050648596   -0.15127608     0.034999828   -0.040308265    0.00067603148
    867000   0.050179004   -0.15100376     0.034943048   -0.040797059    0.0009060557 
    868000   0.050218122   -0.15081616     0.035267514   -0.040226324    0.00049268798
    869000   0.05058108    -0.15133298     0.034795181   -0.04067107     0.00055573991
    870000   0.050095824   -0.1516045      0.035559788   -0.040905821    0.00020471485
    871000   0.049592665   -0.15165695     0.035140057   -0.042132693    0.00024839856
    872000   0.049396646   -0.15163293     0.035069957   -0.04247278     0.0003641273 
    873000   0.050484851   -0.15197942     0.034491005   -0.041766021    0.001059736  
    874000   0.050414939   -0.15216732     0.034863127   -0.041686663    0.00061916513
    875000   0.050562843   -0.1521778      0.034834463   -0.041503966    0.00061573203
    876000   0.050694071   -0.15223508     0.035178122   -0.04102076     0.00013256795
    877000   0.050360953   -0.15264158     0.03571505    -0.041389969    0.00053576938
    878000   0.050726136   -0.15289464     0.035229128   -0.041581218    0.00056278109
    879000   0.05044998    -0.15302467     0.035270636   -0.042083946    0.00070512552
    880000   0.050737824   -0.15343836     0.035149484   -0.04218705     0.00043329381
    881000   0.050520608   -0.15322821     0.035311022   -0.042141168    0.00023971279
    882000   0.05053508    -0.15356074     0.035115852   -0.042647161    0.00029150127
    883000   0.050104052   -0.15338697     0.035376177   -0.042859567    0.0004783442 
    884000   0.049792434   -0.15342713     0.034220669   -0.044522624    0.00048217462
    885000   0.050260459   -0.15365213     0.035208265   -0.043058039    0.00056642085
    886000   0.050595798   -0.15381218     0.03511347    -0.042809914    0.00036287252
    887000   0.050065234   -0.15396714     0.034625027   -0.044249103    0.00096272242
    888000   0.049675236   -0.15410521     0.035128988   -0.044468176    0.000757051  
    889000   0.050056091   -0.15424731     0.035105111   -0.044062909    0.00068695139
    890000   0.049477822   -0.15446802     0.034985448   -0.045270625    0.0006116497 
    891000   0.050095755   -0.15441506     0.034702607   -0.044573673    0.00081394464
    892000   0.050154454   -0.15495399     0.035114701   -0.04461246     0.00058479622
    893000   0.050145207   -0.15502771     0.035095009   -0.044719749    0.0001576025 
    894000   0.050427058   -0.15513219     0.035914275   -0.043582204    0.00062859645
    895000   0.049977634   -0.15529684     0.034878971   -0.045456255    8.644381e-05 
    896000   0.049810951   -0.15546672     0.035388972   -0.045366141    0.0001527183 
    897000   0.05091616    -0.15574673     0.035012617   -0.044364799    0.00061174032
    898000   0.049968911   -0.15546803     0.034646837   -0.045872664    0.00074471213
    899000   0.05061387    -0.15605132     0.03547276    -0.044662653    0.0002852292 
    900000   0.050225543   -0.15611622     0.034817126   -0.045965637    0.0004024236 
    901000   0.050174801   -0.15591711     0.035362563   -0.045297205    0.0004391391 
    902000   0.050053908   -0.15626756     0.035474377   -0.045717163    0.00044585374
    903000   0.049797651   -0.15640848     0.034868377   -0.046848448    0.00074427966
    904000   0.050221519   -0.15670186     0.034352731   -0.047021712    0.00022418405
    905000   0.050261603   -0.15667165     0.03468877    -0.04659534     0.00045635667
    906000   0.049968336   -0.1568018      0.03459466    -0.047259471    0.00027957844
    907000   0.049685368   -0.15690449     0.034862531   -0.04751872     0.00072680494
    908000   0.050228774   -0.15714343     0.034737604   -0.047067526    0.00045204162
    909000   0.050257943   -0.15690787     0.034552307   -0.046973507    0.00067835749
    910000   0.04997906    -0.1573818      0.034750181   -0.047667865    0.00068822569
    911000   0.049565463   -0.1572124      0.035072464   -0.047796539    0.00033412553
    912000   0.050116726   -0.1574878      0.034296799   -0.048020761    0.00050255527
    913000   0.049666412   -0.15739663     0.034338873   -0.048562949    0.00059565801
    914000   0.049842864   -0.15753801     0.034041348   -0.048737189    0.00076650776
    915000   0.049564381   -0.15793478     0.03433967    -0.049253331    0.00035800785
    916000   0.0491634     -0.1575449      0.035351833   -0.048452727    0.00032854655
    917000   0.050056116   -0.15751941     0.034489361   -0.047950722    0.00076496112
    918000   0.049736095   -0.15791538     0.034973291   -0.048342761    8.0351799e-05
    919000   0.049869074   -0.15827291     0.034699991   -0.048774134    0.00077964266
    920000   0.049579956   -0.15798656     0.03484695    -0.048774474    0.00071943423
    921000   0.050506392   -0.15825885     0.035064921   -0.047439224    0.00069168416
    922000   0.050109576   -0.15850355     0.035094316   -0.048249722    0.00031250691
    923000   0.050028323   -0.15836284     0.034781555   -0.04854364     0.0002111399 
    924000   0.049783667   -0.15868553     0.035003837   -0.049011008    0.00037918669
    925000   0.050333081   -0.15872331     0.034205204   -0.049023357    0.00084161431
    926000   0.050300083   -0.15935732     0.035023601   -0.048888458    0.00065048609
    927000   0.050056657   -0.15901944     0.034502518   -0.049436784   -8.9242941e-05
    928000   0.049196476   -0.15903062     0.034737988   -0.050502678    0.0004823186 
    929000   0.049734273   -0.1591298      0.034536537   -0.049996667    0.00049234006
    930000   0.049942926   -0.15958776     0.034238754   -0.050439449    0.00025223213
    931000   0.049677738   -0.15969877     0.034533498   -0.050653471    0.00020301351
    932000   0.049839035   -0.1595496      0.034539733   -0.05025614     0.00084668534
    933000   0.050382008   -0.15961583     0.03482329    -0.049224405    0.00034029352
    934000   0.049335645   -0.15982858     0.034844912   -0.050984974    0.0004019542 
    935000   0.049941737   -0.15981113     0.034928701   -0.049974658    0.00030643827
    936000   0.049665083   -0.15985927     0.035207202   -0.050159249    0.00059319932
    937000   0.049625378   -0.15971599     0.034824516   -0.050458206    0.00063385368
    938000   0.049689408   -0.1598715      0.035372526   -0.049969671    0.00069163214
    939000   0.049940543   -0.15980535     0.034807589   -0.05009178     0.00060462962
    940000   0.049944243   -0.16014086     0.035165117   -0.050064214    0.00039034832
    941000   0.050127653   -0.16068807     0.035219703   -0.050281733    0.00035441817
    942000   0.049820646   -0.16049085     0.034732372   -0.051032333    0.00028427748
    943000   0.049680472   -0.16079532     0.035071049   -0.051208371    0.00036593889
    944000   0.049831594   -0.16085664     0.034841119   -0.051272956    0.0003362857 
    945000   0.050060326   -0.16090791     0.035007649   -0.050814612    0.00044453238
    946000   0.050115952   -0.16122343     0.034875784   -0.051178568    0.00032299402
    947000   0.049308755   -0.16104012     0.035263127   -0.051818636    0.0003709465 
    948000   0.049758261   -0.16124219     0.034455378   -0.052154233    0.00077725803
    949000   0.049471557   -0.16157983     0.034889368   -0.052487919    0.00064150694
    950000   0.0501422     -0.16192482     0.034338515   -0.052377859    0.00052955102
    951000   0.049662654   -0.16164984     0.035151071   -0.052009598    0.00036724928
    952000   0.050460595   -0.16194411     0.035035617   -0.051222488    0.00046687018
    953000   0.050217761   -0.16193946     0.034626895   -0.051990785    0.00038076711
    954000   0.050286118   -0.16234186     0.034692819   -0.05222473     0.00090771737
    955000   0.049787518   -0.16224231     0.03466491    -0.052900939    2.1941503e-05
    956000   0.050459663   -0.16255048     0.034668914   -0.052196955    0.00029090004
    957000   0.050006791   -0.16276051     0.034675791   -0.053079371    0.00029963343
    958000   0.050140352   -0.1629542      0.034914947   -0.052833579    0.00068052464
    959000   0.050303147   -0.16337573     0.035100292   -0.052825581    0.00053446624
    960000   0.050073862   -0.1635343      0.034501749   -0.0539266      0.00020927443
    961000   0.049845555   -0.16328543     0.034884739   -0.053637182    0.00035288982
    962000   0.050278295   -0.16347642     0.035203355   -0.052860486    0.00034767669
    963000   0.050049948   -0.16352807     0.035306649   -0.053151342    0.00096465713
    964000   0.050179658   -0.16369395     0.034614656   -0.053814664    0.0004279511 
    965000   0.049730623   -0.16373795     0.035540079   -0.053606745    0.00020045539
    966000   0.050268913   -0.16379065     0.034644357   -0.05374779     0.00070339784
    967000   0.049832074   -0.16372269     0.034977306   -0.054002093    0.0003601661 
    968000   0.051011368   -0.16387253     0.03482331    -0.052537104    0.00088269255
    969000   0.04934955    -0.16391605     0.034455361   -0.055441142    0.00067561464
    970000   0.049525684   -0.16399026     0.034516854   -0.055189677    0.00045794067
    971000   0.050133179   -0.16408118     0.034440308   -0.054445952    0.00056800848
    972000   0.04949834    -0.16423925     0.034826225   -0.055170308    0.00042402604
    973000   0.049538688   -0.16450887     0.034968203   -0.055237431    0.00015207867
    974000   0.050412235   -0.16468142     0.035151472   -0.053916475    0.00066164927
    975000   0.050488146   -0.16438662     0.034300529   -0.054358755    0.00065326824
    976000   0.049619218   -0.16504391     0.035044183   -0.055575703    0.00034754726
    977000   0.049806964   -0.16520633     0.03514476    -0.055355948    0.00051298743
    978000   0.050326456   -0.16551892     0.035315982   -0.054718121    0.00031869968
    979000   0.050064916   -0.16560816     0.035288482   -0.05522715     0.00030311086
    980000   0.050096658   -0.16575278     0.034956515   -0.055656122    0.00043314408
    981000   0.05005594    -0.16566459     0.034626826   -0.055958699    0.00035955833
    982000   0.050556494   -0.16606397     0.03482408    -0.055410043    0.00061894548
    983000   0.050137049   -0.16589651     0.035623023   -0.055072764    0.00026891426
    984000   0.049589564   -0.16584349     0.034317128   -0.057146814    0.0004389457 
    985000   0.050542412   -0.16598107     0.03501615    -0.055156197    0.00053664019
    986000   0.050018986   -0.16640588     0.034292987   -0.057089251    0.00065746201
    987000   0.049411728   -0.16675094     0.034998577   -0.057639557    0.0001816399 
    988000   0.049642364   -0.16662885     0.034703621   -0.057466488    0.00080731413
    989000   0.049352504   -0.16644438     0.034351465   -0.058068939    0.00062730357
    990000   0.049921416   -0.16667103     0.033995839   -0.057797895    0.00075651612
    991000   0.048981318   -0.16670541     0.034403049   -0.058835124    0.00032578823
    992000   0.050205561   -0.16669858     0.034803007   -0.056592087    0.0008537658 
    993000   0.050390496   -0.16665331     0.0351813     -0.055891145    0.00030682755
    994000   0.049807924   -0.16695584     0.035236436   -0.057012336    0.00034704482
    995000   0.050063752   -0.16724489     0.034744202   -0.057409909    0.00061088147
    996000   0.0502547     -0.16735148     0.035012957   -0.056961335    0.00019854263
    997000   0.050099542   -0.16758591     0.034814117   -0.057627329    0.00051664   
    998000   0.049532731   -0.1675621      0.034993048   -0.058274753    0.00069762353
    999000   0.049972805   -0.16758453     0.03440815    -0.058222008    0.00058395888
   1000000   0.050224571   -0.16783768     0.034911419   -0.057594269    0.00048428711
   1001000   0.050489581   -0.16775102     0.034974728   -0.057046805    0.00047470015
   1002000   0.049421188   -0.16786668     0.035160387   -0.058579289    0.00051734029
   1003000   0.049545653   -0.16812885     0.034813127   -0.059002034    0.00040058906
   1004000   0.049849601   -0.16840537     0.034940465   -0.058695324    0.00036309202
   1005000   0.049941627   -0.1683395      0.034933919   -0.05849797     0.0005385672 
   1006000   0.05002528    -0.16843594     0.035022862   -0.05838        9.5877965e-05
   1007000   0.050338284   -0.168217       0.034638198   -0.058076244    0.0005725183 
   1008000   0.049851599   -0.16819672     0.035125403   -0.058298739    0.00091495498
   1009000   0.050130985   -0.16853782     0.035313335   -0.058032858    0.00022715443
   1010000   0.049780034   -0.16879643     0.034713242   -0.059417956    0.00071389149
   1011000   0.049475246   -0.16888699     0.034597917   -0.060080992   -4.5183687e-05
   1012000   0.049840495   -0.16896592     0.03508134    -0.059128657    0.00074224198
   1013000   0.05020004    -0.16906311     0.034663042   -0.059104864    0.00015802642
   1014000   0.049673544   -0.16917957     0.035486484   -0.059187583    0.00083598204
   1015000   0.050146395   -0.16924343     0.034995178   -0.059033515    0.00030368312
   1016000   0.049857172   -0.16898248     0.03547749    -0.058724053    0.00052790724
   1017000   0.050021037   -0.16942652     0.035068675   -0.059331128    0.001063761  
   1018000   0.049864386   -0.16936477     0.035552893   -0.059020126    0.0004046562 
   1019000   0.050155453   -0.16956297     0.03473377    -0.059600871    0.00026493297
   1020000   0.049955156   -0.16956952     0.034914161   -0.059727456    0.00045360917
   1021000   0.049515135   -0.1696379      0.034492176   -0.060877815    0.0004989872 
   1022000   0.049874651   -0.17009525     0.034661157   -0.06062694     0.00019767523
   1023000   0.050248519   -0.17011512     0.034753003   -0.059994199    0.00062533702
   1024000   0.04986274    -0.17024499     0.034441324   -0.06101438     0.00043247129
   1025000   0.049520556   -0.17009869     0.035214481   -0.060608166    0.00035627071
   1026000   0.049663265   -0.16999102     0.034593996   -0.060906932    0.00011861852
   1027000   0.049981653   -0.17019088     0.034860767   -0.060362467    0.00048663445
   1028000   0.050300808   -0.17041983     0.034876139   -0.060097342    0.00035709586
   1029000   0.050142535   -0.17062144     0.034347212   -0.061065278    0.00066855294
   1030000   0.049499594   -0.17068196     0.034734223   -0.061703141    0.00037819427
   1031000   0.049677686   -0.17042028     0.034750874   -0.061157683    0.00036391892
   1032000   0.049788256   -0.17052712     0.035184679   -0.06066487     0.00014097462
   1033000   0.05001692    -0.17066797     0.034899115   -0.060748312    0.00064372427
   1034000   0.050091096   -0.17096914     0.034547081   -0.061290266    0.00039864862
   1035000   0.050259579   -0.17097314     0.034569534   -0.061019096    0.00062693101
   1036000   0.049748473   -0.17055161     0.034786734   -0.061146978    0.00024223655
   1037000   0.049876165   -0.17126015     0.035236937   -0.061213797    0.00035469229
   1038000   0.050219469   -0.17103604     0.034571206   -0.061140495    0.00082577331
   1039000   0.05004182    -0.17108897     0.035049141   -0.060981945    0.00022875412
   1040000   0.049926347   -0.17123993     0.035145559   -0.061209683    0.00027994172
   1041000   0.050178096   -0.17138463     0.035119327   -0.061003012    0.00069008261
   1042000   0.050941864   -0.17126803     0.035200295   -0.059659867    0.00037751916
   1043000   0.049895437   -0.17144458     0.03497221    -0.061634039    0.00047478578
   1044000   0.050361895   -0.17159134     0.035490117   -0.060563258    0.00069898721
   1045000   0.050428713   -0.17183573     0.034673076   -0.061524461    0.00048997128
   1046000   0.050192713   -0.17177354     0.034719439   -0.061769887    0.00067610495
   1047000   0.050193495   -0.17177881     0.035502646   -0.060990781    0.00014493321
   1048000   0.049910036   -0.17193202     0.034522518   -0.062549282    0.00044549762
   1049000   0.049891925   -0.17173724     0.034889224   -0.062014952    0.00043545695
   1050000   0.049985286   -0.17216472     0.035653258   -0.061538369    0.00040460886
   1051000   0.049680156   -0.1723396      0.035580943   -0.06224323     7.0158342e-05
   1052000   0.050324234   -0.1722069      0.034550075   -0.062175339    0.00033541647
   1053000   0.049954399   -0.17183098     0.034909233   -0.061994979    0.00062870954
   1054000   0.050491414   -0.17217176     0.035110006   -0.061329521    0.00015720379
   1055000   0.049990071   -0.17247107     0.034790778   -0.062700024    0.00062877314
   1056000   0.049911904   -0.17244564     0.03532069    -0.062261927    6.9485262e-06
   1057000   0.050586535   -0.17242653     0.035221055   -0.061330572    0.00060062215
   1058000   0.050655243   -0.17257039     0.035244508   -0.061347914    1.3509051e-05
   1059000   0.050181114   -0.17253911     0.03488605    -0.062386244    0.00052066051
   1060000   0.049753566   -0.17276005     0.034940217   -0.0631943      0.00061695379
   1061000   0.04975672    -0.17275494     0.034730458   -0.063394218    8.2799886e-05
   1062000   0.049990002   -0.17295121     0.034877055   -0.063093991    9.7978871e-05
   1063000   0.049731907   -0.1732455      0.034808969   -0.063843487    0.00065225422
   1064000   0.05015663    -0.17295539     0.034734032   -0.062991268    0.00038027718
   1065000   0.049462884   -0.17292706     0.035335549   -0.063401972   -4.442676e-05 
   1066000   0.049938295   -0.17293201     0.034728331   -0.063301073    0.001221318  
   1067000   0.049838352   -0.17312933     0.035068318   -0.063308303    0.00036257149
   1068000   0.049945155   -0.17309312     0.035290053   -0.062890169    0.00045179606
   1069000   0.049372324   -0.17333181     0.034897323   -0.064380775    0.00047759234
   1070000   0.049977184   -0.17352656     0.034952523   -0.063613097    0.00048800119
   1071000   0.049869333   -0.17347766     0.035062985   -0.063615502    0.00041691471
   1072000   0.049999972   -0.17382689     0.035028076   -0.063803697    0.00044513919
   1073000   0.050352125   -0.17378278     0.03484431    -0.063415158    0.00013675166
   1074000   0.050564896   -0.17410493     0.035290165   -0.062972311    0.00013788026
   1075000   0.04990323    -0.17399828     0.034963917   -0.06418435     0.00065421015
   1076000   0.050570831   -0.1744956      0.034602026   -0.064042218    0.00052207655
   1077000   0.049806472   -0.1740786      0.03571648    -0.063657232    0.00032404025
   1078000   0.050160929   -0.17420934     0.035409582   -0.063563218    0.00021459339
   1079000   0.050530116   -0.17474682     0.035386306   -0.063570233    0.00037853691
   1080000   0.049888752   -0.17442391     0.034630583   -0.064965025    0.00027617955
   1081000   0.050002169   -0.17469707     0.034832164   -0.064866491    0.00080355444
   1082000   0.050041646   -0.17466528     0.034560734   -0.065046917    0.00062036503
   1083000   0.05022407    -0.17504072     0.035144681   -0.064564793   -0.0001050364 
   1084000   0.04988516    -0.17477546     0.034713459   -0.065239088    0.00032372533
   1085000   0.050078254   -0.17492692     0.034705907   -0.065108483    0.00032707671
   1086000   0.050331595   -0.17499485     0.035321042   -0.064181289    0.00029216231
   1087000   0.050151649   -0.17509021     0.035213949   -0.06465364     0.00043938608
   1088000   0.050294871   -0.17513612     0.034972449   -0.064726229    0.00075084801
   1089000   0.050438804   -0.17574278     0.035195314   -0.064894142    0.0002336833 
   1090000   0.049655723   -0.17520621     0.034728734   -0.065998701    0.00046098177
   1091000   0.050177065   -0.17544809     0.034475866   -0.065711481    0.00053539256
   1092000   0.049982115   -0.17542006     0.03481803    -0.065633695    0.00077243226
   1093000   0.049957985   -0.17541214     0.034773239   -0.06570676     0.00074433714
   1094000   0.049809812   -0.17544023     0.034411821   -0.066318509    0.00053365994
   1095000   0.05007076    -0.17535405     0.034061437   -0.06619132     0.000322366  
   1096000   0.049659997   -0.1758828      0.034373342   -0.067024272    0.00014959449
   1097000   0.049719582   -0.17600356     0.034785992   -0.066643003    0.000118653  
   1098000   0.050100747   -0.17584855     0.034922512   -0.06577977     0.000504714  
   1099000   0.049788793   -0.17646127     0.034794394   -0.066988501    0.00037682056
   1100000   0.049757658   -0.17607469     0.035185305   -0.066257712    0.00032914691
   1101000   0.05029033    -0.17618919     0.034546959   -0.066211607    0.00028727987
   1102000   0.050095757   -0.17646305     0.035017265   -0.066307001    0.00036334996
   1103000   0.049742473   -0.1760919      0.034661127   -0.066821882    0.00025674517
   1104000   0.049978529   -0.17634075     0.035182031   -0.066195759    0.00051380675
   1105000   0.049729826   -0.17650997     0.035632079   -0.066287959    0.00051050156
   1106000   0.049976472   -0.17644962     0.035016529   -0.066473223    0.00065563804
   1107000   0.049979999   -0.17656419     0.035313049   -0.066285976    0.00040586327
   1108000   0.049711829   -0.17665742     0.035317163   -0.06677732     0.00054450708
   1109000   0.049857009   -0.17656393     0.035045433   -0.066737807    0.00043002915
   1110000   0.049937948   -0.17665677     0.035015701   -0.066738983    0.00031792866
   1111000   0.050180283   -0.17681355     0.035404667   -0.066143319    0.00049405057
   1112000   0.050052604   -0.17708573     0.035735911   -0.066275759    0.00024495382
   1113000   0.050300621   -0.17691973     0.034933882   -0.066539786    0.00048019379
   1114000   0.049751143   -0.17667033     0.034671707   -0.067376719    0.0004519589 
   1115000   0.050021515   -0.17694275     0.034682998   -0.067232321    0.00023552791
   1116000   0.050298499   -0.1771519      0.034956016   -0.066753008    0.00036499685
   1117000   0.050039693   -0.17727813     0.035294941   -0.066928495    0.00051483449
   1118000   0.049910656   -0.17721873     0.034955118   -0.06740246     0.00036592548
   1119000   0.049560923   -0.17755148     0.035095605   -0.068119284    0.00031267395
   1120000   0.050176296   -0.17772684     0.035061246   -0.067406003    0.00069521043
   1121000   0.050314679   -0.17782432     0.035435736   -0.066921432    0.00096947003
   1122000   0.05009485    -0.17770534     0.035241523   -0.06732639    -0.00021448324
   1123000   0.050389096   -0.17777688     0.035250764   -0.066947344    0.00078236396
   1124000   0.050852003   -0.17770612     0.034496777   -0.066936263    0.00062294919
   1125000   0.050548744   -0.17779506     0.034831478   -0.067145352    0.00021633487
   1126000   0.049936177   -0.17793988     0.034686205   -0.068354247    0.000253567  
   1127000   0.049864177   -0.177927       0.03513556    -0.067999997    0.00047686939
   1128000   0.050248322   -0.17814938     0.034877898   -0.067903866    0.00037220208
   1129000   0.049893481   -0.17835606     0.034951289   -0.068569376    0.00032353788
   1130000   0.049729437   -0.17841352     0.034531056   -0.069293119    0.00037756915
   1131000   0.050518756   -0.17855186     0.034867002   -0.067911615    0.00051905942
   1132000   0.050058189   -0.17852734     0.034641249   -0.068803654    0.00070035617
   1133000   0.050352663   -0.17867163     0.035018584   -0.068128922    0.00018224748
   1134000   0.049779335   -0.17866317     0.034849682   -0.069149299    0.00058981879
   1135000   0.049576196   -0.1785007      0.035298409   -0.068842795    0.00016562786
   1136000   0.050267081   -0.17913205     0.034876912   -0.068859376    0.00051048477
   1137000   0.050216386   -0.17908833     0.03485894    -0.06890967     0.00015819171
   1138000   0.049404542   -0.17881848     0.034981927   -0.069734518    0.00054893643
   1139000   0.049704206   -0.17924721     0.034573667   -0.070122049    0.00019460859
   1140000   0.050118094   -0.17920047     0.034893819   -0.069134364    0.00027438907
   1141000   0.04980529    -0.179408       0.034848159   -0.069856724    0.00076451909
   1142000   0.049450052   -0.17918502     0.035466105   -0.069548622    0.00029892688
   1143000   0.049655387   -0.17972295     0.035361122   -0.069883549    6.758646e-05 
   1144000   0.049324326   -0.17949896     0.034680473   -0.070836771    0.00077661621
   1145000   0.049252341   -0.17952804     0.034008401   -0.071645896    0.00089811527
   1146000   0.050120798   -0.17937198     0.034589647   -0.069605988    0.00016695215
   1147000   0.050237792   -0.17981445     0.035197114   -0.069265513    0.00041883199
   1148000   0.049824699   -0.18010764     0.035478939   -0.069896478    2.3033347e-05
   1149000   0.049828293   -0.18001019     0.035664295   -0.069608273    0.00043508099
   1150000   0.049933949   -0.17988244     0.035073445   -0.069912907    0.00042974731
   1151000   0.050029521   -0.18040912     0.035102261   -0.070267424    0.0001896305 
   1152000   0.049897904   -0.18022341     0.035028787   -0.070352596    0.00036075015
   1153000   0.049810544   -0.18043081     0.034348053   -0.071371766    0.00060380396
   1154000   0.04967293    -0.18031698     0.034693894   -0.071118495    0.00067878568
   1155000   0.049464739   -0.1803626      0.034595557   -0.071574721    0.00037871678
   1156000   0.049397606   -0.18049232     0.035572556   -0.07082814     0.00031623542
   1157000   0.049627886   -0.18033195     0.034758877   -0.071136043    0.00088231887
   1158000   0.050150342   -0.18057672     0.034777334   -0.070578724    0.00054694583
   1159000   0.049836454   -0.18025125     0.034546162   -0.07095523     0.00078116107
   1160000   0.050556288   -0.18050229     0.035158529   -0.069514221    0.00058311964
   1161000   0.050529986   -0.18040738     0.035431575   -0.069185716    0.00041275929
   1162000   0.051086302   -0.18047266     0.035580164   -0.068267985    0.00061491008
   1163000   0.049850553   -0.18080982     0.035886705   -0.070152112    0.00058613148
   1164000   0.050506127   -0.18092381     0.034989638   -0.070179864    0.00059567647
   1165000   0.050165379   -0.180499       0.035459216   -0.06979657     0.00033609072
   1166000   0.050233184   -0.1805381      0.035437729   -0.069755458    0.00078421645
   1167000   0.050445801   -0.18068468     0.034975772   -0.070045088    0.00057116808
   1168000   0.049774931   -0.18096133     0.035169519   -0.071134232    0.00017605507
   1169000   0.049678863   -0.18104253     0.034902534   -0.071626514    0.00075027098
   1170000   0.050223812   -0.18129109     0.035176945   -0.07078329     0.00062711651
   1171000   0.050839449   -0.18131486     0.035170931   -0.069889671    0.00054417984
   1172000   0.049936135   -0.18143519     0.035629748   -0.070906071    0.00036347885
   1173000   0.050213604   -0.18159778     0.035285857   -0.070996372    0.00022462722
   1174000   0.049557977   -0.18142335     0.035584685   -0.071506496    0.00061310348
   1175000   0.049987456   -0.18192211     0.034791563   -0.072154201    0.00029893936
   1176000   0.05017609    -0.18212889     0.034390573   -0.072479038    0.00063730814
   1177000   0.049868302   -0.18215203     0.035128317   -0.072226085    0.00042379221
   1178000   0.049885694   -0.18233877     0.035093687   -0.072421368    0.00037845684
   1179000   0.050338294   -0.18204496     0.034665377   -0.071877015    0.00072839813
   1180000   0.050007561   -0.18223088     0.035062173   -0.072162209    0.00080003637
   1181000   0.049676261   -0.18220609     0.0350829     -0.072613607    0.00038620559
   1182000   0.050212779   -0.18246276     0.035775549   -0.0713729      0.0007989096 
   1183000   0.049827767   -0.18208284     0.035114108   -0.072231907    0.00074114895
   1184000   0.050417642   -0.18210648     0.034834698   -0.071650197    0.00059256117
   1185000   0.049950635   -0.18263978     0.035262519   -0.072456138    0.00030142374
   1186000   0.050359083   -0.18270091     0.034480104   -0.072687052    0.00058901134
   1187000   0.049726383   -0.18309583     0.035120353   -0.073390711    0.00034320636
   1188000   0.049502172   -0.18289693     0.03514954    -0.073498926    0.00037927458
   1189000   0.049859641   -0.18277401     0.035378082   -0.072611287    2.5365104e-05
   1190000   0.049845684   -0.1827499      0.034787774   -0.073198423    0.00020325375
   1191000   0.050247043   -0.18268006     0.034516657   -0.072797705    0.00060186384
   1192000   0.050376632   -0.1829688      0.034694597   -0.072714135    0.00041943563
   1193000   0.050472072   -0.18258582     0.035148309   -0.071734288    0.00058267491
   1194000   0.050229805   -0.18287519     0.034440189   -0.073095154    0.00040387518
   1195000   0.049905559   -0.18236495     0.035048586   -0.072462855    0.00068823132
   1196000   0.050063612   -0.18323234     0.034804141   -0.073337623    0.00081298862
   1197000   0.050038454   -0.18304337     0.034540772   -0.073449759    0.00039694197
   1198000   0.050003917   -0.18337993     0.034971902   -0.07340699     0.00047140625
   1199000   0.050082101   -0.18337318     0.034140875   -0.074114006    0.00051219763
   1200000   0.049417326   -0.18351658     0.034894068   -0.0745013      0.00018361116
   1201000   0.049426541   -0.18391485     0.035415456   -0.074364368    0.00058930331
   1202000   0.049756322   -0.18351949     0.035486764   -0.073403057    0.0004133642 
   1203000   0.049590194   -0.18373899     0.035284052   -0.074074444    0.00016860552
   1204000   0.04987863    -0.18410876     0.034879235   -0.074416409    0.00074293796
   1205000   0.049701825   -0.18415961     0.035041819   -0.074569861    0.00024915441
   1206000   0.050103086   -0.18415494     0.03504268    -0.073962477    0.0004695927 
   1207000   0.049750543   -0.1841786      0.034693961   -0.074863638    0.0004591314 
   1208000   0.049693522   -0.18419831     0.034807387   -0.074855448    0.00014367849
   1209000   0.049472078   -0.18412133     0.035225936   -0.07469206     0.00047131965
   1210000   0.049894287   -0.18438531     0.034821205   -0.0747275      0.00056547288
   1211000   0.050311841   -0.18458443     0.034489787   -0.074631755    0.00036898673
   1212000   0.050266311   -0.18421336     0.034923027   -0.073895735    0.00075844543
   1213000   0.050072667   -0.18467806     0.035751324   -0.073822583   -6.1641704e-05
   1214000   0.049830857   -0.18444564     0.034668939   -0.075035233    0.00075695316
   1215000   0.05038902    -0.18469981     0.034601176   -0.07451998     0.00047341958
   1216000   0.049802816   -0.18474285     0.03491413    -0.075129318    0.00054463019
   1217000   0.050676986   -0.1849478      0.034679049   -0.07425818     0.00014910406
   1218000   0.049820308   -0.18496975     0.034387195   -0.075856912    0.00024723307
   1219000   0.050097625   -0.18494805     0.035006068   -0.07480039     0.00059850454
   1220000   0.050768798   -0.18509182     0.035797061   -0.073146478    0.0003650491 
   1221000   0.050482582   -0.18495341     0.034995865   -0.074238559    0.00021866397
   1222000   0.050127058   -0.18492766     0.034756131   -0.074985792    0.00041512678
   1223000   0.050192749   -0.1851258      0.034871687   -0.074969844    0.00045838451
   1224000   0.049995131   -0.18508858     0.035344537   -0.074756183    0.00017168846
   1225000   0.050159483   -0.18515082     0.035551793   -0.074364653    0.00070033836
   1226000   0.050191272   -0.18525655     0.03485923    -0.075115267    0.00069544965
   1227000   0.050210054   -0.18531503     0.03479625    -0.075208555    0.00042261998
   1228000   0.050125324   -0.18523994     0.035592778   -0.074464023    0.0003733557 
   1229000   0.049815139   -0.18527765     0.035298606   -0.075261151    0.00061508072
   1230000   0.050446455   -0.18519871     0.034953806   -0.074580106    0.00039142381
   1231000   0.049912088   -0.18493354     0.035054671   -0.075015565    0.00020906113
   1232000   0.049395325   -0.1852789      0.034870484   -0.076320211    0.0004887091 
   1233000   0.050154207   -0.18535149     0.034924376   -0.075200655    0.00067634288
   1234000   0.050327181   -0.18521028     0.034905233   -0.074819148    0.00066589751
   1235000   0.049757166   -0.18540357     0.034842016   -0.075930616    0.00029006862
   1236000   0.049410818   -0.18561652     0.034872571   -0.0766325      0.00022380062
   1237000   0.050028473   -0.18577164     0.034637909   -0.076095867    0.00031872136
   1238000   0.049778087   -0.1856882      0.035073503   -0.07595238     0.00037025719
   1239000   0.049733009   -0.18612558     0.035033641   -0.076497239    8.1624777e-05
   1240000   0.049541724   -0.18630276     0.03481364    -0.07718133     0.00032844153
   1241000   0.049604393   -0.1858757      0.035047792   -0.076426119    0.00056259319
   1242000   0.049642092   -0.1863318      0.03492791    -0.076945554    0.00050593781
   1243000   0.049723244   -0.1864042      0.034216162   -0.077607984    0.00030376033
   1244000   0.05028885    -0.18657139     0.034828188   -0.07631479     0.00022935511
   1245000   0.050610956   -0.18691012     0.035258259   -0.075740321    0.00038364698
   1246000   0.050066778   -0.18678737     0.034963264   -0.076728785    0.00050448424
   1247000   0.050251976   -0.18690989     0.035120561   -0.076416227    0.00025399879
   1248000   0.050360586   -0.18706009     0.035158129   -0.076365954    0.00023342248
   1249000   0.050228187   -0.18676012     0.035424956   -0.075997749    0.00041882357
   1250000   0.049919319   -0.18698108     0.0346427     -0.07746423     0.0007025103 
   1251000   0.05044955    -0.18727632     0.034951026   -0.076655852    0.00048645261
   1252000   0.050114962   -0.18729988     0.034975498   -0.07715679     0.00021878494
   1253000   0.049936356   -0.18753784     0.03439854    -0.078239594    0.00061951569
   1254000   0.050233661   -0.18729686     0.034741624   -0.07720961     0.00077476738
   1255000   0.050102415   -0.18750443     0.03495003    -0.077405631    0.00017495695
   1256000   0.05007885    -0.18788747     0.034518423   -0.078255617    0.00052692846
   1257000   0.050792174   -0.18787387     0.034696856   -0.076993673    0.00081363852
   1258000   0.050614423   -0.18789334     0.035313967   -0.076662638    4.9804842e-05
   1259000   0.050847114   -0.1877412      0.034948133   -0.076527317    0.00053835467
   1260000   0.05003556    -0.18841825     0.035307701   -0.078062046    0.00016999887
   1261000   0.05028321    -0.18834337     0.035533889   -0.07738953     0.0004103673 
   1262000   0.049900984   -0.18829155     0.035790198   -0.077654701    0.00046918548
   1263000   0.049624747   -0.18835315     0.035294845   -0.078625986    0.00050073077
   1264000   0.049970321   -0.18793623     0.035217567   -0.077768019    0.00040215399
   1265000   0.05027259    -0.1884948      0.034737889   -0.078352893    0.00013420695
   1266000   0.050898054   -0.18841703     0.035335317   -0.076739551    0.00034840758
   1267000   0.050434111   -0.18869425     0.03541838    -0.077629589    3.3007659e-05
   1268000   0.04971202    -0.18889332     0.035225329   -0.079104773    0.00060416292
   1269000   0.050461191   -0.18876433     0.035204903   -0.077872527    0.00013309241
   1270000   0.050251778   -0.18898935     0.035111112   -0.078505436    0.00045644621
   1271000   0.050661861   -0.18889013     0.034613362   -0.078288878    0.00039741701
   1272000   0.05055072    -0.18875977     0.034605691   -0.078332893    0.00043503598
   1273000   0.050085014   -0.18879904     0.03518435    -0.078492013    0.00013830359
   1274000   0.049844132   -0.18897202     0.035188677   -0.079021964   -2.5533264e-05
   1275000   0.049941001   -0.18888025     0.035291243   -0.078682339    0.00061052766
   1276000   0.049658847   -0.1888504      0.035298862   -0.079068073    0.00051565138
   1277000   0.050222925   -0.18907365     0.034903904   -0.078840216    0.00079032592
   1278000   0.050397632   -0.18965043     0.03551204    -0.07854682     0.00064395986
   1279000   0.049961048   -0.18945811     0.035096404   -0.079424972    0.00040633056
   1280000   0.049827989   -0.18933366     0.034785664   -0.079810838    0.00024790283
   1281000   0.050285538   -0.18958155     0.034612227   -0.079545883    0.00031384855
   1282000   0.050426762   -0.18940949     0.034699126   -0.0790751      0.00041695538
   1283000   0.05049711    -0.18939917     0.035047447   -0.078610942    0.00070531629
   1284000   0.05014013    -0.18945382     0.035367771   -0.078880709    0.00037959951
   1285000   0.049878      -0.1898407      0.035759713   -0.079268818    0.00041797487
   1286000   0.05014516    -0.18966813     0.035023368   -0.079431876    0.00023577258
   1287000   0.049991086   -0.18993993     0.035457208   -0.079500928    0.00074259883
   1288000   0.049439438   -0.18985193     0.035566604   -0.080130956    0.00039074637
   1289000   0.049954945   -0.19017055     0.035211032   -0.080031937    0.00025370037
   1290000   0.049957982   -0.18985082     0.03546098    -0.079457703    7.338912e-05 
   1291000   0.049745433   -0.19005281     0.034827883   -0.080611593    0.00033173989
   1292000   0.05037221    -0.18992968     0.034196052   -0.080180189   -5.9025215e-05
   1293000   0.049720825   -0.18987147     0.034904936   -0.080390104    0.00075935055
   1294000   0.049730259   -0.18994395     0.034812849   -0.080540526    0.00036753188
   1295000   0.049671209   -0.18979868     0.035764397   -0.079532273    0.00060336993
   1296000   0.050404092   -0.19012576     0.035268176   -0.079256325    0.00040386579
   1297000   0.050196538   -0.19004171     0.035148773   -0.079602985    0.00032762371
   1298000   0.049988593   -0.19000818     0.035060893   -0.079969237    0.00055508559
   1299000   0.049874455   -0.19078693     0.035080274   -0.080899806    0.00022038372
   1300000   0.049405895   -0.19044512     0.035217266   -0.081123796    0.00045454231
   1301000   0.049702008   -0.19055672     0.035268202   -0.080740316    0.00063131304
   1302000   0.05033599    -0.19077719     0.034573043   -0.080705031    0.00032840185
   1303000   0.050003165   -0.19088297     0.034870324   -0.081012741    0.00028500418
   1304000   0.049765018   -0.19091478     0.035405285   -0.080866786   -7.2892212e-05
   1305000   0.04967833    -0.19062999     0.035399383   -0.080717922    0.0004928579 
   1306000   0.050054718   -0.19064948     0.035034565   -0.080537678    0.00070520353
   1307000   0.0505579     -0.19064013     0.035336502   -0.079471668    3.8449752e-05
   1308000   0.049975598   -0.1908469      0.034842434   -0.081045903    0.00042596598
   1309000   0.049572944   -0.1910696      0.035351769   -0.081363215    0.00053207837
   1310000   0.049883203   -0.19118418     0.035301692   -0.081062512    0.00023528425
   1311000   0.050058332   -0.19122477     0.035387557   -0.080754557    0.00032142419
   1312000   0.049700645   -0.19130875     0.035248235   -0.081514362    0.00029845146
   1313000   0.050236351   -0.19104352     0.03445217    -0.081241685    0.00065606984
   1314000   0.050252175   -0.19136852     0.034823346   -0.081171777    0.00043327351
   1315000   0.049971026   -0.19136592     0.035563985   -0.080850233    0.00032580507
   1316000   0.049952281   -0.19136451     0.035070948   -0.081369976    0.00026922742
   1317000   0.049730078   -0.19153219     0.034949388   -0.081992496    0.00063428283
   1318000   0.049387115   -0.19133951     0.035005592   -0.082258022    0.00043460489
   1319000   0.049838452   -0.19153736     0.035275194   -0.081509313    0.00071754953
   1320000   0.050000055   -0.1917821      0.034520951   -0.082265905    0.00046493944
   1321000   0.049867563   -0.1920362      0.034975283   -0.082264401    0.00026768386
   1322000   0.05008822    -0.19191941     0.035109169   -0.081682759    0.00062734251
   1323000   0.050159189   -0.19186034     0.035164413   -0.081461995    0.00018024056
   1324000   0.049505317   -0.19213444     0.034687018   -0.083194233    0.00024492118
   1325000   0.049947447   -0.19170547     0.035313393   -0.081475736    0.00048577409
   1326000   0.049903107   -0.19174342     0.035176578   -0.081717014    9.1577512e-05
   1327000   0.050174339   -0.19205445     0.035559838   -0.081237961    0.0004975648 
   1328000   0.049499266   -0.19235159     0.034916358   -0.083191122    0.00020176595
   1329000   0.04972132    -0.19242968     0.03480673    -0.083045778    0.00086234662
   1330000   0.049988284   -0.19249704     0.035223728   -0.082295725    0.00039278058
   1331000   0.049885149   -0.19253433     0.035058734   -0.082652697    0.00016321331
   1332000   0.050195626   -0.19257514     0.03523378    -0.082052779    0.00069135808
   1333000   0.050450108   -0.19265236     0.035260071   -0.081722006    0.00041224397
   1334000   0.050263062   -0.19307991     0.035017938   -0.082672244    0.00028746458
   1335000   0.050207089   -0.19299394     0.034490644   -0.083197522    0.00078832102
   1336000   0.049649514   -0.19304401     0.03511949    -0.083455056    0.00024486242
   1337000   0.050016903   -0.19333088     0.034717577   -0.08359279     0.00042411986
   1338000   0.04975815    -0.19338118     0.035162075   -0.083586693    0.00036006588
   1339000   0.049877863   -0.19340587     0.035149595   -0.083444307    0.00062125382
   1340000   0.049660854   -0.19361601     0.035666021   -0.083463516    0.00017176932
   1341000   0.049961215   -0.19360559     0.034943974   -0.083724624    7.1871203e-05
   1342000   0.049787009   -0.19353577     0.035073592   -0.083786484    0.00015515916
   1343000   0.050039432   -0.19395054     0.035582192   -0.08331404     0.00035452274
   1344000   0.050464179   -0.19343092     0.034731095   -0.083008444    0.00058939235
   1345000   0.050561896   -0.19368233     0.035181175   -0.082663207    0.00015801096
   1346000   0.050156272   -0.19382029     0.035444931   -0.083145801    0.00051861962
   1347000   0.049765408   -0.19396348     0.0348061     -0.084514085    0.00081673611
   1348000   0.049746446   -0.19419752     0.034716956   -0.084865709    0.00016930088
   1349000   0.0498713     -0.19453144     0.034923833   -0.084805485    0.00031612083
   1350000   0.049880807   -0.19429989     0.034957113   -0.084526394    0.00013622606
   1351000   0.050297542   -0.19426231     0.034881273   -0.08393959     0.00043798335
   1352000   0.049839446   -0.19445609     0.034994025   -0.084707717    0.00056800199
   1353000   0.050491781   -0.19481286     0.034402936   -0.084677136    0.00022935626
   1354000   0.050102312   -0.19464226     0.035100917   -0.084392725    0.00043860323
   1355000   0.050379968   -0.19482282     0.034711724   -0.084546022    0.00039712825
   1356000   0.050678392   -0.19482214     0.035236985   -0.08357247     0.00040638644
   1357000   0.050277263   -0.19485424     0.035226516   -0.084216693    0.0003086454 
   1358000   0.049771754   -0.19508124     0.035247774   -0.085180648    0.00035512841
   1359000   0.049771142   -0.19513922     0.035489605   -0.084997718    2.2807471e-05
   1360000   0.050402007   -0.19502904     0.034722753   -0.084708157    0.00061610718
   1361000   0.049918322   -0.19507871     0.035218151   -0.084987905    0.00013068226
   1362000   0.049964721   -0.19519547     0.03546964    -0.08478358     0.00068418708
   1363000   0.049521409   -0.19561251     0.034931824   -0.086403364    0.00014405192
   1364000   0.049239671   -0.19549038     0.035246393   -0.08638925     0.00067832843
   1365000   0.05020402    -0.19555225     0.035438535   -0.08481254     0.00025348934
   1366000   0.050164493   -0.19557092     0.034967656   -0.085361379    0.00036320119
   1367000   0.050222957   -0.1955738      0.034995805   -0.085248421    0.0002449925 
   1368000   0.050062888   -0.19598642     0.035408794   -0.085488143    0.00019531566
   1369000   0.050497206   -0.19591075     0.035463527   -0.0847063      0.00012442422
   1370000   0.05006096    -0.19604377     0.035095708   -0.085861469   -0.00011228264
   1371000   0.049494432   -0.19603083     0.034849666   -0.08694431     0.00068931174
   1372000   0.050550005   -0.19613948     0.034998292   -0.085321071    0.00033436395
   1373000   0.050332292   -0.19649516     0.035179997   -0.085821599   -1.5228168e-05
   1374000   0.049894494   -0.19628659     0.035443535   -0.086006145    0.00019061106
   1375000   0.050297324   -0.19604498     0.035212967   -0.08539089     0.00037561331
   1376000   0.050066889   -0.19634126     0.035117388   -0.086128383    0.00019397625
   1377000   0.049390998   -0.1962148      0.034685882   -0.087447204    0.00033661002
   1378000   0.049944136   -0.1964768      0.035019752   -0.086545679    0.00044670132
   1379000   0.049904851   -0.19653792     0.03490558    -0.086779895    0.00045280402
   1380000   0.049569024   -0.19663713     0.034952353   -0.087336042    0.00054832143
   1381000   0.050336652   -0.19685772     0.034318951   -0.087038662    0.00045468561
   1382000   0.049821043   -0.1968774      0.034526625   -0.087624032   -0.00017814225
   1383000   0.049844555   -0.19700087     0.035270304   -0.086968561    0.00055480181
   1384000   0.050454241   -0.19706752     0.035244611   -0.086146434    0.00046300221
   1385000   0.05021394    -0.19702999     0.035637426   -0.086076516    0.00035460953
   1386000   0.050430459   -0.19718351     0.035850916   -0.08569179     0.00026230789
   1387000   0.050114008   -0.19736317     0.03494601    -0.087250998    0.00037752393
   1388000   0.049788815   -0.19742633     0.034684889   -0.088063036    0.0005143942 
   1389000   0.049509605   -0.19732227     0.034766951   -0.088295698    0.00037788889
   1390000   0.05028261    -0.19702678     0.035167103   -0.086440625    0.00045820475
   1391000   0.050581761   -0.19741989     0.035305111   -0.086247031    0.00040664626
   1392000   0.050661218   -0.19785545     0.035503823   -0.086364698   -0.00023227083
   1393000   0.050299988   -0.1980355      0.035487564   -0.087102823    0.00015532264
   1394000   0.05016579    -0.19789106     0.035208953   -0.087438278    0.00038826055
   1395000   0.050528119   -0.19816839     0.034973539   -0.08740756     0.00028406342
   1396000   0.049904263   -0.19808382     0.035296731   -0.087935521    0.00053150585
   1397000   0.050237797   -0.19823441     0.035006798   -0.087875783    1.3380442e-06
   1398000   0.049475531   -0.19765302     0.035085474   -0.08835904     0.00039136095
   1399000   0.050405057   -0.19820192     0.034903554   -0.08769566     0.00025054796
   1400000   0.05001935    -0.19794693     0.035050392   -0.08787235     0.00036383919
   1401000   0.050266638   -0.1984475      0.035035434   -0.088016978    0.00041169195
   1402000   0.049629807   -0.19857569     0.035312192   -0.088823591    0.00040031974
   1403000   0.049308655   -0.19879656     0.034967442   -0.089870903    0.00020118149
   1404000   0.04970205    -0.19879955     0.034679991   -0.089571291    0.00021163163
   1405000   0.049831376   -0.19873756     0.035414167   -0.088581154    0.00016723586
   1406000   0.050046894   -0.19869028     0.035450798   -0.088173981    0.00041700819
   1407000   0.05045102    -0.19897153     0.03506735    -0.088232529   -0.00014344784
   1408000   0.050019403   -0.19879716     0.03506886    -0.088704036    0.00056976101
   1409000   0.05044239    -0.19855931     0.03456241    -0.088338198    0.00034061074
   1410000   0.050449212   -0.19886735     0.034356846   -0.088841571    0.00051559121
   1411000   0.049668105   -0.19863314     0.035045245   -0.089090544    0.00029528486
   1412000   0.050064048   -0.19879641     0.034995187   -0.088709993    0.00033090258
   1413000   0.049769356   -0.19901986     0.034795639   -0.089575006    0.00037836903
   1414000   0.04976474    -0.19887023     0.03514215    -0.089085791    0.00043906009
   1415000   0.050410416   -0.19908869     0.03469586    -0.088782089    0.00028676771
   1416000   0.049966781   -0.19903398     0.035463207   -0.088625438    0.00036522114
   1417000   0.050118668   -0.19913274     0.034590316   -0.089369268    0.00033776312
   1418000   0.049772305   -0.19945945     0.035511171   -0.089294638    0.00032429142
   1419000   0.050153347   -0.19897619     0.035267008   -0.088484013    0.00038826204
   1420000   0.050095794   -0.1990068      0.035343632   -0.088524324    0.00034123551
   1421000   0.050106904   -0.19916528     0.035196373   -0.088813404    0.00027214897
   1422000   0.050353066   -0.19963958     0.035548177   -0.088566681    0.00069560152
   1423000   0.050104031   -0.19974528     0.034983699   -0.089610381    0.00036893312
   1424000   0.050431869   -0.19942831     0.035142715   -0.088642672    0.00025365507
   1425000   0.049679846   -0.19949749     0.034913886   -0.090068643    0.00056026252
   1426000   0.0500167     -0.19960292     0.034642635   -0.089940075    0.00018687691
   1427000   0.049882388   -0.19955555     0.034899851   -0.089836943    0.00078259509
   1428000   0.049773185   -0.19962761     0.035637205   -0.089335442    0.00037083458
   1429000   0.049699831   -0.19976406     0.035215443   -0.090003682    0.0003786807 
   1430000   0.049433726   -0.19975947     0.034829546   -0.090784121    0.00056124775
   1431000   0.050003146   -0.20013285     0.034985386   -0.090147586    0.00014320816
   1432000   0.050149455   -0.19999552     0.0350091     -0.089767088    0.00029048334
   1433000   0.050369762   -0.20024009     0.035368175   -0.089322143    0.00025006313
   1434000   0.050199832   -0.2001345      0.035067561   -0.089772047    0.0003792597 
   1435000   0.04985917    -0.20029591     0.034847688   -0.090664292    0.00027277421
   1436000   0.049742982   -0.20052147     0.035289404   -0.090622409    0.00030472054
   1437000   0.050001569   -0.2006555      0.035363788   -0.090294196    0.00067144101
   1438000   0.050673085   -0.20034055     0.035143618   -0.089192205    0.00033368246
   1439000   0.050327351   -0.20044451     0.035066684   -0.089891665    0.00042270878
   1440000   0.05012592    -0.20057816     0.035206183   -0.090187951    0.00037269289
   1441000   0.049967962   -0.20079628     0.03509135    -0.090757818    0.00029032708
   1442000   0.049655177   -0.20026611     0.035177623   -0.090610522    0.0002340056 
   1443000   0.050752788   -0.20062369     0.034753721   -0.089745703    0.0004791036 
   1444000   0.050302735   -0.20073107     0.034751286   -0.090530553    9.8934984e-05
   1445000   0.050247832   -0.20064852     0.03571507    -0.089566568    0.00029950814
   1446000   0.049979712   -0.20093685     0.034885208   -0.091086907    0.00025539596
   1447000   0.049849041   -0.20092343     0.035135068   -0.091019621    0.00017133502
   1448000   0.050319118   -0.20119847     0.03519463    -0.090530028    0.0004015756 
   1449000   0.049763817   -0.20151933     0.034454628   -0.092423794    0.00045703259
   1450000   0.05016751    -0.20136913     0.034690654   -0.091432063    0.00061569028
   1451000   0.050102461   -0.20110277     0.035646216   -0.090307715    2.453965e-05 
   1452000   0.050491179   -0.2014383      0.035313052   -0.090393366    3.9413188e-05
   1453000   0.049915368   -0.20147405     0.034867528   -0.091738297    0.00056313777
   1454000   0.050337785   -0.20140027     0.035020282   -0.090878183    0.00014327859
   1455000   0.050462656   -0.20159421     0.035346019   -0.090559089    0.00060670374
   1456000   0.050257716   -0.20193804     0.034911964   -0.09164437     0.00028678889
   1457000   0.049663856   -0.20169249     0.03436313    -0.092838379    0.00016282641
   1458000   0.049689769   -0.20205205     0.034993099   -0.092529105    0.00057210569
   1459000   0.049700518   -0.20239203     0.035267843   -0.092578215    4.0550611e-05
   1460000   0.049948413   -0.20193506     0.035202402   -0.09181487     0.0006716686 
   1461000   0.050133711   -0.20249803     0.035189228   -0.092113083    0.00049726456
   1462000   0.050290578   -0.20224742     0.034448285   -0.092368137    0.00053845579
   1463000   0.050628453   -0.20255889     0.034767952   -0.091853163    0.00025729294
   1464000   0.049637611   -0.20255074     0.034875485   -0.09322364     0.0011063403 
   1465000   0.050108321   -0.20254056     0.035059744   -0.092323186    0.00022240804
   1466000   0.049355212   -0.2024848      0.03492921    -0.093527554   -0.00012441705
   1467000   0.049636547   -0.20234202     0.035025424   -0.092866583    0.00059668551
   1468000   0.049835769   -0.2024219      0.034183347   -0.093489721    0.00032533338
   1469000   0.050062735   -0.20258123     0.034732755   -0.092759222    0.00018043428
   1470000   0.050064157   -0.2029101      0.034952412   -0.092866294    9.0037163e-05
   1471000   0.049806171   -0.20280142     0.035306541   -0.092790439    0.00030938449
   1472000   0.049823822   -0.20314659     0.035225226   -0.093190452    0.00071736992
   1473000   0.050219178   -0.20293386     0.035337691   -0.092272262    0.00029126153
   1474000   0.050272246   -0.20316052     0.034939403   -0.092817608    8.8428238e-05
   1475000   0.050173272   -0.20318591     0.034383572   -0.093547289    0.00011288537
   1476000   0.049337507   -0.20314465     0.035611274   -0.093531885    0.00044231683
   1477000   0.050034511   -0.20326556     0.035535759   -0.092682871   -0.00017420492
   1478000   0.050053216   -0.20293148     0.0355032     -0.092353298    0.00040646666
   1479000   0.050334691   -0.20321027     0.034882659   -0.092830448    0.00037643798
   1480000   0.050510159   -0.20324624     0.034935249   -0.092550638    8.371953e-05 
   1481000   0.050284296   -0.20373754     0.034991707   -0.09332425     0.00040659013
   1482000   0.049929452   -0.20380813     0.035430017   -0.093488771    1.0582144e-05
   1483000   0.05019989    -0.20372366     0.035479943   -0.092948738   -4.0797278e-05
   1484000   0.050058815   -0.20359675     0.035145995   -0.09336738     0.00029291856
   1485000   0.050154462   -0.20368843     0.03480489    -0.093656705    0.00057937467
   1486000   0.050369242   -0.20391509     0.035358157   -0.093007941   -0.00010373203
   1487000   0.049615779   -0.20371019     0.034817078   -0.094474241    0.00025163338
   1488000   0.049684377   -0.20402545     0.03473525    -0.094768444    0.00033312302
   1489000   0.050287628   -0.20401881     0.035399944   -0.09319229     0.00011425712
   1490000   0.049974111   -0.20408125     0.035636536   -0.093488385    0.00032883373
   1491000   0.050474859   -0.20386501     0.035327402   -0.092830202    0.00067899401
   1492000   0.050689506   -0.20450768     0.035601489   -0.092876839    4.393049e-05 
   1493000   0.049832282   -0.20444333     0.035248223   -0.094451506    0.00060635362
   1494000   0.049745962   -0.20458461     0.03557442    -0.09439606    -0.00017698876
   1495000   0.049686914   -0.20463221     0.035119396   -0.094987251    0.00072841248
   1496000   0.049520664   -0.2043705      0.034915502   -0.095178792    0.00057790601
   1497000   0.050118386   -0.204832       0.034996161   -0.094663112    0.00025245052
   1498000   0.050115008   -0.20471005     0.035207774   -0.094334616    0.00054329663
   1499000   0.050236809   -0.20473205     0.035218962   -0.094162738    0.00012793752
   1500000   0.050530218   -0.20460606     0.035228135   -0.093587491    0.00040962826
   1501000   0.050528375   -0.20459931     0.036089424   -0.092722212   -0.00017717472
   1502000   0.05023482    -0.20509326     0.035596477   -0.094149417    0.00020033031
   1503000   0.050679332   -0.20521398     0.034986412   -0.094213474    0.00032778216
   1504000   0.050208555   -0.20524011     0.035077083   -0.094855055    0.00032588834
   1505000   0.050019447   -0.20543706     0.034862997   -0.095549729    0.00035714634
   1506000   0.049465496   -0.20511243     0.035034354   -0.095884615    0.00021279297
   1507000   0.049524811   -0.20494059     0.034769447   -0.095888719    0.00047859345
   1508000   0.04991172    -0.2051693      0.035423257   -0.094883289    0.00027789008
   1509000   0.050321118   -0.20555175     0.034972782   -0.095102157    0.00045972054
   1510000   0.05009054    -0.20552748     0.034672723   -0.095723799    3.1233254e-05
   1511000   0.050059352   -0.20526871     0.035873113   -0.094311417    0.00048591376
   1512000   0.049637533   -0.20525606     0.035503002   -0.095301564    0.00056612818
   1513000   0.050005946   -0.20553934     0.03551721    -0.095018053    0.00017218634
   1514000   0.050021608   -0.20539216     0.03507104    -0.095293548    0.00036102752
   1515000   0.049699731   -0.20519892     0.034928033   -0.095726102    0.00060953252
   1516000   0.050113095   -0.20532923     0.034673728   -0.095490711    0.00021134299
   1517000   0.050545761   -0.20579147     0.03502345    -0.094954272    0.00065484887
   1518000   0.050066973   -0.20585703     0.035150049   -0.095611366    2.5212455e-05
   1519000   0.049793018   -0.20558985     0.034860195   -0.096044945    0.00054623951
   1520000   0.049871808   -0.20606787     0.034709167   -0.096555815    0.00045045607
   1521000   0.050029844   -0.2057719      0.034722094   -0.096009877    0.00051758347
   1522000   0.050248676   -0.20540356     0.035137026   -0.094898384    0.00052416829
   1523000   0.049881142   -0.20553267     0.035092637   -0.095623145    0.00058892875
   1524000   0.050664583   -0.20561581     0.035008854   -0.094614984    0.00029261788
   1525000   0.050325976   -0.20588003     0.035208069   -0.09518787     0.00057456933
   1526000   0.049633624   -0.20620513     0.035351171   -0.096408324    0.00015914532
   1527000   0.049804429   -0.20622775     0.035367997   -0.096157927   -7.3685552e-05
   1528000   0.050285109   -0.20584709     0.035385933   -0.095038359    7.8198666e-05
   1529000   0.049897678   -0.20628655     0.034723398   -0.096721468    0.00026264422
   1530000   0.049822459   -0.20624483     0.035405771   -0.096110187    0.00034407618
   1531000   0.049982      -0.20660448     0.03537054    -0.096265774    0.00013484014
   1532000   0.049957889   -0.20651606     0.035489823   -0.096094241   -7.0804402e-05
   1533000   0.050026778   -0.20665142     0.035426256   -0.096189839    0.00051908143
   1534000   0.050235402   -0.20651565     0.035048393   -0.096119016    0.00066890184
   1535000   0.049731388   -0.20659136     0.03569035    -0.096308736    0.00027687023
   1536000   0.049693871   -0.20667372     0.035481693   -0.096656029    9.5031915e-05
   1537000   0.04982999    -0.20650465     0.034799889   -0.096964603    9.8699624e-05
   1538000   0.050112007   -0.20659866     0.034596827   -0.096838676    0.00060718402
   1539000   0.050233097   -0.20685545     0.034979934   -0.096530733    0.0005267345 
   1540000   0.050065501   -0.20682458     0.034961766   -0.096769409    0.0002431383 
   1541000   0.05024147    -0.20673943     0.03535425    -0.096027833    6.5530853e-05
   1542000   0.049695046   -0.20707292     0.035690495   -0.096844666    2.4662177e-06
   1543000   0.04985113    -0.20696136     0.035252473   -0.09693702     4.786402e-05 
   1544000   0.049977106   -0.20687083     0.034713628   -0.097196377    0.00057404316
   1545000   0.049698935   -0.20699051     0.035393185   -0.097053731    0.00028779192
   1546000   0.050098917   -0.20714518     0.034885406   -0.097116249    0.00046270891
   1547000   0.049742143   -0.20731738     0.034926605   -0.097782371   -0.00017497785
   1548000   0.049586024   -0.2069829      0.035039875   -0.097568788    0.00054331269
   1549000   0.049996506   -0.20751475     0.034958008   -0.097566823    0.00036807099
   1550000   0.049459632   -0.20728154     0.034692806   -0.098404077    0.00036407818
   1551000   0.049783114   -0.20750533     0.035052016   -0.097783461    0.00049502702
   1552000   0.050213387   -0.20712586     0.034859793   -0.096950843    0.00028170686
   1553000   0.050119225   -0.20739392     0.035097845   -0.097122084    0.00072090255
   1554000   0.050231024   -0.2075375      0.035188243   -0.097007582    9.1646414e-05
   1555000   0.049545938   -0.20732568     0.035134617   -0.097876954    0.00051838639
   1556000   0.050320567   -0.20786999     0.034963274   -0.097430735   -1.1752748e-05
   1557000   0.050107113   -0.20792792     0.034691083   -0.098081018    0.00049251947
   1558000   0.049731928   -0.20737736     0.035058431   -0.097725849    0.00028997372
   1559000   0.050237795   -0.20772095     0.034786567   -0.097582551    0.00041944228
   1560000   0.050115761   -0.20770956     0.035414971   -0.0971258      0.0003069962 
   1561000   0.050482401   -0.20785372     0.035153312   -0.096981689    0.00057064497
   1562000   0.049767401   -0.20787453     0.035079157   -0.098149086    0.00013089655
   1563000   0.049975522   -0.20770117     0.034820898   -0.097921821    0.00049699709
   1564000   0.049752249   -0.20822713     0.03493739    -0.098666178    0.00026746577
   1565000   0.049894667   -0.20866957     0.035267178   -0.098565225    0.00056402825
   1566000   0.049685803   -0.20799842     0.035180702   -0.09829382     0.00045704767
   1567000   0.049427734   -0.2083917      0.035037708   -0.099217177    0.00028453171
   1568000   0.049834017   -0.20841613     0.035220394   -0.098449533    0.00029210768
   1569000   0.049772067   -0.20824496     0.035299729   -0.098291951   -9.3630079e-06
   1570000   0.049627776   -0.20877036     0.035269649   -0.099063854    0.00041111721
   1571000   0.049956288   -0.20863299     0.035649516   -0.09805388     0.00024624942
   1572000   0.049676025   -0.20865775     0.035514586   -0.098633932    0.00027662002
   1573000   0.049393439   -0.20887723     0.034398324   -0.10039353     0.00020343324
   1574000   0.050537894   -0.20882397     0.035036548   -0.097985475    2.8694087e-06
   1575000   0.050045844   -0.20901965     0.035226996   -0.098728726    0.00089676404
   1576000   0.050505117   -0.20903106     0.03474467    -0.098533602    0.00038295405
   1577000   0.05078671    -0.20852045     0.034883319   -0.09746198     0.00042312544
   1578000   0.050090061   -0.2090148      0.035340597   -0.098543956    0.00035052231
   1579000   0.050186685   -0.20872033     0.034945464   -0.098499699    7.4911346e-05
   1580000   0.049966607   -0.20891598     0.035460944   -0.098509962    0.00020309881
   1581000   0.049863233   -0.20909065     0.034914381   -0.099386243    0.00018096179
   1582000   0.050419025   -0.20893585     0.035117711   -0.098194479    0.00069839596
   1583000   0.050039989   -0.20883056     0.034723924   -0.099051495    9.7196744e-05
   1584000   0.049914209   -0.20899463     0.035265444   -0.098862703    0.00024784028
   1585000   0.049950283   -0.20906106     0.03536443    -0.098776042    0.00043094312
   1586000   0.049881786   -0.20924903     0.035556229   -0.098874947    0.00038698356
   1587000   0.050197889   -0.20950174     0.034485783   -0.099723981    0.00030271446
   1588000   0.050433094   -0.20932472     0.035030613   -0.098649346    0.00044171752
   1589000   0.049899206   -0.20920973     0.035175183   -0.09919057     0.0001906879 
   1590000   0.050085597   -0.20941676     0.034917584   -0.099375628    0.00035472724
   1591000   0.050029788   -0.2096707      0.035255004   -0.09937586     0.00029482346
   1592000   0.050307868   -0.20951413     0.035088076   -0.098969116   -9.2589901e-05
   1593000   0.050121782   -0.20943941     0.035378758   -0.09888283     0.00053778371
   1594000   0.050337214   -0.21006431     0.034688408   -0.099874948    0.00028449629
   1595000   0.050194445   -0.20986582     0.034865028   -0.099713981    0.0001745946 
   1596000   0.050167966   -0.20997617     0.034989284   -0.099739797    0.00068840426
   1597000   0.050128083   -0.21012629     0.035367861   -0.099571153    1.9133906e-05
   1598000   0.050011554   -0.2100558      0.03508602    -0.099957292    0.00040770014
   1599000   0.04980384    -0.2100509      0.034373472   -0.10097649     0.00026623804
   1600000   0.05042274    -0.21004942     0.034421824   -0.099998361    6.9807422e-05
   1601000   0.05003086    -0.21029684     0.035629832   -0.099625565    0.00020611733
   1602000   0.050014625   -0.21029737     0.035356729   -0.099923541    0.00019989174
   1603000   0.05051097    -0.21025665     0.035462196   -0.099032885    0.00049244306
   1604000   0.049780326   -0.21033975     0.035352642   -0.10032144     0.00060983558
   1605000   0.049703346   -0.21029397     0.035226677   -0.10051709     0.00020131663
   1606000   0.050323747   -0.2108127      0.035721797   -0.099610158    0.00062248222
   1607000   0.050276871   -0.21097699     0.035002411   -0.10056414     2.1429443e-05
   1608000   0.050440959   -0.21078421     0.035354252   -0.099773401   -0.0002039737 
   1609000   0.049466018   -0.21062107     0.034938208   -0.10148862     0.00036419312
   1610000   0.049587553   -0.21066466     0.034827381   -0.10146075     0.00058736041
   1611000   0.050132421   -0.21083868     0.035750967   -0.099893937    0.00014535763
   1612000   0.050519604   -0.2110418      0.035337791   -0.099929491    0.00015822458
   1613000   0.049828292   -0.21073462     0.035357082   -0.10063992     0.00051404719
   1614000   0.050239348   -0.2111551      0.035246423   -0.10055452     0.00018185103
   1615000   0.049592213   -0.2111694      0.035149676   -0.10163621     0.00033450775
   1616000   0.050114896   -0.21111658     0.035203456   -0.10074563     0.00031294653
   1617000   0.050292111   -0.2110342      0.035576717   -0.10002418    -4.7821486e-05
   1618000   0.050695957   -0.210553       0.034949889   -0.099564079    0.00031406798
   1619000   0.050175614   -0.21079017     0.034623532   -0.10090807     0.00054859903
   1620000   0.049927006   -0.21174569     0.035001255   -0.10185876     0.00025386153
   1621000   0.049517245   -0.21138983     0.035075677   -0.10204308     0.00021170361
   1622000   0.049591599   -0.21118912     0.035560917   -0.10124561     0.00041813257
   1623000   0.04981777    -0.21137981     0.035064923   -0.10159305     0.00077371436
   1624000   0.049723225   -0.21113589     0.034907058   -0.10164881     0.00030460002
   1625000   0.049946724   -0.21162839     0.035404587   -0.10130855     0.00073277135
   1626000   0.050198298   -0.211616       0.03509749    -0.10122592     0.00022488189
   1627000   0.049890811   -0.21151262     0.035253781   -0.10142745     0.00039155562
   1628000   0.049942158   -0.211812       0.035159747   -0.10174385     0.00020283043
   1629000   0.049844108   -0.21203573     0.035036228   -0.10223816     0.00072824327
   1630000   0.049600977   -0.21228204     0.035288509   -0.10259687     0.00024150368
   1631000   0.049758385   -0.21228142     0.035100111   -0.10254855    -8.7667811e-05
   1632000   0.0498783     -0.21229645     0.034974791   -0.10250904     0.00050802546
   1633000   0.049504651   -0.2120797      0.035221663   -0.10260585     0.00017865652
   1634000   0.050019496   -0.21228515     0.034875724   -0.10238502     0.00031110242
   1635000   0.050003642   -0.21229354     0.034518468   -0.10277445     0.00057684986
   1636000   0.049802122   -0.21239028     0.034738773   -0.10295315     0.00034485788
   1637000   0.050090644   -0.21238823     0.035221346   -0.10203577     0.00048778442
   1638000   0.049707635   -0.21252894     0.035314086   -0.10265821     2.1838986e-05
   1639000   0.050293661   -0.21296683     0.035016019   -0.10251519     0.0003127031 
   1640000   0.050094141   -0.21310658     0.034711824   -0.1032584      0.00035175789
   1641000   0.050148346   -0.21286681     0.035039248   -0.10260989     0.00035643173
   1642000   0.04959989    -0.21276414     0.034654551   -0.10371455     0.00044443384
   1643000   0.049833639   -0.21280618     0.034889658   -0.10317089     0.00034263481
   1644000   0.049925091   -0.21311684     0.034946461   -0.10328757     7.5486225e-05
   1645000   0.049537085   -0.21320985     0.034904174   -0.10400484     0.00041113631
   1646000   0.049596907   -0.21317634     0.03545898    -0.1033268      2.5534679e-05
   1647000   0.050694404   -0.21343562     0.035397828   -0.10200109     0.00025475353
   1648000   0.049915413   -0.21323193     0.035322153   -0.10304149     0.00040896708
   1649000   0.050381178   -0.21306969     0.035205051   -0.10229775     0.0003236942 
   1650000   0.050071616   -0.21364351     0.035179394   -0.10336154     0.00072500502
   1651000   0.050520052   -0.2140197      0.035106661   -0.10313785     0.00022773889
   1652000   0.050370204   -0.21360064     0.035594604   -0.1024556      0.00016414257
   1653000   0.049887471   -0.2139967      0.035199108   -0.10397121     0.00033357904
   1654000   0.050127599   -0.21371916     0.034998667   -0.10353394    -1.6888572e-05
   1655000   0.050550534   -0.21405127     0.035833766   -0.1023966      0.000530418  
   1656000   0.050518133   -0.21400372     0.03556966    -0.10266175     0.00023022675
   1657000   0.050060116   -0.21396666     0.035007012   -0.10387432    -7.4210561e-05
   1658000   0.049581454   -0.2139944      0.035312853   -0.10431417    -3.4274486e-05
   1659000   0.050363657   -0.21432667     0.034843374   -0.10394269     0.00025458455
   1660000   0.049852151   -0.21414197     0.034694983   -0.10467358     0.00080314256
   1661000   0.049637587   -0.21391507     0.035093667   -0.10436983     2.1250202e-05
   1662000   0.050135185   -0.21402648     0.035347922   -0.10348063     0.00055137937
   1663000   0.050008134   -0.21398935     0.03544737    -0.10353462     0.00055104513
   1664000   0.050098729   -0.21448817     0.03517971    -0.10416521     0.00016190914
   1665000   0.049898779   -0.21427214     0.035351671   -0.10407713     0.00059799637
   1666000   0.049957262   -0.21419305     0.034984694   -0.1042773      0.00027535186
   1667000   0.050109219   -0.21400279     0.035164854   -0.10367896     0.00016886828
   1668000   0.049863983   -0.21434867     0.034941482   -0.10461604     0.00018708063
   1669000   0.049958736   -0.21426092     0.034690832   -0.10463682     0.00031194858
   1670000   0.050243337   -0.21454037     0.034874351   -0.10430588     0.00042369071
   1671000   0.049843136   -0.21460431     0.035250267   -0.10459416     0.00028968304
   1672000   0.050041186   -0.21502593     0.034837324   -0.10513167    -0.00014425971
   1673000   0.049834288   -0.21478746     0.034990194   -0.10505066     0.00023383509
   1674000   0.050200007   -0.21465709     0.034527839   -0.1048341      0.00042680546
   1675000   0.050411562   -0.21461844     0.034914863   -0.10409111     0.00057376921
   1676000   0.04980805    -0.21456577     0.035118331   -0.10474018     0.00018740217
   1677000   0.050051886   -0.21445831     0.035670132   -0.10371519     0.00019423123
   1678000   0.049537569   -0.21449157     0.035761579   -0.10442843     0.0002596301 
   1679000   0.050253791   -0.21473194     0.035164564   -0.10419155     0.00040558777
   1680000   0.049686809   -0.21514805     0.035305599   -0.10531704     0.00020365146
   1681000   0.050122104   -0.21484237     0.034755176   -0.10490889     0.00026373488
   1682000   0.049863751   -0.21462826     0.034803262   -0.10503419     0.00074572199
   1683000   0.050020202   -0.21490869     0.034990288   -0.10489294     0.0001868113 
   1684000   0.049896768   -0.21480309     0.035024465   -0.1049383     -0.00014444383
   1685000   0.049992848   -0.21503215     0.035670409   -0.1043773      0.00010741862
   1686000   0.049602942   -0.21514145     0.035432081   -0.10530975     0.00044254676
   1687000   0.050090218   -0.21550184     0.035679855   -0.10469151     0.00058179264
   1688000   0.050091492   -0.21512631     0.035246626   -0.10474729     0.00031359545
   1689000   0.049604535   -0.2152917      0.03481863    -0.10607107     0.0004322874 
   1690000   0.049998066   -0.21533146     0.035202359   -0.10513684     0.00019085454
   1691000   0.049162329   -0.21542262     0.0352648     -0.10641909     0.00088457884
   1692000   0.049870483   -0.21537161     0.035659791   -0.10491092     0.00018127556
   1693000   0.050603647   -0.21532386     0.035052553   -0.10437073     0.00014444197
   1694000   0.050583976   -0.2157466      0.03539987    -0.10447566     0.00022331235
   1695000   0.050155912   -0.21565613     0.035139647   -0.10528747     0.00027561771
   1696000   0.050654407   -0.21573687     0.035439837   -0.10432033     0.00088725294
   1697000   0.050454906   -0.21565432     0.035445464   -0.10453138     0.00029342216
   1698000   0.050379551   -0.21551833     0.035373289   -0.10458059     0.00044399338
   1699000   0.050415816   -0.21604369     0.035396591   -0.10502825     0.00035317222
   1700000   0.050093165   -0.21586809     0.034856191   -0.105877       0.00018095057
   1701000   0.050068051   -0.21614705     0.034569972   -0.10647984     0.00020187779
   1702000   0.049639335   -0.21623662     0.035433588   -0.10634883     0.00040011138
   1703000   0.049796401   -0.21613136     0.03453715    -0.10690443     0.00033163127
   1704000   0.050061983   -0.21592571     0.035375635   -0.10546194     0.00058936191
   1705000   0.050343108   -0.21648014     0.035510095   -0.10546025     3.2240746e-05
   1706000   0.050473861   -0.21611355     0.035538107   -0.10486954     4.4170928e-05
   1707000   0.05026657    -0.21617296     0.035342725   -0.10543525     0.0004703852 
   1708000   0.050193559   -0.21645093     0.035429517   -0.10573593     0.00029160979
   1709000   0.050278231   -0.21611958     0.034747314   -0.10595979     0.00074990808
   1710000   0.050027586   -0.21631254     0.034493883   -0.10678212     0.00051164024
   1711000   0.049904294   -0.21648302     0.034983473   -0.10664794     0.00027884281
   1712000   0.050136196   -0.21633366     0.034849576   -0.10628464     0.00025110699
   1713000   0.049681167   -0.21636225     0.035375684   -0.10646962     0.00032735362
   1714000   0.04957829    -0.2163759      0.035050176   -0.10696309    -0.00026785276
   1715000   0.050142633   -0.21663709     0.035382702   -0.10604529     0.00094597981
   1716000   0.050074829   -0.21641666     0.035188725   -0.10612054     0.00017964454
   1717000   0.050119433   -0.21636779     0.034498879   -0.10669461     0.00020127956
   1718000   0.050129467   -0.21659073     0.034601747   -0.10679963     8.7903595e-05
   1719000   0.050082116   -0.21649606     0.035017555   -0.10636018    -4.5680471e-06
   1720000   0.0501156     -0.21600027     0.035243765   -0.10558795     0.00031299615
   1721000   0.049594814   -0.21675684     0.035256959   -0.10711246     4.5155334e-05
   1722000   0.050350843   -0.21638029     0.035575251   -0.10528364     0.00077612555
   1723000   0.050117206   -0.21656425     0.035288431   -0.10610486     0.00014594576
   1724000   0.04984692    -0.21631466     0.035087579   -0.10646153     0.00040023733
   1725000   0.049844068   -0.21663494     0.035106966   -0.1067667      0.00033155979
   1726000   0.049725324   -0.21680459     0.035102799   -0.10711862     0.00044988804
   1727000   0.050377212   -0.2166747      0.035701502   -0.10541225     0.00018905155
   1728000   0.05007149    -0.21692608     0.035324594   -0.1064991      0.00078653658
   1729000   0.049645945   -0.21693581     0.035619999   -0.10685169     0.00015226463
   1730000   0.050183549   -0.21696041     0.03472481    -0.10696513     0.00026315811
   1731000   0.050370644   -0.21713638     0.035370085   -0.10621521     0.00031712203
   1732000   0.050675991   -0.21672217     0.035223204   -0.10548989     0.00044669658
   1733000   0.050238413   -0.21676508     0.035047822   -0.1063645      0.00056283104
   1734000   0.050065055   -0.21691562     0.035918913   -0.10590397     0.00024782457
   1735000   0.050399225   -0.21703813     0.034996572   -0.1064476      0.00043930423
   1736000   0.050313545   -0.21732123     0.035221687   -0.1066341      0.00035817935
   1737000   0.049616238   -0.21722744     0.034809532   -0.10799835     0.00046758806
   1738000   0.05011775    -0.21751316     0.035317071   -0.10702431     0.00045712411
   1739000   0.050005067   -0.21750976     0.03584302    -0.10666398     0.00012738066
   1740000   0.049881816   -0.21771199     0.035513453   -0.10738064     3.7116601e-05
   1741000   0.049949288   -0.217762       0.034878269   -0.10796463     0.00077543966
   1742000   0.048985488   -0.21745229     0.035341193   -0.1086376     -4.8253727e-05
   1743000   0.049727527   -0.21747124     0.034891993   -0.10799277     0.00034476559
   1744000   0.049682089   -0.21793917     0.035239573   -0.10818127     0.00010284479
   1745000   0.049298122   -0.21766891     0.035404352   -0.10832215     0.00038274998
   1746000   0.049922963   -0.21802816     0.035420527   -0.10772802     0.00043159579
   1747000   0.050097513   -0.21771688     0.035326032   -0.10724942     0.00054655973
   1748000   0.050369145   -0.21774039     0.035445082   -0.10674647     0.00037154039
   1749000   0.050337868   -0.21778368     0.034893464   -0.10738829     0.00049990786
   1750000   0.050136377   -0.21768063     0.035581293   -0.10689963     0.00049114761
   1751000   0.050244393   -0.21780044     0.035410573   -0.10702814     0.00063181564
   1752000   0.049624612   -0.21770571     0.035425034   -0.10784856     0.00036268127
   1753000   0.05026121    -0.21779533     0.035357638   -0.10705074     0.00023069977
   1754000   0.05025394    -0.21787542     0.035444399   -0.10705497     0.00011178752
   1755000   0.050733459   -0.2177635      0.035340731   -0.10632749    -7.6900546e-05
   1756000   0.050570231   -0.21807393     0.035105354   -0.10711812     0.00014932648
   1757000   0.050596097   -0.21761908     0.034691788   -0.10703804     0.00019629131
   1758000   0.04996709    -0.21819946     0.03514975    -0.10810391     0.00010877369
   1759000   0.050032698   -0.21835867     0.034709371   -0.1086051      0.00025065131
   1760000   0.050070931   -0.21816736     0.035002241   -0.10806357     0.00046650431
   1761000   0.050345028   -0.21804958     0.03555039    -0.10698652     0.0003986934 
   1762000   0.050126513   -0.21775236     0.03579665    -0.1067708      0.00035666194
   1763000   0.050560157   -0.21847425     0.035466369   -0.10717254     0.00036510748
   1764000   0.050273322   -0.21847021     0.035118071   -0.10794702     0.00031720477
   1765000   0.049353154   -0.21836278     0.035569878   -0.10876795     0.00050185929
   1766000   0.049902586   -0.21840545     0.035872226   -0.10768418    -0.00014438863
   1767000   0.050148523   -0.2186279      0.034928983   -0.10848098     0.00052817078
   1768000   0.050297924   -0.21844485     0.035355932   -0.1076469      0.00018887352
   1769000   0.050288494   -0.2188448      0.035094615   -0.10832231     0.00042437764
   1770000   0.050124127   -0.21863551     0.035235239   -0.10821893     2.5542272e-05
   1771000   0.049910977   -0.21863471     0.035644071   -0.108129       0.00029235585
   1772000   0.049953111   -0.219027       0.035289199   -0.10881297     0.00020223062
   1773000   0.049993537   -0.21902837     0.035311158   -0.10873175     0.00058870246
   1774000   0.050198138   -0.21927458     0.034873175   -0.10910905     0.00055289802
   1775000   0.049796261   -0.21895703     0.035549861   -0.10871759     0.00024285719
   1776000   0.049760513   -0.21917238     0.035036359   -0.10950007     0.00040928923
   1777000   0.050124578   -0.21922574     0.035087326   -0.1089564      6.4413513e-05
   1778000   0.049968323   -0.219632       0.034463762   -0.11022059     0.00040922181
   1779000   0.04993617    -0.21916344     0.034756066   -0.10950795     0.0003187183 
   1780000   0.050239621   -0.21955086     0.03552285    -0.10867344     0.00021766168
   1781000   0.049744887   -0.2191892      0.035585956   -0.10899073     0.00018400003
   1782000   0.050203627   -0.21947489     0.035209593   -0.10896472     0.00044667757
   1783000   0.049979089   -0.21968585     0.035201874   -0.10952018     0.00050378459
   1784000   0.05020361    -0.21988326     0.035531506   -0.1090512      0.00030798799
   1785000   0.050272307   -0.21965883     0.035233274   -0.10902196     0.00018699961
   1786000   0.050152994   -0.21979705     0.034284068   -0.11028834     0.00028386615
   1787000   0.050180996   -0.21990341     0.034619416   -0.11001735     0.00035240808
   1788000   0.050013592   -0.21987989     0.034978396   -0.10988595     0.00044737118
   1789000   0.049394917   -0.22007493     0.035237978   -0.11074936     0.00047230077
   1790000   0.050062219   -0.2196825      0.035343493   -0.10925052     0.00039512618
   1791000   0.050035059   -0.21985785     0.03473598    -0.11007413     0.00090589542
   1792000   0.049646448   -0.22015102     0.035397097   -0.11028906    -5.1020219e-05
   1793000   0.0500009     -0.21985597     0.034902784   -0.10995667     0.00031542476
   1794000   0.049622782   -0.22014504     0.03604614    -0.10966953    -0.00016749551
   1795000   0.050406897   -0.22013229     0.035503517   -0.10902331     0.00021459597
   1796000   0.050524325   -0.21965911     0.035308723   -0.10856879     0.00020067576
   1797000   0.050150389   -0.22007827     0.035187475   -0.10967007     0.00022747191
   1798000   0.050170067   -0.21996483     0.035080482   -0.10963411     0.00043585169
   1799000   0.050583071   -0.21995429     0.035776375   -0.10830821     0.00046877714
   1800000   0.049562552   -0.22012062     0.03588078    -0.10990081     0.00031350774
   1801000   0.050443319   -0.22027519     0.035461528   -0.10915357     0.00032543405
   1802000   0.050007839   -0.22022596     0.035223186   -0.10999586     0.00030502317
   1803000   0.05009133    -0.22027871     0.035104663   -0.1100419      0.00046548013
   1804000   0.050371495   -0.2202538      0.034878809   -0.10982262     0.00067623169
   1805000   0.050003487   -0.22027677     0.035579511   -0.10969687     1.3371491e-05
   1806000   0.049618491   -0.22024162     0.035529727   -0.11028895     0.00043211944
   1807000   0.049589134   -0.22050265     0.035311157   -0.11081259    -3.4457618e-05
   1808000   0.050112726   -0.22021375     0.03464607    -0.11040344     0.00016453646
   1809000   0.049644043   -0.22028214     0.03525958    -0.1105613      0.00087983755
   1810000   0.05004726    -0.22052783     0.034595378   -0.11086641     0.00046223905
   1811000   0.049607364   -0.22043786     0.034092194   -0.11193942     0.00024638948
   1812000   0.049821757   -0.2206995      0.035326588   -0.11064509     0.00037918444
   1813000   0.049419969   -0.22038536     0.035260424   -0.11099976     0.0002329468 
   1814000   0.049468849   -0.2207565      0.03541994    -0.11113808     0.00028364543
   1815000   0.049614913   -0.22063646     0.036089896   -0.110129       0.00027278279
   1816000   0.050316414   -0.22096172     0.03553575    -0.10995622     0.00039110357
   1817000   0.049593454   -0.22070731     0.035522386   -0.11079954     0.00036270185
   1818000   0.049874607   -0.22081555     0.035715324   -0.11029315     0.00023114059
   1819000   0.049546023   -0.22096341     0.035001847   -0.11164732     0.00025290985
   1820000   0.049495902   -0.22088652     0.035416879   -0.11123057     0.00038552221
   1821000   0.049976159   -0.22069153     0.035095708   -0.11063642     0.00042914721
   1822000   0.049980942   -0.2210032      0.035434319   -0.11060231    -0.00010236432
   1823000   0.049848826   -0.22097567     0.035549845   -0.11065741     0.00011734626
   1824000   0.049597273   -0.22073228     0.035472613   -0.11086856     0.00041703322
   1825000   0.049933466   -0.22140446     0.034899366   -0.11160973     0.00087479336
   1826000   0.049870938   -0.22115654     0.034783432   -0.11157153     0.00015293724
   1827000   0.050653934   -0.22129105     0.035429393   -0.10988566     0.00016691176
   1828000   0.050359403   -0.22147117     0.03560234    -0.11033459     0.00021637269
   1829000   0.049792123   -0.22143164     0.035337095   -0.11141118     0.0005640723 
   1830000   0.050537767   -0.22127345     0.034970203   -0.11050149     0.00040771131
   1831000   0.049877965   -0.22127319     0.035460764   -0.11100031    -5.1276158e-05
   1832000   0.049885976   -0.22160416     0.035207401   -0.11157262     0.00034038189
   1833000   0.050118924   -0.22169024     0.034816952   -0.11169975     0.00044421006
   1834000   0.049925612   -0.22160254     0.035234115   -0.11148484     0.00045295122
   1835000   0.050154277   -0.22146758     0.035542313   -0.11069871     0.00025711268
   1836000   0.05050471    -0.22178306     0.035193533   -0.11083735     0.00041184481
   1837000   0.049798749   -0.22173981     0.034819104   -0.1122274      0.00074149124
   1838000   0.050091957   -0.22182359     0.034866997   -0.1118235      0.00072192067
   1839000   0.049926972   -0.22178282     0.03500717    -0.11189002    -6.3393067e-05
   1840000   0.049651694   -0.22151961     0.035423348   -0.11162353     0.00022168874
   1841000   0.049660364   -0.22171573     0.035730586   -0.1114994      0.00044566252
   1842000   0.049913602   -0.22154747     0.035664267   -0.11101764     0.00054489563
   1843000   0.049703549   -0.22135814     0.03495426    -0.11185336     0.00010307391
   1844000   0.050012479   -0.22183168     0.034994713   -0.11182309     0.00039443363
   1845000   0.050115363   -0.22159812     0.035156333   -0.11127359     0.00037874207
   1846000   0.050001504   -0.22194812     0.035243253   -0.11170745     4.3972533e-05
   1847000   0.049885205   -0.22227835     0.03520151    -0.11225386     0.00030883098
   1848000   0.049947154   -0.22236722     0.035234731   -0.1122166     -0.00017524249
   1849000   0.05038465    -0.2222552      0.035151498   -0.1115316      0.00020568021
   1850000   0.050541175   -0.22213771     0.035343772   -0.11098706     0.00037901219
   1851000   0.04984229    -0.22254097     0.035229869   -0.11255249     0.00045550117
   1852000   0.050270921   -0.22233661     0.035241489   -0.11169361     0.00038849003
   1853000   0.049783449   -0.22244499     0.035574518   -0.11220011     0.00027081361
   1854000   0.049617381   -0.22244034     0.034760397   -0.11325867     0.0001616514 
   1855000   0.049865143   -0.2226629      0.035140484   -0.11272953    -1.1669974e-05
   1856000   0.050609955   -0.22326345     0.035322235   -0.11203118    -6.432284e-05 
   1857000   0.049939324   -0.22302652     0.036113009   -0.11200936    -6.543846e-05 
   1858000   0.049448345   -0.22278697     0.035054003   -0.11356523     3.8969116e-05
   1859000   0.04946201    -0.22300889     0.034726917   -0.11409374     0.00051066803
   1860000   0.049425871   -0.22288584     0.034986299   -0.11376552     0.00012459276
   1861000   0.049611929   -0.22314426     0.035305273   -0.1134259      0.00038632544
   1862000   0.050114318   -0.22285443     0.035642391   -0.11204541     0.00032908157
   1863000   0.05040763    -0.22297634     0.035518571   -0.11185121     0.00024683477
   1864000   0.050661201   -0.22308104     0.034933643   -0.1121605      0.00021705352
   1865000   0.050179887   -0.22304538     0.035054599   -0.11272581     0.00046071906
   1866000   0.050134505   -0.22315895     0.035059629   -0.11290242     0.00022372451
   1867000   0.049756028   -0.22300716     0.035594373   -0.11278356     0.00039344752
   1868000   0.05032207    -0.2233175      0.035556491   -0.11228278     0.00057893633
   1869000   0.049553521   -0.22310581     0.035284126   -0.1134962      0.00057654024
   1870000   0.050037391   -0.22296093     0.034980342   -0.11292934     4.0000224e-05
   1871000   0.049967395   -0.22313279     0.035708533   -0.112478       0.00061067026
   1872000   0.050070845   -0.22287053     0.035670678   -0.11209843     0.00056838198
   1873000   0.05012001    -0.22322319     0.035186259   -0.11286177     0.00043634905
   1874000   0.050541632   -0.22374836     0.035022447   -0.11291836     0.00012623132
   1875000   0.049585542   -0.22330988     0.035303448   -0.11363292     0.00022544818
   1876000   0.050469097   -0.22359287     0.035379815   -0.11251429     0.00059027642
   1877000   0.049829085   -0.2234442      0.036724416   -0.11198097     0.00010470404
   1878000   0.050146794   -0.22379593     0.036095557   -0.11248504    -7.3670784e-05
   1879000   0.049434487   -0.22378862     0.035420515   -0.11422116    -9.7417979e-05
   1880000   0.049947757   -0.2238126      0.034323209   -0.11457259     0.00050158791
   1881000   0.05016386    -0.22374338     0.035387667   -0.11311478     0.00075527715
   1882000   0.050757898   -0.22368016     0.035306355   -0.11224187     0.00031769436
   1883000   0.050578135   -0.22372303     0.034826789   -0.11303394    -5.8105791e-05
   1884000   0.050481569   -0.2240021      0.035321122   -0.11296351     0.00062475731
   1885000   0.050483863   -0.22388169     0.035686129   -0.11247465     0.00028709286
   1886000   0.050282353   -0.2239161      0.035692664   -0.11280477     6.623147e-05 
   1887000   0.049989077   -0.22383268     0.03588651    -0.11296739     0.00036090381
   1888000   0.049916134   -0.22384132     0.035386769   -0.11358518    -0.00013991378
   1889000   0.050214205   -0.22395705     0.035435581   -0.11320502     0.00042301885
   1890000   0.0496909     -0.2241534      0.035639128   -0.11398273     0.00048759489
   1891000   0.049474559   -0.22392491     0.034855415   -0.11486244     0.00079205591
   1892000   0.049797453   -0.2242154      0.035149786   -0.11437426     0.00014880589
   1893000   0.049546232   -0.22432456     0.035505709   -0.1145043      0.00019990177
   1894000   0.049810017   -0.22435731     0.035283858   -0.11436325     0.00018051029
   1895000   0.050317933   -0.22403471     0.035641487   -0.11292119     0.00046673731
   1896000   0.049909166   -0.2241014      0.035426699   -0.11381578     0.00011149132
   1897000   0.05023903    -0.22434826     0.035799282   -0.11319529     0.00063584873
   1898000   0.050465903   -0.22430207     0.035012725   -0.11359537     0.00011984078
   1899000   0.050299535   -0.22454698     0.035737808   -0.11336473     0.00016006774
   1900000   0.049541111   -0.22444444     0.035630641   -0.11450692     0.00034370199
   1901000   0.049803402   -0.22460083     0.035075466   -0.11482509     0.00033826511
   1902000   0.049713608   -0.22481106     0.035075419   -0.11517004    -4.4746292e-05
   1903000   0.050289877   -0.22471701     0.034279039   -0.11500802     0.00024616353
   1904000   0.0498482     -0.22453516     0.03548155    -0.11428613     0.00015209075
   1905000   0.049954143   -0.22441997     0.035032311   -0.11446128     0.00023512931
   1906000   0.05003527    -0.22461882     0.034842202   -0.11472856     0.00034844549
   1907000   0.049530837   -0.2245148      0.035729266   -0.11449407    -0.0001429042 
   1908000   0.04983766    -0.22459995     0.035301257   -0.11454702     0.00057669074
   1909000   0.050237527   -0.22451471     0.03532506    -0.11383822     0.00021555397
   1910000   0.050046275   -0.22479795     0.035181487   -0.11455189     0.00037331326
   1911000   0.050182866   -0.2246453      0.035274142   -0.11410171     0.00045196887
   1912000   0.049833732   -0.22474304     0.034850724   -0.11514653     0.0007826708 
   1913000   0.050358044   -0.22515354     0.035402752   -0.1142186     -0.00012444373
   1914000   0.05035915    -0.22498949     0.035534423   -0.11392121     0.00034256725
   1915000   0.050217188   -0.2250049      0.035583319   -0.11410066     0.000469675  
   1916000   0.050276688   -0.2249701      0.035551908   -0.11400802    -5.0124899e-05
   1917000   0.050128093   -0.22492689     0.035809336   -0.11393026     0.00026647305
   1918000   0.050251313   -0.22502748     0.03544671    -0.11420866    -1.4438381e-05
   1919000   0.050285572   -0.22506378     0.035047701   -0.11459259     0.00029010327
   1920000   0.04953901    -0.22507588     0.035049237   -0.11572293     0.00013190321
   1921000   0.050408394   -0.22532509     0.034999949   -0.11471742     0.00014156753
   1922000   0.050040307   -0.22547587     0.035352206   -0.11506804     0.00013198691
   1923000   0.050438227   -0.2253768      0.035025378   -0.11469897     0.00073584329
   1924000   0.049936085   -0.22527052     0.035160445   -0.11521078     0.00029428911
   1925000   0.050210418   -0.22562346     0.035760324   -0.11455237     6.5386243e-05
   1926000   0.049832293   -0.22531232     0.03535796    -0.11521075     0.00028362685
   1927000   0.049899619   -0.2256293      0.035114777   -0.11566992     0.00021188603
   1928000   0.050054026   -0.2252395      0.034557452   -0.11560585     0.00025946557
   1929000   0.049647336   -0.22519648     0.03518745    -0.11554283     0.00018029451
   1930000   0.049628763   -0.22567316     0.03549424    -0.11574058     3.2693177e-05
   1931000   0.050340207   -0.22518342     0.035301195   -0.11437678     0.00066285161
   1932000   0.050446351   -0.22561018     0.035384816   -0.11456072     0.00023087832
   1933000   0.050174458   -0.22562167     0.035333473   -0.11503137     8.1915881e-05
   1934000   0.049934953   -0.22581169     0.034826261   -0.11608783     0.00027998891
   1935000   0.050052383   -0.22613778     0.035543382   -0.11552067     0.00023264646
   1936000   0.050041531   -0.22584696     0.035168318   -0.11562119     0.00021435375
   1937000   0.050452091   -0.22602144     0.034599454   -0.11574873     0.00021147815
   1938000   0.050023041   -0.22569075     0.035269226   -0.1153918      0.00053613996
   1939000   0.049976163   -0.2255272      0.035178347   -0.11538944     0.00029167531
   1940000   0.049849007   -0.22585807     0.034584647   -0.11650474     0.00030446006
   1941000   0.049883338   -0.22601288     0.034674211   -0.11651849     0.00042602193
   1942000   0.050126548   -0.22588801     0.03500802    -0.11569501     0.00039110032
   1943000   0.049949321   -0.22610587     0.0355886     -0.11559812     5.6864824e-05
   1944000   0.050434322   -0.22580521     0.03541459    -0.11474402     9.4949727e-05
   1945000   0.049962568   -0.22596331     0.035435679   -0.11558861     9.4959147e-05
   1946000   0.050197594   -0.22600032     0.034983775   -0.11572501     9.1502624e-05
   1947000   0.050299954   -0.22609032     0.034830219   -0.11581504     0.00034200059
   1948000   0.049917825   -0.22598837     0.034923077   -0.11619339     0.00058622299
   1949000   0.049766955   -0.22636086     0.035105484   -0.11660976     4.8662074e-05
   1950000   0.050255521   -0.2260736      0.035482129   -0.11521305     0.0002761058 
   1951000   0.050511186   -0.22621399     0.035269511   -0.11518259     0.00037769804
   1952000   0.049761833   -0.22630707     0.035861673   -0.11580746     0.00037711886
   1953000   0.050452274   -0.22624415     0.035649148   -0.11492147     0.00012944187
   1954000   0.050428003   -0.22660332     0.035213172   -0.11575302     0.00016553668
   1955000   0.050365098   -0.22611431     0.035030801   -0.11554074     0.00038929531
   1956000   0.050013723   -0.22682967     0.035553052   -0.11626087     7.2288142e-05
   1957000   0.050222741   -0.2266055      0.034947806   -0.11632844     0.00055140253
   1958000   0.049814756   -0.22619257     0.035045581   -0.11642968     0.00054100131
   1959000   0.049943141   -0.22657361     0.035191309   -0.11647242    -0.0002382593 
   1960000   0.050515304   -0.2265157      0.035581655   -0.11516597     0.00014281234
   1961000   0.049791085   -0.22657391     0.035419977   -0.11647212     0.00030879171
   1962000   0.050474812   -0.22653344     0.03561407    -0.11521203     0.00010620145
   1963000   0.050139179   -0.22667725     0.035390474   -0.11608286     0.00048673118
   1964000   0.049854485   -0.22677368     0.035020199   -0.11697658     0.00020284157
   1965000   0.050114741   -0.22688908     0.035246625   -0.11647519     0.00059854833
   1966000   0.04967766    -0.22678608     0.035188373   -0.11708603     0.00044675415
   1967000   0.049583283   -0.22727996     0.034902839   -0.118007       0.00048795891
   1968000   0.049690238   -0.22721872     0.035117687   -0.11757048     0.00029266887
   1969000   0.050109064   -0.22677523     0.034742665   -0.11687382     0.0010087406 
   1970000   0.05029458    -0.22671369     0.03522337    -0.11605331    -1.3818406e-05
   1971000   0.050417275   -0.22700541     0.034957995   -0.11642638     0.00061813555
   1972000   0.049791867   -0.22725075     0.035641665   -0.11692611    -0.00020032046
   1973000   0.050230336   -0.22728579     0.035173451   -0.1167717      0.0002455612 
   1974000   0.050352499   -0.22702426     0.034920789   -0.11657959     0.00029745916
   1975000   0.049500816   -0.22746018     0.035126165   -0.11808758     0.00034114207
   1976000   0.049546687   -0.22709509     0.034905071   -0.11787478     0.00053599651
   1977000   0.049258595   -0.22774844     0.034778866   -0.11908644     0.00041284768
   1978000   0.049997884   -0.22758731     0.035125399   -0.11746993     9.0799602e-05
   1979000   0.050150837   -0.22759799     0.034973415   -0.11740317     0.00024374238
   1980000   0.050211392   -0.22743952     0.03503233    -0.11709496     0.00013674869
   1981000   0.050518546   -0.22740251     0.035587894   -0.11604168     0.00015734692
   1982000   0.050186607   -0.22751377     0.035589841   -0.11664888     0.00022654888
   1983000   0.05036388    -0.22762904     0.035286626   -0.11680147     0.00027150443
   1984000   0.050830197   -0.22761859     0.035172094   -0.11620612     0.00015958116
   1985000   0.049894775   -0.22735371     0.034916367   -0.11760001     0.00018008768
   1986000   0.049974296   -0.22768805     0.034759399   -0.11797204     0.00036143605
   1987000   0.049558148   -0.2273808      0.035390501   -0.11765788     0.00034229112
   1988000   0.050292039   -0.2279499      0.03491709    -0.11759962     0.00059059855
   1989000   0.050194819   -0.22752178     0.035011904   -0.1172225      0.00060215141
   1990000   0.049810751   -0.22751964     0.035384097   -0.11742424     0.00026058038
   1991000   0.049762034   -0.22755433     0.035083431   -0.11783267    -0.00014911827
   1992000   0.04934177    -0.22769601     0.035418354   -0.11826978     0.00023380129
   1993000   0.049717906   -0.22781428     0.034949753   -0.11829248     0.0006072862 
   1994000   0.049872253   -0.22796404     0.035846625   -0.11731386     0.0004662439 
   1995000   0.049841223   -0.22810084     0.035350873   -0.11799296    -3.5879055e-05
   1996000   0.050469827   -0.22795547     0.035234955   -0.11702066     0.00077021738
   1997000   0.050316102   -0.22782356     0.035932294   -0.11642198     6.0586697e-05
   1998000   0.051211595   -0.22767699     0.035671108   -0.11519345     0.00039420238
   1999000   0.050579524   -0.22755503     0.035575597   -0.11611504     0.00016362374
   2000000   0.049862401   -0.22787934     0.034893003   -0.11819756     0.0003942529 
   2001000   0.049401397   -0.22779155     0.035326762   -0.11836748     0.00069862831
   2002000   0.050070995   -0.22828422     0.034821036   -0.11836153     3.79507e-05  
   2003000   0.04994539    -0.22819648     0.035431277   -0.11785195     3.1819523e-05
   2004000   0.049599746   -0.22786364     0.035481139   -0.11798768     0.00038457861
   2005000   0.050411282   -0.22789688     0.035045964   -0.11723887     0.00072155984
   2006000   0.050286486   -0.22776546     0.035142501   -0.1171981      0.00020094279
   2007000   0.05008815    -0.22795589     0.035596565   -0.11723194     0.00014867026
   2008000   0.050645888   -0.22783322     0.035652587   -0.1162167      0.00068955307
   2009000   0.049356485   -0.22783481     0.035351557   -0.1184533      0.00022540303
   2010000   0.050707233   -0.22812913     0.035148762   -0.11692443     0.00011507289
   2011000   0.049968217   -0.22811206     0.035101767   -0.1180628      0.00041065002
   2012000   0.050027314   -0.22812349     0.034454457   -0.1186329      0.0004618201 
   2013000   0.0497044     -0.22774681     0.034828902   -0.11836612     0.00052527825
   2014000   0.050215911   -0.22824671     0.034774888   -0.11815281     0.00045961162
   2015000   0.050046251   -0.22840586     0.035425554   -0.11791577     0.00032644987
   2016000   0.050379617   -0.22848886     0.035432129   -0.11749218    -6.8621407e-05
   2017000   0.051158857   -0.22853686     0.035254309   -0.11654922     0.00079485744
   2018000   0.049928156   -0.22888349     0.03536393    -0.11863216     0.00038087265
   2019000   0.049970723   -0.22874289     0.035299112   -0.11849252     1.5746334e-05
   2020000   0.050215267   -0.22896419     0.035547165   -0.11809899     0.00011880467
   2021000   0.050044909   -0.22924168     0.034642935   -0.11953623     0.00013200587
   2022000   0.049478406   -0.22890367     0.035182587   -0.11950826     0.00062696186
   2023000   0.05061415    -0.22941136     0.035303101   -0.11819193    -0.00015789688
   2024000   0.049764452   -0.2289773      0.035333423   -0.11900201     0.00029571646
   2025000   0.049524908   -0.22950534     0.035478431   -0.11974434     0.00038170379
   2026000   0.049792752   -0.2295106      0.035089983   -0.11973631     0.00062170276
   2027000   0.049795956   -0.22929242     0.035248535   -0.11935477     0.00030689437
   2028000   0.050064453   -0.22931044     0.035088103   -0.1191305      0.00040740745
   2029000   0.050108309   -0.22963955     0.035638442   -0.11884349     0.00024694599
   2030000   0.050554902   -0.22968252     0.035788513   -0.11806654    -2.5189149e-05
   2031000   0.050523756   -0.2297046      0.035561551   -0.1183623      0.00014215578
   2032000   0.050240728   -0.22979244     0.035449089   -0.11898712     0.00034316096
   2033000   0.049730564   -0.22988797     0.034863997   -0.12043293     0.00019560035
   2034000   0.049688145   -0.23033065     0.035277841   -0.1205254      0.00050389936
   2035000   0.050403124   -0.23018747     0.03541493    -0.11917273    -5.5720195e-05
   2036000   0.050292325   -0.22986688     0.035081221   -0.11935203     0.00030323489
   2037000   0.050269659   -0.23019404     0.034424374   -0.12037004     0.00046380918
   2038000   0.04986754    -0.23002495     0.034568356   -0.12066011     0.00028647705
   2039000   0.050102652   -0.22966118     0.035339283   -0.11917276     0.00015520415
   2040000   0.0494801     -0.23033588     0.035286387   -0.12083413     0.00015018326
   2041000   0.049981233   -0.23007027     0.03559023    -0.11951303     0.0001682036 
   2042000   0.050512564   -0.23022803     0.034995591   -0.11946848     0.00050479503
   2043000   0.049852898   -0.23022329     0.034916786   -0.12053198     0.00061276221
   2044000   0.049907254   -0.23032088     0.035286881   -0.12017795     8.7071152e-07
   2045000   0.050100319   -0.23006155     0.034948568   -0.11996735     0.0004819443 
   2046000   0.050570938   -0.2302703      0.034996205   -0.11942258     5.0092625e-06
   2047000   0.049991568   -0.23050532     0.035360659   -0.12016214     0.00050428034
   2048000   0.049795772   -0.23063449     0.035343853   -0.1206018      0.00010947059
   2049000   0.049791918   -0.23063441     0.0349519     -0.12099945     0.00015395698
   2050000   0.049417932   -0.23081325     0.034780123   -0.12191101     0.00010489266
   2051000   0.04993147    -0.23082853     0.035496134   -0.12044002     0.00054980045
   2052000   0.049654781   -0.23073725     0.035001994   -0.12125789     9.352065e-05 
   2053000   0.05013476    -0.23070874     0.035050876   -0.12046058     0.00044223825
   2054000   0.050092795   -0.23084826     0.035605518   -0.12010839    -4.7407182e-06
   2055000   0.050078575   -0.23027102     0.035501377   -0.11965663     0.00017613707
   2056000   0.050348772   -0.23061019     0.035637834   -0.11945407     6.3627522e-05
   2057000   0.049789183   -0.23073876     0.035278087   -0.12078172     0.0003700361 
   2058000   0.049387782   -0.23123274     0.035146101   -0.12200974     0.00010755667
   2059000   0.050247833   -0.2310379      0.035464439   -0.12020657     0.00028079085
   2060000   0.050043925   -0.23145247     0.035933426   -0.120458      -6.4856819e-05
   2061000   0.05022492    -0.23121699     0.03593709    -0.11994739     0.00032059202
   2062000   0.049768219   -0.23141026     0.035156872   -0.12160588     0.0001859179 
   2063000   0.050309511   -0.23104397     0.034939945   -0.12064462     0.00079564634
   2064000   0.050297489   -0.23085616     0.035308926   -0.12010587     0.00020389534
   2065000   0.050214002   -0.23116282     0.035992117   -0.11985456     0.00032008453
   2066000   0.050174076   -0.2312884      0.035910528   -0.12012162     4.1357182e-05
   2067000   0.04992756    -0.23143883     0.035497391   -0.12105493    -4.9396372e-05
   2068000   0.050241806   -0.23113355     0.035085681   -0.12069003     0.00024797032
   2069000   0.049445107   -0.23140894     0.035226787   -0.12201928     0.00073180064
   2070000   0.049677499   -0.23137827     0.035829558   -0.12103727     0.0001837174 
   2071000   0.049881087   -0.23144944     0.035875925   -0.12075672     0.00043594994
   2072000   0.049975602   -0.23154824     0.035664745   -0.12092492     7.3186442e-05
   2073000   0.050136213   -0.23197487     0.034643711   -0.12213169     0.00037320339
   2074000   0.050440312   -0.23178008     0.035305588   -0.1208189     -3.0798987e-05
   2075000   0.049702647   -0.23201462     0.034564378   -0.12290108     8.7288285e-07
   2076000   0.049343792   -0.23202097     0.035104351   -0.1229057      0.00021090035
   2077000   0.049375275   -0.23169378     0.03496574    -0.12266991     1.9416412e-05
   2078000   0.049781111   -0.2317394      0.035344352   -0.1217282      0.00040848515
   2079000   0.049934913   -0.2317931      0.035324116   -0.12157144     0.00041516823
   2080000   0.04966574    -0.2320692      0.035313467   -0.12226193     0.0001529008 
   2081000   0.050211934   -0.23160004     0.034572819   -0.12171418     0.00056263329
   2082000   0.049673818   -0.23216089     0.035788725   -0.12186624     4.8324193e-05
   2083000   0.049574278   -0.23214649     0.03568573    -0.12210414    -5.4579127e-05
   2084000   0.050427637   -0.23205704     0.035400272   -0.12102019     2.0040376e-05
   2085000   0.04939108    -0.2323071      0.034585961   -0.1236393      0.00045836192
   2086000   0.050013685   -0.23244862     0.034699876   -0.12273306    -0.00023904564
   2087000   0.05006044    -0.23245226     0.035417418   -0.12194903     0.00026668677
   2088000   0.050355957   -0.23222804     0.03460984    -0.12208914     0.00063461556
   2089000   0.050337539   -0.2323827      0.034930261   -0.12195101     0.00012682455
   2090000   0.050110577   -0.23251526     0.035452847   -0.12190139     0.00017811156
   2091000   0.049914922   -0.23235221     0.035088426   -0.12239623     0.00054923061
   2092000   0.049967269   -0.23244387     0.034537864   -0.12295993     0.00044958773
   2093000   0.05037115    -0.23263135     0.034946274   -0.12213323     9.2060241e-05
   2094000   0.050030352   -0.23280517     0.035186197   -0.12257828     3.3205616e-06
   2095000   0.050749896   -0.23260418     0.035379222   -0.12110503     0.0009562991 
   2096000   0.049889192   -0.23238441     0.034744475   -0.12281097     0.00034989134
   2097000   0.050072466   -0.23291307     0.035316891   -0.12249233     0.00046263571
   2098000   0.050134345   -0.23309023     0.034990827   -0.12290273     0.00065472771
   2099000   0.050566846   -0.23319554     0.035193347   -0.12215682     0.00020015308
   2100000   0.050024689   -0.23326757     0.035450938   -0.12278444     0.00023800724
   2101000   0.049854058   -0.23287115     0.035183154   -0.12291174     0.00036937914
   2102000   0.049760227   -0.23293998     0.035482096   -0.12282236     5.510439e-05 
   2103000   0.050209086   -0.23301847     0.035360964   -0.12234874     5.9634034e-05
   2104000   0.04995975    -0.23296001     0.03537493    -0.12265028    -4.3796862e-05
   2105000   0.050097501   -0.23330382     0.035237387   -0.12292503     0.00028563822
   2106000   0.04982293    -0.23338271     0.034616276   -0.12403686     5.4072566e-05
   2107000   0.049877446   -0.23326145     0.034640631   -0.12380947    -1.4678853e-05
   2108000   0.049948463   -0.23336173     0.035187914   -0.12325596     6.3930318e-05
   2109000   0.049850004   -0.23330804     0.035330067   -0.12320779     0.00045255176
   2110000   0.049703859   -0.23313189     0.035800621   -0.12278029     8.9360655e-05
   2111000   0.049811045   -0.23358914     0.035297391   -0.12358001     0.00018221025
   2112000   0.050201318   -0.23346039     0.03476538    -0.12339789     0.00048445576
   2113000   0.050153699   -0.23364318     0.035584028   -0.12283346     0.00035565953
   2114000   0.049769354   -0.23334097     0.035112392   -0.12357937     0.00041768604
   2115000   0.05022713    -0.23368542     0.035240879   -0.12310871     2.4791962e-05
   2116000   0.050299432   -0.23381033     0.03547759    -0.12288846     0.00037957809
   2117000   0.050290941   -0.23382553     0.034898518   -0.12349547     7.2037926e-05
   2118000   0.049965774   -0.23387305     0.035209137   -0.12372009    -0.00028759668
   2119000   0.049895383   -0.23389085     0.035014104   -0.1240385      0.00019793673
   2120000   0.050241461   -0.23395965     0.035115023   -0.1234873      0.00049833883
   2121000   0.050184167   -0.23424816     0.035252471   -0.12372429    -0.00027978891
   2122000   0.050524263   -0.23421313     0.034288499   -0.12414313     2.0072595e-05
   2123000   0.050426036   -0.23398017     0.035211864   -0.12313413     0.00019554867
   2124000   0.050467473   -0.23401318     0.035343711   -0.12297314     0.00042971363
   2125000   0.050263618   -0.23417259     0.035529171   -0.12325286     0.0001770414 
   2126000   0.050372109   -0.2340068      0.035505929   -0.12294758    -0.00011605033
   2127000   0.04981869    -0.23394782     0.035470625   -0.12375398     0.00045540862
   2128000   0.05006219    -0.23427094     0.035244102   -0.1239384      0.00018694204
   2129000   0.050559111   -0.23398255     0.034898488   -0.12325029     0.00038111074
   2130000   0.049906115   -0.23414893     0.035318099   -0.12397648     0.00037008017
   2131000   0.050253793   -0.23423921     0.035096398   -0.12376699     0.00039714486
   2132000   0.049910235   -0.23412052     0.03521937    -0.12404063    -4.3901074e-05
   2133000   0.050122355   -0.23429331     0.035266919   -0.12384771     0.00021104579
   2134000   0.049619135   -0.23392313     0.035281027   -0.1242182      0.00063233912
   2135000   0.050248957   -0.23447587     0.034906485   -0.12420081     0.00015378986
   2136000   0.049902956   -0.23460206     0.035294807   -0.12445764     0.00019644603
   2137000   0.050532579   -0.23423853     0.035451815   -0.12299274     0.00034593115
   2138000   0.049978473   -0.23423097     0.035367882   -0.12390022     0.00037447346
   2139000   0.049506626   -0.2342451      0.035158769   -0.12483119     0.0003943751 
   2140000   0.049671292   -0.23436835     0.034317236   -0.12554899     0.00027710239
   2141000   0.049813769   -0.2344588      0.035164962   -0.12457801     0.00068126106
   2142000   0.050006991   -0.23446082     0.03544602    -0.12400915     4.0341936e-05
   2143000   0.050141919   -0.23441112     0.03513784    -0.12406526     1.2852779e-05
   2144000   0.049785871   -0.23445777     0.035318507   -0.12446527    -8.6095728e-05
   2145000   0.049932553   -0.23422517     0.035065488   -0.12426568     0.00045980858
   2146000   0.050258172   -0.23458704     0.03552295    -0.12368169    -2.5229439e-05
   2147000   0.049807768   -0.23456061     0.034936345   -0.12491744     0.00023782759
   2148000   0.049894098   -0.23426412     0.034958344   -0.12446946    -9.852615e-06 
   2149000   0.049869919   -0.23461751     0.035217827   -0.12459963     0.00044090339
   2150000   0.049837795   -0.23466934     0.035436651   -0.12448082     0.00028567105
   2151000   0.049711559   -0.23477599     0.035884855   -0.12432861     0.00031881868
   2152000   0.049973784   -0.23517047     0.035172081   -0.12504255    -0.00018895911
   2153000   0.049699585   -0.23488046     0.034958607   -0.12537729     0.00026289058
   2154000   0.049672113   -0.23494843     0.034891064   -0.125554       0.00044939664
   2155000   0.049924863   -0.23489618     0.035356623   -0.12465709     1.9532584e-05
   2156000   0.050363889   -0.23496985     0.035343356   -0.12408554     0.0002776502 
   2157000   0.049933293   -0.23524064     0.035265659   -0.12507987    -4.7674695e-05
   2158000   0.049940844   -0.23495732     0.035983366   -0.12406752     0.00035031986
   2159000   0.049707525   -0.23504411     0.03515717    -0.12533046     0.00040140922
   2160000   0.049894441   -0.23508026     0.035180466   -0.12506296     0.00020875249
   2161000   0.049505354   -0.23525025     0.035017107   -0.12597991     0.00045946135
   2162000   0.049441615   -0.23526726     0.035615052   -0.12549457     0.00015419219
   2163000   0.049535021   -0.23529446     0.035194779   -0.12580195    -0.00010027383
   2164000   0.049894727   -0.23505923     0.034922178   -0.12529979     0.00013342371
   2165000   0.049759506   -0.23503848     0.034324119   -0.12607992     0.00061563138
   2166000   0.050248108   -0.23529886     0.035975237   -0.12395632     8.2946504e-05
   2167000   0.050107336   -0.23522059     0.03514487    -0.12491957     0.00056804286
   2168000   0.049550139   -0.23521423     0.034537478   -0.12635634     0.00019423091
   2169000   0.049588223   -0.23554302     0.035232957   -0.12593252     0.00019324695
   2170000   0.04992553    -0.23538751     0.034701081   -0.12580297     7.57664e-05  
   2171000   0.049922991   -0.23551772     0.03542531    -0.12521276    -2.2127808e-05
   2172000   0.049308352   -0.23558902     0.03645428    -0.12517698     0.00038029705
   2173000   0.050046655   -0.23549339     0.035547177   -0.12488107     0.00014152905
   2174000   0.05040885    -0.2355447      0.035060628   -0.12487567     0.00036698048
   2175000   0.050022406   -0.23571179     0.035658508   -0.12502451     0.00059213181
   2176000   0.049803792   -0.23560606     0.035391303   -0.12551389     0.00025706727
   2177000   0.04981314    -0.2359801      0.035375591   -0.12588962     0.00065636658
   2178000   0.049806396   -0.23538607     0.03557329    -0.12510801     0.00042541833
   2179000   0.049385076   -0.23519303     0.035171292   -0.12594891     0.00021749577
   2180000   0.049831087   -0.23533658     0.035527678   -0.1250671      0.00043189665
   2181000   0.050593022   -0.23590862     0.035584826   -0.12443916     0.000364938  
   2182000   0.049749833   -0.23559284     0.035472527   -0.12550038     7.9278794e-05
   2183000   0.050090242   -0.23570418     0.035569416   -0.12500425     0.00064835187
   2184000   0.049965831   -0.23567852     0.035075122   -0.12565949     0.00053607652
   2185000   0.050675871   -0.23577482     0.034599848   -0.12516607     0.00021924423
   2186000   0.05019342    -0.23594934     0.035234433   -0.12542964     0.0005823224 
   2187000   0.050268684   -0.23573036     0.035246023   -0.12508618     0.00050960148
   2188000   0.050041301   -0.23625887     0.035578268   -0.12562349     0.00020943478
   2189000   0.050012269   -0.23586688     0.034582385   -0.12627093     0.00041421748
   2190000   0.049860933   -0.2361895      0.035253796   -0.12614913    -0.0001608427 
   2191000   0.049958461   -0.23616531     0.035382377   -0.12585007     0.00031926587
   2192000   0.050024373   -0.23588039     0.035467502   -0.12538117     0.00043964049
   2193000   0.049739041   -0.23613511     0.035020782   -0.12651058     0.00026496267
   2194000   0.049795735   -0.23644033     0.034659902   -0.12709164    -2.1941547e-05
   2195000   0.050148336   -0.23654286     0.034967025   -0.12635818     0.00049369365
   2196000   0.049709075   -0.23634488     0.035257593   -0.12652848     0.00020489173
   2197000   0.050037865   -0.23668819     0.035147237   -0.126489      -0.00027689592
   2198000   0.049225422   -0.23627767     0.035244205   -0.1272001      0.00037878453
   2199000   0.049874914   -0.23654646     0.035252996   -0.12648591     0.00024605102
   2200000   0.049974487   -0.23673011     0.035182391   -0.12659082     0.00030678309
   2201000   0.049889212   -0.23696906     0.035113695   -0.12702637     0.00046012949
   2202000   0.049915104   -0.23636516     0.035552364   -0.12594497     0.00073425964
   2203000   0.050044368   -0.23647509     0.035215454   -0.12619793     0.00020032777
   2204000   0.050443956   -0.2364642      0.035126359   -0.12567679     0.00048589746
   2205000   0.050265566   -0.23634194     0.035141524   -0.12580693     0.00021035263
   2206000   0.050413197   -0.23689386     0.035386827   -0.12589212     0.00020571143
   2207000   0.050026852   -0.23668477     0.034930692   -0.12671864     0.00011683942
   2208000   0.049691031   -0.23695624     0.035566958   -0.12685755     0.00027105767
   2209000   0.050804994   -0.23701705     0.034688008   -0.12612647     0.00045441794
   2210000   0.050077895   -0.23702526     0.034931302   -0.12698196     0.00027924393
   2211000   0.050443588   -0.2371359      0.034769623   -0.12670578     0.00017622305
   2212000   0.049879833   -0.23703678     0.035541479   -0.12668038     0.0002397711 
   2213000   0.050154734   -0.23710106     0.034694204   -0.12717961     0.00039986966
   2214000   0.050220653   -0.2371029      0.035192474   -0.12658431     0.00015809273
   2215000   0.049411747   -0.23743316     0.03520459    -0.12811573     0.00028348197
   2216000   0.049927194   -0.23740146     0.035345585   -0.12716991     4.9127294e-05
   2217000   0.049649768   -0.23724395     0.035192419   -0.12758168     0.00019953187
   2218000   0.049981011   -0.23762309     0.035616867   -0.12703954     3.0163235e-05
   2219000   0.049930502   -0.23750995     0.035552336   -0.12706669     0.00031731374
   2220000   0.049948165   -0.23739141     0.035605243   -0.12686876     0.00049968831
   2221000   0.050247692   -0.23769486     0.035731249   -0.12659694     0.00027537841
   2222000   0.050050266   -0.23732611     0.035226573   -0.12702898     0.00031188512
   2223000   0.049880424   -0.23766208     0.03541985    -0.12742642     0.00040916873
   2224000   0.049583415   -0.23758723     0.035275979   -0.12794092     5.4835161e-05
   2225000   0.049970769   -0.23757387     0.035672991   -0.12694956     0.00081397907
   2226000   0.050047802   -0.23724972     0.035076573   -0.12710628     0.00010366142
   2227000   0.049964337   -0.23779121     0.03512079    -0.12772875     0.00010977426
   2228000   0.050142864   -0.23770809     0.034827345   -0.1276713      0.00069856073
   2229000   0.05007281    -0.23722011     0.035420141   -0.1266956      0.00058156034
   2230000   0.050415674   -0.23778201     0.035141365   -0.12702201     0.00033109448
   2231000   0.050057927   -0.23756875     0.035072875   -0.12741383     0.00025757825
   2232000   0.050321167   -0.23768829     0.03516385    -0.12704756     0.00016624505
   2233000   0.049805798   -0.23764029     0.03568353    -0.12725288    -0.00019277933
   2234000   0.050103505   -0.23770825     0.035013193   -0.12754465     0.00035392283
   2235000   0.049367036   -0.23774116     0.035615364   -0.12808002    -0.00012005653
   2236000   0.049763335   -0.23770526     0.035465373   -0.1275997     -0.00011633355
   2237000   0.050286946   -0.23798802     0.035749808   -0.12681266     0.00010427406
   2238000   0.050115879   -0.23773968     0.03501565    -0.12755506     6.759593e-05 
   2239000   0.050666199   -0.2376358      0.035715645   -0.12592576     2.5334078e-05
   2240000   0.05036427    -0.23779949     0.034936308   -0.12732165     0.00022950709
   2241000   0.049993641   -0.23835414     0.035520181   -0.12784834     1.5449956e-05
   2242000   0.050349044   -0.23811619     0.035391591   -0.1272059      6.9330899e-05
   2243000   0.049567889   -0.23792055     0.035705024   -0.12786849     0.00031763143
   2244000   0.049926554   -0.23785799     0.036005756   -0.12696724     0.00021750154
   2245000   0.05076754    -0.23800956     0.034891304   -0.12697186     0.00028109309
   2246000   0.050256159   -0.23766829     0.035810832   -0.12647808     0.00010007311
   2247000   0.050113404   -0.23813765     0.035973547   -0.12699884    -0.00011041944
   2248000   0.050449019   -0.23789999     0.034908251   -0.12732309     0.00097930477
   2249000   0.049838345   -0.23811447     0.03541682    -0.12794496     4.5525834e-05
   2250000   0.050203613   -0.23836614     0.035452409   -0.12761317     3.7020755e-05
   2251000   0.05003403    -0.23799607     0.034786859   -0.12816301     0.00042601283
   2252000   0.049744126   -0.23850309     0.034952176   -0.12893954     7.3892824e-05
   2253000   0.050548257   -0.23809865     0.035481052   -0.1268001      0.00010721573
   2254000   0.049971787   -0.23856759     0.035279754   -0.12833499     4.279157e-05 
   2255000   0.050194984   -0.23842887     0.035416585   -0.12772466    -5.9644782e-05
   2256000   0.050157613   -0.23792381     0.03422807    -0.12846417     0.00062972061
   2257000   0.049941522   -0.23854998     0.035451229   -0.1281913     -6.7290031e-05
   2258000   0.049325455   -0.23847997     0.035253406   -0.12924316     0.00011703093
   2259000   0.050325135   -0.23876549     0.035321445   -0.12796121     8.8834438e-05
   2260000   0.050115028   -0.23822051     0.035258744   -0.12779407     0.00022427422
   2261000   0.049974992   -0.23868508     0.035833906   -0.12789352     0.00036899479
   2262000   0.050647316   -0.2387222      0.035059448   -0.12769668     0.00042409154
   2263000   0.050308343   -0.23888671     0.034980069   -0.128449       0.00035232275
   2264000   0.049639305   -0.23855601     0.034978432   -0.12912342     0.00031988872
   2265000   0.049297571   -0.23910708     0.035773451   -0.12939204     0.00013649457
   2266000   0.049849789   -0.2387009      0.035099095   -0.12883195    -0.0002369658 
   2267000   0.049706723   -0.23894506     0.035351907   -0.12903788     0.00021442289
   2268000   0.049766466   -0.23870372     0.035477001   -0.12858183     0.00048800403
   2269000   0.049694035   -0.23866492     0.035152426   -0.12897625     0.00054803233
   2270000   0.050174528   -0.23899281     0.035195063   -0.12854081     6.468271e-05 
   2271000   0.04987147    -0.23885941     0.035368459   -0.12868858     4.4527989e-05
   2272000   0.049982712   -0.23906573     0.035577054   -0.12851945     0.00019732326
   2273000   0.050565993   -0.23906293     0.035065715   -0.12815312     0.00045475161
   2274000   0.049675235   -0.23877743     0.035104264   -0.12916512     0.00016731193
   2275000   0.050265966   -0.23920757     0.035444767   -0.12836872     0.00034630689
   2276000   0.049871455   -0.23929574     0.035292497   -0.12920089     0.00022008518
   2277000   0.049893124   -0.23899034     0.034770862   -0.12938462     0.00035153725
   2278000   0.049799829   -0.23952195     0.03523027    -0.12959676    -1.7568587e-05
   2279000   0.04998917    -0.23947534     0.035473714   -0.12902271     6.0882021e-05
   2280000   0.049516765   -0.23936806     0.035184547   -0.12991315     0.00038972131
   2281000   0.049684306   -0.23906596     0.035456184   -0.12908812     0.00035660256
   2282000   0.05042067    -0.23935706     0.03542063    -0.1283103      0.00019596193
   2283000   0.049952166   -0.23929833     0.036021775   -0.12835314     0.00035009154
   2284000   0.050009151   -0.2394525      0.035707343   -0.12873627     1.5497095e-05
   2285000   0.050152911   -0.23933986     0.035168607   -0.12894674     0.00056191517
   2286000   0.049508457   -0.23933845     0.035103461   -0.12997709     0.0002876747 
   2287000   0.049956164   -0.2389139      0.035045347   -0.12893914     0.00038588252
   2288000   0.050465439   -0.23928528     0.03505819    -0.12853382     0.00056168922
   2289000   0.050333702   -0.23972911     0.03540695    -0.12882648    -0.000121713  
   2290000   0.050158117   -0.23928573     0.035336549   -0.12871686     0.00047865187
   2291000   0.049973948   -0.23953596     0.03556135    -0.12901853     0.00020521556
   2292000   0.050181189   -0.23981772     0.034855284   -0.12969551     0.00020530315
   2293000   0.050557051   -0.23976179     0.035579819   -0.12835129     0.00020860846
   2294000   0.050471517   -0.23994552     0.035344396   -0.12889874     0.00030169986
   2295000   0.049597288   -0.23964238     0.036181199   -0.12907005     0.00025180921
   2296000   0.049447151   -0.23964744     0.03448869    -0.13099281     3.2496605e-05
   2297000   0.049828199   -0.23992285     0.034955139   -0.13023024     0.00030938116
   2298000   0.049696101   -0.23976664     0.03497398    -0.13025332     0.00053472385
   2299000   0.050255664   -0.23963857     0.035508885   -0.12875105    -0.00011775552
   2300000   0.050598694   -0.23990817     0.034971885   -0.12904314     0.00056700475
   2301000   0.050077583   -0.23974373     0.034980439   -0.12965176     0.00035341409
   2302000   0.050444949   -0.23972386     0.034891055   -0.12917026     0.00015707167
   2303000   0.050181987   -0.23975367     0.035478078   -0.12900747     0.00013313528
   2304000   0.049919371   -0.239893       0.035158727   -0.12986004     0.0002264767 
   2305000   0.049608473   -0.23996253     0.035190729   -0.1303639      0.00027387514
   2306000   0.049902679   -0.24018114     0.035175833   -0.13015612     8.6285717e-05
   2307000   0.050175035   -0.24003775     0.035175306   -0.12960475     0.0003313121 
   2308000   0.049819578   -0.24031557     0.035743534   -0.12984749     5.7446107e-05
   2309000   0.050246286   -0.24029433     0.035445259   -0.1294845      0.00068556644
   2310000   0.050207854   -0.24005559     0.035356905   -0.12939176     0.0003403194 
   2311000   0.050306957   -0.24026795     0.035511696   -0.12930069     0.00013551303
   2312000   0.050412953   -0.24040522     0.035561527   -0.12922914     0.00029929733
   2313000   0.050263726   -0.24005295     0.035882708   -0.12877952     0.00037794533
   2314000   0.050102495   -0.24052284     0.034600094   -0.13077385     0.00029097881
   2315000   0.049787336   -0.24055284     0.035624822   -0.13025184    -3.9807621e-05
   2316000   0.050107476   -0.24077107     0.035549538   -0.13006517     0.00011342986
   2317000   0.050086336   -0.2404348      0.03541631    -0.12989384     5.8928745e-05
   2318000   0.050063029   -0.24055965     0.035478319   -0.12999163    -0.00013055859
   2319000   0.049927687   -0.24035664     0.035262335   -0.1302076      0.00055825691
   2320000   0.049954566   -0.24077439     0.03491991    -0.13092747     0.00027624756
   2321000   0.049987493   -0.24056523     0.035339943   -0.13024888     0.00063486121
   2322000   0.049548576   -0.24064893     0.035852242   -0.13047862     0.00010729517
   2323000   0.049644342   -0.24049573     0.035241779   -0.13079224     0.00029406526
   2324000   0.050404465   -0.24052987     0.035286474   -0.12964158     0.00024205804
   2325000   0.049663893   -0.24064739     0.035498942   -0.13065741     0.00045144497
   2326000   0.050052579   -0.24090039     0.035390237   -0.13043613     5.3620641e-05
   2327000   0.049878784   -0.24075558     0.034737899   -0.13120433     0.00010942022
   2328000   0.050092873   -0.2407075      0.035043643   -0.13052939     0.00011515551
   2329000   0.049981562   -0.24104697     0.03532772    -0.13075175     0.00011527329
   2330000   0.050060364   -0.24076963     0.035569954   -0.13011397     0.00012858098
   2331000   0.049808196   -0.24081028     0.034927213   -0.13117559     0.00018921831
   2332000   0.050453611   -0.24090709     0.034448491   -0.13078307     0.0003953329 
   2333000   0.050278097   -0.24075033     0.034764786   -0.13057326     0.00040062592
   2334000   0.050058804   -0.24086122     0.035099458   -0.1306784     -3.4777166e-07
   2335000   0.050699263   -0.24108243     0.035199543   -0.1298389      0.00083429646
   2336000   0.049783532   -0.24085537     0.035356265   -0.13082862     0.00037407826
   2337000   0.050027953   -0.24087182     0.034838759   -0.13099597     0.00020364418
   2338000   0.049753011   -0.24117916     0.035101566   -0.13145289     7.6196744e-05
   2339000   0.050843363   -0.24151742     0.035154778   -0.13010252     0.00028807693
   2340000   0.050516471   -0.24091832     0.035604321   -0.12954418     0.00054320989
   2341000   0.050435787   -0.24128092     0.035097727   -0.1305344      0.00018242958
   2342000   0.049204263   -0.24160528     0.035570577   -0.13223307     0.00051081554
   2343000   0.05011323    -0.24164525     0.035179549   -0.1313007      0.00054417697
   2344000   0.049976785   -0.24134763     0.035102326   -0.13128496     0.00016024941
   2345000   0.050640447   -0.2412372      0.034662714   -0.13061872     0.00048755333
   2346000   0.050048313   -0.24126799     0.035411214   -0.13078915    -0.00022738475
   2347000   0.04992279    -0.24144309     0.035646693   -0.13091704     6.6843823e-05
   2348000   0.050083648   -0.24123835     0.035223915   -0.13089381     1.534847e-05 
   2349000   0.050215742   -0.24141496     0.035260566   -0.13083564     0.00047347932
   2350000   0.049927793   -0.24129513     0.034662388   -0.13174588     0.00015970664
   2351000   0.04963769    -0.24165591     0.035263408   -0.13194078     0.00017496012
   2352000   0.050081653   -0.24168168     0.035441197   -0.13112285     0.00015083507
   2353000   0.049760776   -0.24169994     0.035479473   -0.13158412     0.00038654559
   2354000   0.04985597    -0.24180632     0.035774483   -0.13125271     0.00023384072
   2355000   0.050065095   -0.2415435      0.035115982   -0.13133472     0.00045915767
   2356000   0.049604592   -0.24184707     0.034956917   -0.13248806     0.00020645647
   2357000   0.049787119   -0.24208778     0.034620245   -0.13279168     4.0074504e-05
   2358000   0.050038554   -0.2418584      0.035099913   -0.1317055      0.00047624872
   2359000   0.050196769   -0.24164943     0.035213153   -0.13114598    -0.00012409801
   2360000   0.050086375   -0.24206526     0.035363527   -0.13157701     1.8342565e-05
   2361000   0.049949392   -0.24193082     0.035134453   -0.13187711     0.00016691934
   2362000   0.050112024   -0.2417825      0.035000503   -0.13161881     0.00035983422
   2363000   0.050175104   -0.24205501     0.035376996   -0.13142021     0.00061394731
   2364000   0.050324427   -0.24216384     0.035497794   -0.13118427     5.5582417e-05
   2365000   0.050459862   -0.24200368     0.035202737   -0.13111603     0.00050680575
   2366000   0.050534441   -0.24234422     0.035803091   -0.13074436     0.00048161642
   2367000   0.050021312   -0.24252698     0.035269317   -0.13223054     0.00028222188
   2368000   0.050090053   -0.24241949     0.035101179   -0.13218808     0.00044937746
   2369000   0.050019502   -0.24220795     0.035820843   -0.13136269    -6.7373356e-05
   2370000   0.050303767   -0.24216079     0.035270989   -0.13143902     0.00032517927
   2371000   0.050279876   -0.24252146     0.035606119   -0.1315004      0.00035351961
   2372000   0.049872049   -0.2426998      0.035672952   -0.1322236      0.00013407023
   2373000   0.050190983   -0.24277065     0.035160741   -0.13232829     0.00031717659
   2374000   0.049710403   -0.24250557     0.035626634   -0.13231814    -0.00015403014
   2375000   0.05027356    -0.24267153     0.0352226     -0.13204345     0.00031860457
   2376000   0.050469742   -0.24239548     0.035525275   -0.13117047     0.0002383424 
   2377000   0.050274157   -0.2426697      0.03534798    -0.13191535     0.00010715232
   2378000   0.050655391   -0.24239553     0.035039771   -0.13137758     0.0005349563 
   2379000   0.050187256   -0.2424783      0.035686786   -0.13151549     0.00020675801
   2380000   0.050291308   -0.24254436     0.035297608   -0.13181465    -0.00023112863
   2381000   0.050510025   -0.24238601     0.035286455   -0.1313394     -8.4800847e-06
   2382000   0.049543016   -0.24272557     0.035337727   -0.13307811     0.00012998112
   2383000   0.049859478   -0.2429713      0.035380542   -0.13280636     0.00027169404
   2384000   0.050111708   -0.24286496     0.035541887   -0.13216036    -0.00021974197
   2385000   0.049786154   -0.24283987     0.034445816   -0.13371964     0.00023803008
   2386000   0.049666657   -0.24281248     0.035597837   -0.13271947     0.00050911483
   2387000   0.04982831    -0.24299942     0.035362646   -0.13289913     0.00027511263
   2388000   0.049446494   -0.24265175     0.035076737   -0.13341006     0.00047263419
   2389000   0.050039605   -0.24260797     0.035634088   -0.13191931    -2.9013573e-05
   2390000   0.049826677   -0.24262047     0.03540366    -0.13248161     0.00038595334
   2391000   0.050382913   -0.2428791      0.035234564   -0.13207504     0.00039286404
   2392000   0.049942389   -0.24298889     0.035145419   -0.13293472     0.00060904507
   2393000   0.049611585   -0.24292675     0.035153442   -0.13336073     0.00023196542
   2394000   0.049840583   -0.24281433     0.03539387    -0.13266441     0.00026500434
   2395000   0.049798963   -0.24256085     0.035292107   -0.13257512     0.00013586356
   2396000   0.050274077   -0.2427886      0.036030912   -0.13135143     0.0001633207 
   2397000   0.049908103   -0.24293943     0.035630638   -0.13245147     0.00011878927
   2398000   0.050202119   -0.24296153     0.034585654   -0.13307755    -6.1353727e-05
   2399000   0.050347756   -0.24300852     0.034907689   -0.13258407     0.00026727685
   2400000   0.049916113   -0.24291646     0.035344444   -0.13270267    -1.8798466e-05
   2401000   0.05000086    -0.24263856     0.035543762   -0.13209835     0.00049659902
   2402000   0.050568147   -0.24270864     0.034969503   -0.13189181     0.00022661085
   2403000   0.049761916   -0.24324288     0.035374712   -0.13323011    -1.296994e-05 
   2404000   0.049914195   -0.24316619     0.035255916   -0.13304381    -3.4361353e-05
   2405000   0.049779102   -0.24288783     0.035713347   -0.13251065     0.00024783253
   2406000   0.050035641   -0.24313731     0.035627595   -0.1324611      0.00032863277
   2407000   0.05063182    -0.2436886      0.035300168   -0.1324456      1.8993272e-05
   2408000   0.049709196   -0.24292773     0.035422563   -0.13294619     2.4405217e-05
   2409000   0.049914895   -0.24332197     0.034973793   -0.13348066    -1.2473975e-05
   2410000   0.05015435    -0.24296711     0.035482876   -0.13225756     0.00012800701
   2411000   0.049723816   -0.24334553     0.035425062   -0.13333955     0.00020807258
   2412000   0.049996177   -0.24335168     0.035099773   -0.13326248     0.00012527346
   2413000   0.049294711   -0.24323415     0.035447668   -0.13384918     0.00020124928
   2414000   0.050195229   -0.2430779      0.035043775   -0.13274614     0.00030402419
   2415000   0.050134744   -0.24321924     0.035115114   -0.13290686    -1.7295002e-05
   2416000   0.049665558   -0.24352511     0.035756278   -0.1332753      0.00034989592
   2417000   0.049623675   -0.24331104     0.035006491   -0.13387384     0.00042581646
   2418000   0.05025652    -0.24350811     0.034667314   -0.13346088     0.00051403453
   2419000   0.049528971   -0.2435363      0.035204621   -0.13404302     0.00031937486
   2420000   0.049713863   -0.24349663     0.034843696   -0.13408695     0.000439261  
   2421000   0.050213338   -0.24341161     0.035291133   -0.13280533     0.00054686862
   2422000   0.049756431   -0.24359153     0.036114818   -0.13284688    -2.8004297e-05
   2423000   0.04980352    -0.24411115     0.034866395   -0.1345443     -4.1449994e-05
   2424000   0.049760035   -0.24387745     0.035236677   -0.13400553     0.0001096467 
   2425000   0.050230216   -0.24377617     0.034976449   -0.13345926     0.00045939865
   2426000   0.05021329    -0.24374237     0.034725292   -0.13370201     0.00051566018
   2427000   0.049631039   -0.2433608      0.036074831   -0.13284421     0.00022778536
   2428000   0.050137664   -0.24370559     0.035154983   -0.13334896     0.00065404201
   2429000   0.050389534   -0.24394605     0.036077983   -0.13228864     0.00025736204
   2430000   0.049995491   -0.24376472     0.035024374   -0.13375194     0.000228666  
   2431000   0.049661363   -0.24382198     0.035378059   -0.13395668     0.00035113812
   2432000   0.049888181   -0.24374115     0.034929385   -0.13398432     0.0004791761 
   2433000   0.050129004   -0.24375575     0.035103488   -0.13346361     0.00027442724
   2434000   0.049617433   -0.24376201     0.035626797   -0.13371386     0.00056992873
   2435000   0.049759648   -0.24356475     0.034735048   -0.13419505     0.00053022028
   2436000   0.049934245   -0.24379848     0.035248702   -0.13365324     0.00065394189
   2437000   0.050105213   -0.24404081     0.035323082   -0.13356476     0.00015934532
   2438000   0.049681305   -0.24380484     0.03506566    -0.13422203     0.00039551803
   2439000   0.049395509   -0.2437643      0.034879285   -0.13479653     0.00032335031
   2440000   0.049670545   -0.24415692     0.034696975   -0.13495893     2.6675273e-05
   2441000   0.050111374   -0.24379856     0.035696252   -0.13294009     6.4368214e-05
   2442000   0.050470259   -0.24407585     0.035163247   -0.1332121      0.00037883869
   2443000   0.04998045    -0.24397303     0.035354965   -0.13365222    -0.00025789052
   2444000   0.050350892   -0.24421734     0.035203089   -0.13349278     0.00054716532
   2445000   0.050156859   -0.24417563     0.035499208   -0.13344599     0.00041526405
   2446000   0.049909709   -0.2440525      0.035043866   -0.1341489      0.00046601505
   2447000   0.04983483    -0.24423548     0.035353348   -0.13413471    -0.0005289741 
   2448000   0.049555082   -0.24444584     0.035614563   -0.13450345     0.00023903575
   2449000   0.050062707   -0.24458683     0.035165176   -0.13433244     0.00029182213
   2450000   0.050154618   -0.24442592     0.035550137   -0.13364871    -3.2296313e-06
   2451000   0.050156802   -0.24431788     0.035234576   -0.13385296     0.00023248345
   2452000   0.050560194   -0.24432913     0.035365632   -0.1331281      0.0001182815 
   2453000   0.049651258   -0.24451696     0.035379876   -0.134665       0.00027576721
   2454000   0.04960871    -0.2444194      0.034594281   -0.13541685     0.00027506434
   2455000   0.049434103   -0.24436258     0.034831187   -0.13538502     0.00054344741
   2456000   0.04957187    -0.24457622     0.03538282    -0.13484039    -6.6155564e-05
   2457000   0.049961237   -0.24449227     0.034764547   -0.13479071     0.00072155683
   2458000   0.049885601   -0.24418386     0.035587705   -0.13377258     8.4496273e-05
   2459000   0.050093295   -0.24497128     0.035763283   -0.13407291     3.1376947e-05
   2460000   0.050352172   -0.24430094     0.035942536   -0.13283501     0.00033450803
   2461000   0.049845179   -0.24439422     0.03532374    -0.13430754     0.00034032232
   2462000   0.050348202   -0.24450086     0.035109982   -0.13387344     5.5652318e-05
   2463000   0.04975975    -0.24448453     0.035145957   -0.13470376     0.0001577864 
   2464000   0.04992793    -0.24454122     0.034979733   -0.13467443     0.00035059789
   2465000   0.049106198   -0.24480271     0.034757821   -0.13639034     0.00014398636
   2466000   0.049496653   -0.24469922     0.035372778   -0.13508625     0.00044874833
   2467000   0.049614969   -0.24449063     0.035151512   -0.13492147    -8.6508201e-05
   2468000   0.049737474   -0.24436183     0.035418362   -0.13434207     0.00056003987
   2469000   0.050227023   -0.24493305     0.03611139    -0.13348598    -0.0001804317 
   2470000   0.05032344    -0.24430161     0.035456899   -0.13336442     3.4188938e-05
   2471000   0.049692796   -0.24429475     0.035531491   -0.13422888     0.00017507131
   2472000   0.050229777   -0.24409235     0.035697221   -0.13305533     0.00017939611
   2473000   0.050525034   -0.24444086     0.035508246   -0.13314995     0.00034140229
   2474000   0.050319166   -0.24476848     0.034891603   -0.13440299     0.00055718076
   2475000   0.049276396   -0.24479569     0.035673042   -0.13521283     0.00036197102
   2476000   0.050358382   -0.24448985     0.034589819   -0.13436733     0.00028973178
   2477000   0.049941112   -0.24459744     0.034949919   -0.13474069     0.00010068913
   2478000   0.050065644   -0.24431835     0.03509777    -0.13412696     0.00034350812
   2479000   0.049585145   -0.24451579     0.035379321   -0.13476355    -0.0001875313 
   2480000   0.049963917   -0.24489838     0.035526787   -0.13443055     7.1603255e-05
   2481000   0.050046356   -0.24461332     0.03533384    -0.13421479     0.000153985  
   2482000   0.049964534   -0.24484566     0.035576741   -0.13432695     0.0004971039 
   2483000   0.050391068   -0.244545       0.035354923   -0.13360836     0.00044535487
   2484000   0.049963898   -0.24499916     0.035540032   -0.13451812     0.00031416956
   2485000   0.050296654   -0.24482493     0.035240144   -0.13414467     0.00033576054
   2486000   0.050369971   -0.24454397     0.035675535   -0.13331836     8.3173678e-05
   2487000   0.050016646   -0.24500718     0.035520329   -0.13446672    -8.3136766e-05
   2488000   0.050013573   -0.24468793     0.034689338   -0.13498307     0.00087430485
   2489000   0.05056394    -0.24505064     0.034964193   -0.13424543     0.00016942101
   2490000   0.050328556   -0.24471993     0.035244338   -0.13398763     0.00052921665
   2491000   0.049336373   -0.24484958     0.035353665   -0.13549613     0.00015802125
   2492000   0.049569339   -0.24497021     0.035370187   -0.13525081     0.00018075508
   2493000   0.04968255    -0.24521221     0.035417291   -0.1352759     -0.00011799084
   2494000   0.05047345    -0.24503903     0.034837543   -0.1344962      0.00056232519
   2495000   0.05004279    -0.24527813     0.035587593   -0.1346312     -0.00020734603
   2496000   0.050044385   -0.24548808     0.035487218   -0.13493912    -4.3140399e-05
   2497000   0.049911265   -0.24532456     0.035387707   -0.13507478     0.00034430934
   2498000   0.050051332   -0.24520389     0.035620029   -0.13451171     0.00017713366
   2499000   0.050151987   -0.24549431     0.035310623   -0.13496056    -1.5349592e-05
   2500000   0.050029705   -0.24534713     0.035103542   -0.13520387     5.4193266e-05
   2501000   0.05023437    -0.24514693     0.035062836   -0.13473741     0.00064344158
   2502000   0.049929867   -0.24559255     0.035650236   -0.13505235     4.5839459e-05
   2503000   0.050452177   -0.24552599     0.035206658   -0.13464595     0.00022765518
   2504000   0.050045646   -0.24585818     0.035651995   -0.13514256    -0.00012283384
   2505000   0.050040648   -0.24519303     0.03558831    -0.13454859     0.0003410822 
   2506000   0.049938006   -0.245263       0.035594393   -0.13476643     9.7595735e-05
   2507000   0.0501195     -0.24542369     0.036107418   -0.13414187    -8.3646404e-05
   2508000   0.050647479   -0.24538161     0.035371509   -0.13404378     0.00011528221
   2509000   0.050044237   -0.24538066     0.035325564   -0.13499358     0.0004280494 
   2510000   0.049728886   -0.24568506     0.035257742   -0.1358388      0.00025516309
   2511000   0.049047189   -0.24540373     0.03550682    -0.13633087    -7.0516217e-05
   2512000   0.05052852    -0.2457106      0.035151429   -0.13477129     0.00023954721
   2513000   0.04962934    -0.24583922     0.035703965   -0.13569605     0.00014429124
   2514000   0.049675147   -0.24587271     0.035311567   -0.13605323     0.00011114408
   2515000   0.049322326   -0.24620564     0.03582236    -0.13640457     0.00021518682
   2516000   0.049275167   -0.24591286     0.035485447   -0.13651943     0.00025927423
   2517000   0.050023909   -0.24604772     0.035646858   -0.13536984     0.00058877276
   2518000   0.050290489   -0.24607009     0.035518016   -0.1351212      0.00030014688
   2519000   0.050167613   -0.24552239     0.035234676   -0.13504115     0.00034320956
   2520000   0.049727183   -0.24620724     0.035513624   -0.13610765     0.00024731654
   2521000   0.049682392   -0.24601862     0.035050424   -0.13644942     0.0001691097 
   2522000   0.049931072   -0.2463455      0.035515759   -0.13593796     0.00016306593
   2523000   0.049658692   -0.24614562     0.035296004   -0.13636638    -2.8526956e-05
   2524000   0.050045744   -0.24614748     0.035331905   -0.1357518      0.00010241057
   2525000   0.049416855   -0.24617681     0.035685032   -0.13637128    -0.00019566963
   2526000   0.050166646   -0.24635152     0.035514965   -0.13559144     0.00013470711
   2527000   0.049547194   -0.24633126     0.036325076   -0.13569019    -3.9167009e-05
   2528000   0.050185124   -0.24619168     0.03586989    -0.13504896    -0.00032903813
   2529000   0.050466541   -0.2463555      0.03498085    -0.13567973     0.00017905532
   2530000   0.049644837   -0.24629454     0.034920207   -0.13691188     1.7346898e-05
   2531000   0.049933043   -0.24655844     0.035572688   -0.13609102     0.00045867099
   2532000   0.04980949    -0.24643731     0.035633426   -0.13609447     0.00013149328
   2533000   0.049719386   -0.24644412     0.035521051   -0.1363488      0.00062632476
   2534000   0.049908572   -0.24653556     0.035454849   -0.13622268     0.00037000906
   2535000   0.049913131   -0.24616213     0.03502383    -0.13627343     0.00028756854
   2536000   0.050135577   -0.24648237     0.035024689   -0.13625916     0.00035427417
   2537000   0.049821658   -0.24673645     0.035199546   -0.13680924     0.00045888161
   2538000   0.049816475   -0.24630972     0.035474914   -0.13611491    -0.00033371791
   2539000   0.050065517   -0.24658037     0.034799099   -0.13668784     0.00037050527
   2540000   0.049866246   -0.2464992      0.035023308   -0.13668135     0.00054558291
   2541000   0.049619085   -0.24629565     0.035372881   -0.13649894     0.00027255255
   2542000   0.050270727   -0.24679737     0.035072857   -0.13632329     0.00029931642
   2543000   0.050235438   -0.24684323     0.035481015   -0.13601392    -0.00037981076
   2544000   0.050221381   -0.2465961      0.035100444   -0.13616845     0.0003032677 
   2545000   0.049939514   -0.24617885     0.035310964   -0.13596345     0.00027887934
   2546000   0.049653834   -0.24672068     0.035236185   -0.13700855     1.3365467e-05
   2547000   0.049878416   -0.24681371     0.035349736   -0.13665118     0.00017088456
   2548000   0.049986122   -0.24654691     0.035142465   -0.1364301      5.5322072e-05
   2549000   0.049701137   -0.24644647     0.035412486   -0.13648709     0.00014201263
   2550000   0.049947511   -0.24648271     0.035724066   -0.13584222     0.00026338313
   2551000   0.050110147   -0.2466303      0.03502223    -0.1364477      0.00073631334
   2552000   0.05036889    -0.24676054     0.035704892   -0.13550719    -2.9413236e-05
   2553000   0.049323515   -0.24693926     0.035643361   -0.1373154      0.00049380941
   2554000   0.049432232   -0.2469451      0.035085299   -0.13771624     0.00046098379
   2555000   0.049671688   -0.24688985     0.035570567   -0.13681656     0.00054426224
   2556000   0.049559356   -0.24663653     0.035526635   -0.13677566     0.00010186762
   2557000   0.049441043   -0.24699429     0.035184139   -0.13765337     4.2951953e-05
   2558000   0.049432628   -0.24718731     0.035330369   -0.13771279     0.00035699581
   2559000   0.050312215   -0.24663447     0.034682462   -0.13648856     0.00040545042
   2560000   0.049682012   -0.24664332     0.035198838   -0.13692627     0.00070009004
   2561000   0.050203303   -0.24696488     0.035489482   -0.1361753      6.324385e-05 
   2562000   0.050124852   -0.24701447     0.035098573   -0.13673347     0.00013595552
   2563000   0.049950931   -0.24705754     0.034707776   -0.1374282      0.00017201305
   2564000   0.049982967   -0.24692199     0.035119278   -0.1368331      0.00020726146
   2565000   0.049229793   -0.24670423     0.035140047   -0.13772426    -1.426202e-05 
   2566000   0.049414898   -0.24671518     0.035182019   -0.13741559     0.00062858946
   2567000   0.049319939   -0.24682364     0.035363294   -0.13748521     0.0002441166 
   2568000   0.050063748   -0.24708432     0.03568823    -0.13630531    -9.7554059e-05
   2569000   0.049843792   -0.24684775     0.035346403   -0.13674048     0.00067968743
   2570000   0.049739788   -0.24655323     0.035299819   -0.13664854     0.00029576107
   2571000   0.049763667   -0.24711923     0.03579423    -0.13668432     0.00011532445
   2572000   0.050486204   -0.24716419     0.035364762   -0.13607501     9.8256262e-05
   2573000   0.05001858    -0.24706621     0.035562711   -0.13648047     0.00025609471
   2574000   0.0502667     -0.24710092     0.035171621   -0.13653411    -9.9848542e-05
   2575000   0.050561307   -0.24738442     0.035775528   -0.13577183     3.8475732e-08
   2576000   0.050620437   -0.24690381     0.035352441   -0.13562561     0.00028013387
   2577000   0.050642484   -0.24707074     0.035617143   -0.13549477     0.00067329291
   2578000   0.049805103   -0.24739441     0.03562249    -0.13706909     8.4701278e-05
   2579000   0.050144647   -0.24728134     0.035584973   -0.13648424     3.9890881e-05
   2580000   0.04995734    -0.24717794     0.035183452   -0.13706331     0.00048053484
   2581000   0.050136516   -0.24724883     0.036261925   -0.13578698    -7.6783913e-05
   2582000   0.049709746   -0.24705826     0.035645918   -0.13685253    -3.6372165e-05
   2583000   0.049705428   -0.24753105     0.035354662   -0.13762306     7.1651446e-05
   2584000   0.04988542    -0.24747598     0.035196047   -0.13745663     0.00031873876
   2585000   0.050116988   -0.24718316     0.035375557   -0.13663697    -8.4049681e-05
   2586000   0.050011412   -0.24705566     0.035951824   -0.13609156     0.00046584947
   2587000   0.049846687   -0.2472657      0.03559826    -0.13690223     0.00038463812
   2588000   0.049914252   -0.24713179     0.035104075   -0.13716116     7.307243e-05 
   2589000   0.049955483   -0.2473561      0.035254373   -0.13717334     0.00041170223
   2590000   0.04972871    -0.2475737      0.035668527   -0.13731692     0.00017923156
   2591000   0.049437108   -0.2476781      0.034441543   -0.13908568     0.00033988864
   2592000   0.049684285   -0.24772439     0.035171497   -0.13803127     0.00021665268
   2593000   0.049505696   -0.24746873     0.034522009   -0.13869297     0.00058355485
   2594000   0.049642083   -0.24730408     0.035757857   -0.1370879      0.00057958284
   2595000   0.050127515   -0.24778297     0.035263925   -0.13733263     0.00021131582
   2596000   0.050097496   -0.24775376     0.035335444   -0.13727692     0.00032756209
   2597000   0.049601127   -0.24797748     0.035094948   -0.13848564    -7.707665e-05 
   2598000   0.049380597   -0.24743405     0.035432225   -0.13793571     0.00030138544
   2599000   0.04984076    -0.24774796     0.035241244   -0.1377504      0.00066060708
   2600000   0.05004813    -0.24766225     0.034874803   -0.13772009    -5.7848539e-05
   2601000   0.049990725   -0.24753018     0.035399725   -0.13714921     0.00020332221
   2602000   0.050679504   -0.24786904     0.035589276   -0.13626541    -0.00044809661
   2603000   0.049957547   -0.2475982      0.035178338   -0.13748838     0.00030627436
   2604000   0.050086375   -0.24749903     0.035484979   -0.13688934     4.922617e-05 
   2605000   0.050060877   -0.2480341      0.035294256   -0.13765337     0.00018295283
   2606000   0.049567369   -0.24819355     0.035486659   -0.13836063     3.2484669e-06
   2607000   0.050504702   -0.24795176     0.035479778   -0.13671981     0.00013207597
   2608000   0.050010192   -0.24794056     0.035628815   -0.1373013      0.00045556232
   2609000   0.049743161   -0.24797        0.035234424   -0.13812565     0.00017367178
   2610000   0.050447159   -0.24806404     0.035405721   -0.13699247     0.00013532987
   2611000   0.050355854   -0.2479819      0.035342672   -0.13711032     0.00037626954
   2612000   0.050573549   -0.24835459     0.035192747   -0.13730642    -0.00010644975
   2613000   0.049861423   -0.247412       0.035014808   -0.13760988     0.00033149063
   2614000   0.050082077   -0.2475917      0.035175043   -0.13729838     0.00044532895
   2615000   0.050214573   -0.24778357     0.035263119   -0.13720345     0.00012000982
   2616000   0.050150731   -0.24830125     0.035390838   -0.13768917    -0.00018730621
   2617000   0.049207103   -0.24830835     0.035336761   -0.1391657     -0.00012091905
   2618000   0.049147609   -0.24832555     0.03566208    -0.13894681     0.00010735959
   2619000   0.050214631   -0.24795839     0.034796713   -0.13784459     0.0010354425 
   2620000   0.050060638   -0.24808299     0.035590409   -0.13740646    -8.3508341e-05
   2621000   0.050097516   -0.24815536     0.035291635   -0.1377223      0.00046050593
   2622000   0.050354459   -0.24839663     0.034747566   -0.13812225     0.0001936004 
   2623000   0.05013369    -0.24840516     0.035648803   -0.13756067     0.00049466635
   2624000   0.049980944   -0.24850199     0.035983717   -0.13755169    -0.00048111515
   2625000   0.050412041   -0.24795342     0.035424204   -0.13691604     0.00015476956
   2626000   0.050220529   -0.24824825     0.03538775    -0.13753456     6.5673982e-05
   2627000   0.05044307    -0.24844376     0.034891228   -0.13789281     0.0005207855 
   2628000   0.049886976   -0.24811789     0.035385251   -0.137907       0.00021739255
   2629000   0.050358737   -0.24824562     0.035431293   -0.1372811      6.4596591e-05
   2630000   0.049813398   -0.24851449     0.035210456   -0.13858875     0.00043526733
   2631000   0.049543746   -0.24836084     0.035682858   -0.13836716    -3.3023633e-05
   2632000   0.049756027   -0.24833906     0.035214754   -0.13849508     0.00086392445
   2633000   0.049936011   -0.24825693     0.03490725    -0.13845049     0.00013215982
   2634000   0.0502425     -0.24858811     0.035509881   -0.13771934    -0.0001767032 
   2635000   0.04976345    -0.24861365     0.035467251   -0.13850604     0.00026226477
   2636000   0.050784766   -0.24863857     0.034920139   -0.1375462      0.00012040428
   2637000   0.050362302   -0.24817947     0.035014297   -0.13762659     0.00020396279
   2638000   0.049606073   -0.24851773     0.035778916   -0.13833451     6.4573815e-05
   2639000   0.050387203   -0.24830739     0.035471522   -0.13725994     4.2363544e-05
   2640000   0.050372786   -0.2483343      0.035260107   -0.13751989     0.00052416142
   2641000   0.049714701   -0.24867555     0.035612014   -0.1384963      0.0003703331 
   2642000   0.050362997   -0.24847487     0.035378455   -0.13755679     0.00033333003
   2643000   0.049553569   -0.24829606     0.035380627   -0.13858988     8.2398143e-05
   2644000   0.050099245   -0.24865476     0.035223247   -0.1382875      6.5852569e-05
   2645000   0.049639853   -0.24858986     0.035268572   -0.13886631     5.7999046e-05
   2646000   0.049808618   -0.24869324     0.034945833   -0.1390393      0.00026456959
   2647000   0.050713335   -0.2488868      0.034954866   -0.13786684     0.00038202392
   2648000   0.050491461   -0.24866141     0.035694886   -0.13723422     0.00037318719
   2649000   0.050043761   -0.24850639     0.03572465    -0.13772095     0.00031287156
   2650000   0.050743831   -0.2490475      0.035641331   -0.13729533     0.00011345555
   2651000   0.050312839   -0.24848738     0.035831528   -0.13719147     0.00036495452
   2652000   0.049445586   -0.24862446     0.03545503    -0.13900583     0.00027606508
   2653000   0.050188091   -0.24845954     0.035267977   -0.13791428     0.00069785066
   2654000   0.050343991   -0.24862746     0.035365703   -0.13775065    -1.5748948e-05
   2655000   0.049709263   -0.24858201     0.035258657   -0.13876427     0.00063083221
   2656000   0.049923967   -0.24863054     0.035365066   -0.13838436     0.0002251966 
   2657000   0.04997287    -0.24883645     0.035543619   -0.13833837     0.00034795242
   2658000   0.049837236   -0.24894044     0.035952221   -0.13823718     0.00028720369
   2659000   0.049858182   -0.24844215     0.035406323   -0.13825338     0.00048519715
   2660000   0.049450958   -0.24880039     0.035326294   -0.13930244     0.00028884198
   2661000   0.049213619   -0.24845847     0.035081552   -0.13956126     0.0004820555 
   2662000   0.049305649   -0.24855281     0.035105849   -0.13949326     0.00019253244
   2663000   0.049427375   -0.24885113     0.034988692   -0.13972616     0.00033414829
   2664000   0.049878295   -0.24880982     0.035946772   -0.13805043     0.00046739621
   2665000   0.049580322   -0.24886774     0.03555538    -0.13894668     8.8039753e-05
   2666000   0.050240781   -0.24866783     0.036081553   -0.13722997     0.00020079349
   2667000   0.050395208   -0.24856319     0.035212407   -0.13776284     0.00012286882
   2668000   0.049561257   -0.24857229     0.035220513   -0.13901468     0.00064738549
   2669000   0.050438923   -0.24879651     0.035544352   -0.13759866     0.00036890451
   2670000   0.050069614   -0.24916584     0.035712221   -0.13835404     0.00030073557
   2671000   0.050039757   -0.24885725     0.034957448   -0.13884501     0.00039182958
   2672000   0.049543781   -0.24871585     0.035682742   -0.13872223     0.00013595848
   2673000   0.050565036   -0.24872284     0.035573985   -0.1373062      0.00034613279
   2674000   0.050301788   -0.24896698     0.0355415     -0.13797767     2.5953277e-05
   2675000   0.05014056    -0.24882668     0.034942089   -0.1386786      0.0002884636 
   2676000   0.049938866   -0.24904459     0.035075113   -0.13906601     0.00032846141
   2677000   0.050062927   -0.2488651      0.034763364   -0.13901219    -0.00019388286
   2678000   0.050131836   -0.24924722     0.03552688    -0.13852743     0.0002106474 
   2679000   0.049838982   -0.24906212     0.035571509   -0.13873696     0.00036589232
   2680000   0.050392066   -0.24904713     0.035617596   -0.13784631     0.00030767806
   2681000   0.050122149   -0.24919211     0.035631527   -0.13838221     0.00036942239
   2682000   0.049745438   -0.24940846     0.035371552   -0.13942357     0.00010193565
   2683000   0.050157565   -0.24956085     0.035133792   -0.13919557     0.00027920708
   2684000   0.049921214   -0.2494659      0.034857177   -0.13973173     0.00018859501
   2685000   0.050258615   -0.24952058     0.035208281   -0.13892924     0.00030572292
   2686000   0.050029495   -0.24904684     0.035417122   -0.13859031     0.00036126398
   2687000   0.049952977   -0.24933719     0.035519397   -0.13889316     2.1021338e-05
   2688000   0.050264896   -0.24979749     0.035296357   -0.13910866    -7.0108742e-05
   2689000   0.050578628   -0.24960735     0.035122353   -0.13862195     0.00057792653
   2690000   0.050520113   -0.24960415     0.03573045    -0.13809842     0.00025484744
   2691000   0.049763161   -0.24942497     0.035233334   -0.13955171     0.00058669981
   2692000   0.050382687   -0.24951998     0.035176619   -0.13877421     0.00033246365
   2693000   0.050419128   -0.24957657     0.035645718   -0.13830704     0.00054612382
   2694000   0.049841292   -0.24949619     0.035765458   -0.13897362     0.00047503026
   2695000   0.050155173   -0.24981524     0.035337479   -0.13924985    -4.6010204e-05
   2696000   0.050613077   -0.24984556     0.035208437   -0.1387224     -0.00015261998
   2697000   0.050127702   -0.24969674     0.034872364   -0.13963767    -0.0001363694 
   2698000   0.049890835   -0.25001794     0.03489425    -0.14029227     0.00065494084
   2699000   0.050156944   -0.24989074     0.034986483   -0.13967369     0.00047189154
   2700000   0.049813966   -0.25011152     0.034792085   -0.1406033      0.00019560377
   2701000   0.049890165   -0.25009989     0.036086043   -0.13918342     0.00018787974
   2702000   0.050475477   -0.250213       0.035940552   -0.13856412     4.8858429e-05
   2703000   0.050079562   -0.25013365     0.036063422   -0.13895573     2.2570214e-06
   2704000   0.050513347   -0.24998788     0.03595483    -0.13826792     0.00051270768
   2705000   0.049843363   -0.25023329     0.035333967   -0.1401391      0.00045572551
   2706000   0.04997874    -0.24999111     0.035467694   -0.13956014     0.0002651444 
   2707000   0.049659097   -0.25032349     0.035454714   -0.14038494     0.00017624492
   2708000   0.049906532   -0.25018259     0.035718954   -0.13960867     0.00020895035
   2709000   0.050942609   -0.2503255      0.035085476   -0.13883104     0.0004363841 
   2710000   0.050201252   -0.25024105     0.035944459   -0.13899957     0.00038158235
   2711000   0.050447242   -0.25056543     0.035404698   -0.13949475     0.00012205939
   2712000   0.049704417   -0.25035344     0.035378144   -0.14042348     0.00021035752
   2713000   0.050123468   -0.25021421     0.035589517   -0.13944434     0.00023105598
   2714000   0.050042808   -0.25014405     0.035263197   -0.13982149     0.00028948372
   2715000   0.050625633   -0.25044585     0.035749486   -0.13876282     0.00036606015
   2716000   0.04950601    -0.25057195     0.035586712   -0.14073102    -3.0647435e-06
   2717000   0.05015651    -0.25046791     0.035474386   -0.13976362    -0.00015873875
   2718000   0.050427552   -0.25045322     0.034828803   -0.13998797     0.00025217893
   2719000   0.049385695   -0.25055467     0.034788042   -0.14169286     0.00052902935
   2720000   0.050025766   -0.25078742     0.035806964   -0.13994665     0.00026416352
   2721000   0.050016618   -0.25067059     0.03575249    -0.13989801     0.00019188025
   2722000   0.050686153   -0.25094434     0.034910392   -0.14000962     0.0006966932 
   2723000   0.050055812   -0.25066688     0.035722909   -0.1398651      0.00039958493
   2724000   0.049812765   -0.25036494     0.034958634   -0.14069198     0.00046916831
   2725000   0.04960978    -0.25077911     0.035007907   -0.14136133     0.00015500208
   2726000   0.049457151   -0.25055068     0.03597798    -0.14039176     0.00030873631
   2727000   0.049639968   -0.25065277     0.035361701   -0.14083592     0.0002507775 
   2728000   0.050268506   -0.25043869     0.035342671   -0.13969813     0.00044302134
   2729000   0.050005446   -0.25026729     0.03494016    -0.1403238      0.00030425436
   2730000   0.050672888   -0.2505793      0.035220065   -0.13935481     0.00034251046
   2731000   0.05041947    -0.25070164     0.035760127   -0.13931718     0.00040712859
   2732000   0.049895775   -0.25063997     0.034658139   -0.141143       0.00038806379
   2733000   0.04964107    -0.25076187     0.035153373   -0.1411517      0.00020726361
   2734000   0.049957805   -0.25077771     0.035215017   -0.14063082     0.00026201945
   2735000   0.049827778   -0.250864       0.035575197   -0.14055195    -0.00021076362
   2736000   0.04991614    -0.25075647     0.03598012    -0.13990697    -6.7956215e-05
   2737000   0.050034816   -0.25112584     0.035222483   -0.14085597     0.00030561852
   2738000   0.049955248   -0.25106135     0.035484138   -0.14064918     0.00021229454
   2739000   0.049874487   -0.25114591     0.035737855   -0.14060116     0.0002425333 
   2740000   0.049830899   -0.25081353     0.034946013   -0.14112599     0.00056105674
   2741000   0.050101873   -0.25080456     0.034824219   -0.14083238     0.00058942712
   2742000   0.050888672   -0.25113295     0.034819027   -0.13998584    -0.00021636819
   2743000   0.050430227   -0.25122737     0.035457364   -0.14012954    -8.6576013e-05
   2744000   0.050888261   -0.25128937     0.0354688     -0.1394931      0.00026382549
   2745000   0.049616367   -0.25093274     0.035315006   -0.14119798     0.00014959792
   2746000   0.049250095   -0.2512089      0.034976163   -0.14236236     0.00017928087
   2747000   0.049934905   -0.25111884     0.035382633   -0.14083868     0.00031028413
   2748000   0.049534601   -0.25165643     0.035166662   -0.14219266    -0.000271952  
   2749000   0.05008565    -0.25173987     0.035242471   -0.14137377    -0.00012337411
   2750000   0.049799876   -0.25127339     0.035395256   -0.14118314     0.00038157033
   2751000   0.049876193   -0.25141588     0.034937542   -0.14166887     0.00030124767
   2752000   0.049659163   -0.25128638     0.035118197   -0.14168425     0.00012980682
   2753000   0.0497942     -0.25142246     0.035764986   -0.140971       0.00048571837
   2754000   0.050053322   -0.25163188     0.034544931   -0.14201181     0.0001803366 
   2755000   0.049400758   -0.25181004     0.034459419   -0.14325426     2.7457584e-05
   2756000   0.049828338   -0.25162147     0.035474923   -0.14140887     0.00032620111
   2757000   0.049911396   -0.25148975     0.035765212   -0.14086227     3.0090825e-05
   2758000   0.050280066   -0.25159566     0.035557017   -0.14062341    -0.00015313078
   2759000   0.049767361   -0.25154962     0.035424605   -0.14147879     0.000408637  
   2760000   0.050156262   -0.25156412     0.034925391   -0.14140919    -0.00010033074
   2761000   0.049639423   -0.25168882     0.034870488   -0.142364       0.00038787411
   2762000   0.049470481   -0.25198147     0.035085864   -0.14269467     0.00024261562
   2763000   0.050066757   -0.25177474     0.034618096   -0.14206135     0.00073859687
   2764000   0.04995747    -0.2517682      0.034903056   -0.14193378     0.00035936075
   2765000   0.049407946   -0.25157967     0.034946316   -0.14252622     0.00041333913
   2766000   0.049682379   -0.25181916     0.034758927   -0.14254147    -0.00019904337
   2767000   0.050086048   -0.25178142     0.034951976   -0.14170522    -6.070655e-05 
   2768000   0.049521069   -0.25174649     0.03468733    -0.14278235     2.2666518e-05
   2769000   0.049799122   -0.25191777     0.034978646   -0.14224526     0.0003397619 
   2770000   0.049703379   -0.25186952     0.036030902   -0.14128836    -1.3185319e-05
   2771000   0.049738657   -0.25175648     0.035626915   -0.14152639     0.00014671966
   2772000   0.04986799    -0.25154573     0.035755768   -0.14099281     0.00037282213
   2773000   0.050256732   -0.25190792     0.035711128   -0.14081655     5.0304331e-05
   2774000   0.049359689   -0.25186729     0.035290213   -0.14254233     5.5926811e-05
   2775000   0.049889236   -0.25193258     0.03511996    -0.1419836      0.00028772959
   2776000   0.050579956   -0.25238835     0.035316465   -0.14120684     0.00020857559
   2777000   0.049796292   -0.25212381     0.034682985   -0.1427512      0.00036891121
   2778000   0.049651754   -0.25222886     0.035563313   -0.14219272     3.1629373e-05
   2779000   0.050206461   -0.25194816     0.035140558   -0.14150277     0.00051230358
   2780000   0.049949089   -0.25187849     0.035543635   -0.14141606     0.00035011126
   2781000   0.050434926   -0.25208302     0.035192284   -0.14124322     0.00027984369
   2782000   0.050567995   -0.25224613     0.035702152   -0.14069688     0.00077024743
   2783000   0.050034017   -0.2520088      0.035723769   -0.14123885     0.00018527563
   2784000   0.049926901   -0.251952       0.035682819   -0.14138366     0.00041434129
   2785000   0.049867946   -0.25202558     0.035812013   -0.14141647     0.00038509611
   2786000   0.04980857    -0.25204346     0.035014359   -0.14232107     0.00038790731
   2787000   0.050471588   -0.25218145     0.034843677   -0.14163528     0.00021832184
   2788000   0.049465112   -0.25228376     0.03598864    -0.14210224     0.00010847034
   2789000   0.050272736   -0.25235981     0.035604258   -0.14135131     0.00036043188
   2790000   0.050423338   -0.25211349     0.035443647   -0.14103972     0.00025197989
   2791000   0.049597019   -0.25211737     0.035443071   -0.14228357     0.00048874084
   2792000   0.049610499   -0.25250701     0.03507602    -0.14302004     0.00023658008
   2793000   0.049308569   -0.2522799      0.035198414   -0.1431234      0.00037743084
   2794000   0.050109368   -0.25257415     0.035654562   -0.14176038    -8.2221834e-05
   2795000   0.05016663    -0.25242955     0.035604764   -0.1415797      5.20808e-05  
   2796000   0.049839632   -0.25229009     0.036066177   -0.14146929     6.5044639e-05
   2797000   0.050526514   -0.2524378      0.035685353   -0.14096757     0.00039054796
   2798000   0.050277585   -0.25229202     0.034987332   -0.14189317     0.00018852766
   2799000   0.050645566   -0.25252437     0.035451867   -0.14110906     0.00016757244
   2800000   0.050216707   -0.25252691     0.035268593   -0.14193812     0.00011702801
   2801000   0.050390961   -0.2524518      0.03565023    -0.14122       -0.00029387538
   2802000   0.049990207   -0.25240852     0.035452482   -0.14197556     8.9425569e-05
   2803000   0.050158418   -0.2522623      0.035553584   -0.14147594    -0.00029596578
   2804000   0.050074054   -0.25228234     0.035272253   -0.14190385     0.00038177716
   2805000   0.050011721   -0.25251269     0.035568868   -0.14193108     0.00030909262
   2806000   0.049648688   -0.25211343     0.035460342   -0.14218486     2.3124907e-05
   2807000   0.050371791   -0.25224621     0.035456916   -0.14123648     0.00027953875
   2808000   0.050266888   -0.25230485     0.035801819   -0.14110756     0.00029953037
   2809000   0.050020389   -0.25247033     0.035289437   -0.14215515     0.00028592838
   2810000   0.049627691   -0.25252985     0.035104913   -0.1429882     -0.00015048177
   2811000   0.049703333   -0.25265365     0.035321777   -0.14278168    -0.00017334513
   2812000   0.049982442   -0.25272016     0.034795799   -0.14295554     0.00023966893
   2813000   0.049537211   -0.2527696      0.035377869   -0.14309071     0.0002191807 
   2814000   0.049910639   -0.25243324     0.035867484   -0.14170463    -8.6238541e-05
   2815000   0.050377809   -0.25265164     0.035591754   -0.14149804     4.5633071e-05
   2816000   0.049947269   -0.25242563     0.03531459    -0.14219497     6.0833837e-05
   2817000   0.049972705   -0.25225429     0.035186639   -0.14211343     0.00045934423
   2818000   0.049935221   -0.25247115     0.03522946    -0.14234369     0.00057563752
   2819000   0.050205487   -0.25251555     0.035642206   -0.14156997     0.00049188478
   2820000   0.049698374   -0.25266595     0.035536341   -0.14258685     0.00047984852
   2821000   0.050511288   -0.2530381      0.035058018   -0.14221804     0.00033056588
   2822000   0.049781848   -0.25249318     0.035623553   -0.14220167     0.00020761088
   2823000   0.050129414   -0.25275046     0.035815555   -0.14174564     0.00038283092
   2824000   0.050213813   -0.25284487     0.035418667   -0.14211035    -1.3247213e-05
   2825000   0.049512452   -0.25280229     0.035496053   -0.14304235     6.5803586e-05
   2826000   0.050026623   -0.25303343     0.035128034   -0.1428703      0.00037620923
   2827000   0.049966576   -0.25300093     0.034922083   -0.14313382     0.00060359439
   2828000   0.050595354   -0.25287361     0.035400127   -0.14158535     0.00025027111
   2829000   0.049913412   -0.25328285     0.035454281   -0.14296328    -0.00020725277
   2830000   0.050476324   -0.25292078     0.034990378   -0.1422208      0.00077390199
   2831000   0.049796136   -0.25332439     0.035754374   -0.14288063     0.00046942995
   2832000   0.050463786   -0.25336225     0.035697359   -0.14197409     0.00017207814
   2833000   0.049970669   -0.25302613     0.034901868   -0.1431731      0.00041123968
   2834000   0.04997882    -0.25373163     0.035103843   -0.14366439     0.00011496767
   2835000   0.049959253   -0.25340746     0.034694813   -0.1437786      0.00010239734
   2836000   0.049675385   -0.25343157     0.034915942   -0.14400736     0.00016907411
   2837000   0.049849854   -0.25314964     0.035205572   -0.14317412     0.00030817365
   2838000   0.04994923    -0.25340585     0.035729166   -0.14275767     0.00022477071
   2839000   0.049735513   -0.2535161      0.035577962   -0.14333968     0.0002492785 
   2840000   0.049937599   -0.25343947     0.035666725   -0.14287118     0.00040901061
   2841000   0.050092784   -0.25325442     0.035687921   -0.14243217     0.00042818693
   2842000   0.050195976   -0.25304826     0.035453436   -0.14230572     3.5842933e-05
   2843000   0.04979981    -0.25315108     0.035748315   -0.14270786     2.3509807e-05
   2844000   0.049582561   -0.25343663     0.035327027   -0.14374056     0.00027000721
   2845000   0.050290552   -0.25368889     0.035674533   -0.1425834      0.00022095045
   2846000   0.050095013   -0.25362231     0.035421242   -0.14306339    -0.00010212506
   2847000   0.04991226    -0.25369991     0.035459231   -0.14337712     0.00019318553
   2848000   0.049881092   -0.25340504     0.035405535   -0.14318269     0.00028983184
   2849000   0.049844877   -0.25357093     0.035507691   -0.14330074     0.00023933211
   2850000   0.049981393   -0.25361584     0.0352144     -0.14343419    -0.00014080527
   2851000   0.050026927   -0.25371205     0.034976555   -0.14369995     0.00043262304
   2852000   0.050636195   -0.25347335     0.035137282   -0.14238667     0.00020770292
   2853000   0.049745182   -0.25322329     0.035594211   -0.14301612     0.00029679327
   2854000   0.050016316   -0.25372277     0.035011067   -0.14369207    -7.5667982e-05
   2855000   0.050068203   -0.25387516     0.035327195   -0.14345051    -0.0001125816 
   2856000   0.049864597   -0.2540085      0.034819428   -0.144397       0.00052348903
   2857000   0.049703337   -0.25385659     0.035120215   -0.14418618     0.00044444334
   2858000   0.049682469   -0.25408978     0.03519497    -0.14437592     0.00010752115
   2859000   0.049496299   -0.25365603     0.035015989   -0.14440038     0.00063236701
   2860000   0.049774207   -0.25408299     0.035428689   -0.1439978      3.7252456e-05
   2861000   0.05003399    -0.25392846     0.035616723   -0.14326559     0.0001841738 
   2862000   0.050492039   -0.25389495     0.035080836   -0.14308094     0.00041497513
   2863000   0.049711358   -0.25404321     0.035951447   -0.14352954    -4.9195716e-05
   2864000   0.049933073   -0.25399827     0.035524123   -0.14357937     0.00082031134
   2865000   0.049585033   -0.25429603     0.035388851   -0.14453442     0.00046499942
   2866000   0.049914753   -0.25425478     0.035187401   -0.14420008     9.2247149e-05
   2867000   0.049442928   -0.25422091     0.035553814   -0.14450749     0.00028706038
   2868000   0.049830848   -0.2543292      0.035465593   -0.14412216     4.7315767e-05
   2869000   0.050017054   -0.25413491     0.035774823   -0.14333934     0.00020254741
   2870000   0.050025834   -0.25436153     0.035387186   -0.14394044     0.00020466698
   2871000   0.050510489   -0.25399097     0.035071539   -0.14315859     0.00036549156
   2872000   0.050485876   -0.2541768      0.035057251   -0.14339562     0.00041984387
   2873000   0.049483023   -0.25396408     0.035821039   -0.14392329     0.00030681574
   2874000   0.049391053   -0.25409841     0.035158328   -0.14485829     0.0001905403 
   2875000   0.049064838   -0.25411669     0.034797089   -0.14572709     0.00030626841
   2876000   0.049772051   -0.25422941     0.03535858    -0.14421757     0.00018459104
   2877000   0.050156219   -0.2542087      0.035269443   -0.14370978     0.00012007882
   2878000   0.04992831    -0.2541037      0.035205649   -0.14401041     0.0002438743 
   2879000   0.05043714    -0.25421088     0.035129402   -0.14343065     0.00042424213
   2880000   0.050414828   -0.25444215     0.035837196   -0.14298759    -6.8331703e-05
   2881000   0.049667675   -0.25378607     0.035313185   -0.14397618     0.00081754498
   2882000   0.04981596    -0.25397606     0.035093542   -0.1441634      0.00021690128
   2883000   0.050194684   -0.25420345     0.034969951   -0.14394633     0.00053148725
   2884000   0.049826419   -0.25412902     0.035514458   -0.14387975     5.7477891e-05
   2885000   0.049702969   -0.25403411     0.035331719   -0.14415275     0.00052100296
   2886000   0.050680182   -0.25413977     0.035346301   -0.1427781      0.00025997648
   2887000   0.050077502   -0.25445608     0.035935241   -0.14340943    -0.00050419255
   2888000   0.049924059   -0.25436163     0.035443616   -0.14403676     0.00036597384
   2889000   0.04980715    -0.25411508     0.035607693   -0.14380148     0.00044248977
   2890000   0.049592934   -0.25415186     0.035389051   -0.14437821     0.00022656543
   2891000   0.049224721   -0.25457967     0.035388685   -0.14535867     6.2717483e-05
   2892000   0.050216643   -0.25443034     0.034473681   -0.14463655     9.4247876e-05
   2893000   0.049435228   -0.25445459     0.035356797   -0.14494974     0.00016266899
   2894000   0.049357031   -0.25519994     0.03507776    -0.14609141     0.00045564993
   2895000   0.049877272   -0.25452787     0.034771373   -0.14494541    -0.00036652522
   2896000   0.050686063   -0.25449602     0.035405559   -0.14306627     0.00040469995
   2897000   0.050250379   -0.25459423     0.034932505   -0.14429102     9.6571472e-05
   2898000   0.05032372    -0.25487301     0.035176792   -0.14421551    -0.00031607067
   2899000   0.049689574   -0.25469218     0.034982982   -0.14517964     0.00040150887
   2900000   0.050402044   -0.25435534     0.034714202   -0.14404295     0.00050270815
   2901000   0.050425579   -0.25466505     0.035823511   -0.14320805     0.00010952847
   2902000   0.050496259   -0.25475581     0.03550931    -0.143507       0.00052570771
   2903000   0.050208358   -0.2546446      0.035231737   -0.14410519     2.682634e-05 
   2904000   0.05026658    -0.25463294     0.035468644   -0.14376929     0.00012262631
   2905000   0.04963779    -0.25460948     0.035912197   -0.1442454     -6.3299846e-05
   2906000   0.050222143   -0.25455017     0.035103215   -0.1441186      0.00034962655
   2907000   0.049897971   -0.25467094     0.035095176   -0.14473364     0.00032635285
   2908000   0.049620094   -0.25457767     0.03498323    -0.1451691      0.00045196708
   2909000   0.050045615   -0.25478816     0.035400677   -0.1443239      0.00024097673
   2910000   0.050080167   -0.25448328     0.035104362   -0.14426352     0.00029828349
   2911000   0.049999161   -0.25466302     0.035199363   -0.14446976     0.00035957748
   2912000   0.049697377   -0.25490216     0.035360713   -0.14500019     0.00010155418
   2913000   0.049887833   -0.25478186     0.035324734   -0.1446302      4.3666102e-05
   2914000   0.050389457   -0.25510698     0.035382139   -0.14414553     0.00018418882
   2915000   0.049619265   -0.25462017     0.035622966   -0.14457311     0.00032255896
   2916000   0.049531377   -0.25469426     0.035414368   -0.14498762     0.00021626743
   2917000   0.050167033   -0.25456565     0.034921409   -0.14439855     0.00020202757
   2918000   0.04972591    -0.25462347     0.035381727   -0.14465769     0.00016453302
   2919000   0.050143327   -0.2544414      0.034544329   -0.14468693     0.00010945328
   2920000   0.04999678    -0.25511683     0.035369231   -0.14475727    -0.00013533803
   2921000   0.049921562   -0.25479328     0.035515374   -0.1444004      9.5770391e-05
   2922000   0.049977689   -0.25517529     0.035668874   -0.14454472    -0.00029027874
   2923000   0.050444888   -0.25487496     0.035056992   -0.14415552     0.0007558516 
   2924000   0.050255155   -0.25503325     0.035885606   -0.14376978     0.00063925679
   2925000   0.050290005   -0.2548641      0.036081148   -0.14335281     0.00011197622
   2926000   0.050246393   -0.25480278     0.035489763   -0.14394829     0.00029572097
   2927000   0.049617462   -0.25478598     0.0354874     -0.14487719     0.0005159376 
   2928000   0.049961993   -0.25522607     0.035619643   -0.14466827    -0.00040872118
   2929000   0.050257614   -0.25529555     0.035110597   -0.14480339     0.00044382049
   2930000   0.049769826   -0.2548339      0.035656207   -0.14452777     0.00076131133
   2931000   0.050122655   -0.25499938     0.035429087   -0.14439116     6.4211482e-05
   2932000   0.050463642   -0.25504273     0.035205151   -0.144147       0.00029503747
   2933000   0.049966172   -0.25500619     0.034950013   -0.14511175     2.7360198e-05
   2934000   0.049475904   -0.25554895     0.035348408   -0.14599148     0.00017378276
   2935000   0.050001585   -0.25516402     0.035804355   -0.14436212     0.0001516096 
   2936000   0.050157399   -0.25503714     0.035544231   -0.14426167     0.00015808393
   2937000   0.050413519   -0.25557362     0.035852836   -0.14410538     9.534231e-05 
   2938000   0.050868636   -0.25526789     0.035811407   -0.14315845     5.7771568e-05
   2939000   0.05034398    -0.25514923     0.036338206   -0.14329993    -6.5546852e-05
   2940000   0.050349787   -0.25578162     0.03549521    -0.1447666      0.00037046682
   2941000   0.049622103   -0.25557458     0.035206672   -0.14593956     0.00037883928
   2942000   0.050234885   -0.25540708     0.035105843   -0.14495377     3.6992647e-05
   2943000   0.0506234     -0.25538926     0.034932993   -0.14452606     0.00039186082
   2944000   0.049356936   -0.25560525     0.03496498    -0.14660964     0.00023269803
   2945000   0.050240065   -0.25539615     0.035496421   -0.14454449     0.00026316392
   2946000   0.049771424   -0.25511807     0.0355289     -0.14493685     0.00046409881
   2947000   0.049508063   -0.25576494     0.035425952   -0.14608169     6.358734e-05 
   2948000   0.049486485   -0.2557891      0.035595498   -0.14596867     0.0004133893 
   2949000   0.050190028   -0.25545192     0.035387906   -0.14478383    -0.00034256166
   2950000   0.050085782   -0.2553328      0.035425109   -0.14478386     0.00028401681
   2951000   0.049909803   -0.25543037     0.03520585    -0.14536465     0.0002255395 
   2952000   0.050503873   -0.25542331     0.034453799   -0.14521858     0.00010116092
   2953000   0.049976991   -0.25542431     0.0355408     -0.14492286     0.00016080151
   2954000   0.049747437   -0.25537        0.035218187   -0.14553547     0.00027907469
   2955000   0.050107794   -0.25530118     0.035577809   -0.14456653     6.3908228e-05
   2956000   0.049818762   -0.25567943     0.035908137   -0.14504797     0.00026349339
   2957000   0.049943621   -0.25534149     0.035568579   -0.14486231    -9.8572324e-06
   2958000   0.049633257   -0.25568221     0.036015039   -0.14522209    -0.00041040274
   2959000   0.050132852   -0.25574524     0.035605421   -0.1449454      0.00054805463
   2960000   0.049692327   -0.25597787     0.035170226   -0.14627396    -0.0002581302 
   2961000   0.049827415   -0.25592651     0.035599775   -0.14559043     0.00024900028
   2962000   0.049903473   -0.25558699     0.035741966   -0.14499464     0.00014577258
   2963000   0.049647772   -0.25622514     0.03562722    -0.14613107     0.00015357381
   2964000   0.05020097    -0.25597401     0.035771872   -0.14490554     0.00015558933
   2965000   0.050052458   -0.25595485     0.035642665   -0.14523834     0.0004005041 
   2966000   0.05074       -0.25591534     0.034970372   -0.14483988     4.3445083e-05
   2967000   0.049967522   -0.25609715     0.035968517   -0.14518218    -1.1257982e-05
   2968000   0.050303184   -0.25564117     0.035183556   -0.1450077     -2.9958307e-05
   2969000   0.049831637   -0.25583187     0.035295676   -0.14579356     9.3590326e-06
   2970000   0.050214615   -0.25576182     0.034897984   -0.14554678     0.00024205465
   2971000   0.050411237   -0.25590978     0.035223789   -0.14507402     9.4282639e-06
   2972000   0.049899228   -0.25623546     0.035420025   -0.14597143     0.00014862355
   2973000   0.050395844   -0.2560283      0.035294813   -0.1451446      0.00060379923
   2974000   0.049446879   -0.25606383     0.035145125   -0.14675317     0.00019178086
   2975000   0.049379255   -0.25640083     0.034562955   -0.14777377    -0.00029102264
   2976000   0.048965416   -0.2558671      0.035636717   -0.146787       0.00036693775
   2977000   0.049612719   -0.25610943     0.03527971    -0.14641544     0.00059471536
   2978000   0.050326963   -0.25556374     0.035578102   -0.14450006    -9.724911e-05 
   2979000   0.050228282   -0.25607352     0.035207078   -0.14552888     0.00048410755
   2980000   0.050098589   -0.25605645     0.035056649   -0.14585676     0.00021940874
   2981000   0.049798655   -0.25623054     0.035709781   -0.1458276     -0.00046243029
   2982000   0.050187857   -0.25617555     0.035125278   -0.14577334     0.00029128832
   2983000   0.049462187   -0.25596693     0.035029409   -0.14674903     0.0001083284 
   2984000   0.049881068   -0.25622436     0.035268901   -0.14613868     0.00031081092
   2985000   0.049285679   -0.25596003     0.035864465   -0.14617182    -0.0001802408 
   2986000   0.049918044   -0.25615461     0.035281603   -0.14600077     0.00024883499
   2987000   0.049990305   -0.25607582     0.03485667    -0.14623854    -0.0004291063 
   2988000   0.050003432   -0.25597949     0.035463332   -0.14551585     0.0001689238 
   2989000   0.049985698   -0.25611938     0.035445865   -0.14569981     0.00012475123
   2990000   0.049659545   -0.25669179     0.035224798   -0.14698248     0.00021217558
   2991000   0.050015428   -0.25643925     0.03582283    -0.14559812     0.00032223271
   2992000   0.049979755   -0.25627773     0.035837845   -0.14547509    -0.00010382934
   2993000   0.049966991   -0.25642387     0.036117256   -0.14536096     0.00018638788
   2994000   0.049923779   -0.25648713     0.035413248   -0.14619305     0.0001087179 
   2995000   0.050111833   -0.25666307     0.035779412   -0.14572076     0.00028253405
   2996000   0.049998468   -0.25652164     0.035904301   -0.14562448    -0.00016693152
   2997000   0.049673727   -0.25653297     0.03567575    -0.14635144     0.00021980298
   2998000   0.049420166   -0.25693183     0.035748044   -0.14705832     2.3538666e-05
   2999000   0.049433196   -0.25665022     0.035106168   -0.14739904     0.00039847104
   3000000   0.049583921   -0.25660779     0.035149144   -0.14708757     0.00042007369
   3001000   0.050067227   -0.25668463     0.035903738   -0.1456849     -0.00025183467
   3002000   0.049771969   -0.25634042     0.035702389   -0.1459849      0.00025991981
   3003000   0.050290429   -0.25695135     0.035141488   -0.14637908     0.00031241204
   3004000   0.050183461   -0.25695076     0.035578985   -0.14610144     8.0925369e-05
   3005000   0.050326852   -0.25684254     0.035546995   -0.14581014     0.00060847446
   3006000   0.050164886   -0.25682878     0.03549145    -0.14609486     0.0002878136 
   3007000   0.049963631   -0.25660285     0.036128594   -0.14553365    -0.00013436925
   3008000   0.050259943   -0.25646224     0.035608761   -0.14546842    -4.4651538e-05
   3009000   0.049876506   -0.25688983     0.03511573    -0.14696417     0.00064377534
   3010000   0.049777307   -0.2569562      0.035457729   -0.14683733     0.00029815832
   3011000   0.050097031   -0.25663847     0.03551545    -0.14598233     7.5359295e-05
   3012000   0.050143594   -0.25703189     0.035216577   -0.14660478     0.00019721185
   3013000   0.050378907   -0.25694616     0.035542306   -0.14584037     0.00042838171
   3014000   0.049381502   -0.25683335     0.036162625   -0.14660325    -1.505932e-05 
   3015000   0.050161286   -0.25712915     0.035859567   -0.14603251     0.00072560767
   3016000   0.05005442    -0.25734432     0.03479569    -0.14747184     0.00040495246
   3017000   0.050029078   -0.25700101     0.035848804   -0.14611343     0.00021180362
   3018000   0.049508456   -0.25693816     0.035329346   -0.14735092     0.0003350885 
   3019000   0.05003863    -0.25681899     0.035711359   -0.14605453    -0.00022187978
   3020000   0.05009304    -0.25704462     0.03562405    -0.14628586     0.00023330966
   3021000   0.050266199   -0.25724713     0.03577149    -0.1460812      0.00040937124
   3022000   0.050000621   -0.25723034     0.03490861    -0.14732564    -0.00015468681
   3023000   0.049829552   -0.25706384     0.035458848   -0.14686549    -0.00011957759
   3024000   0.050049082   -0.25734748     0.034679887   -0.14759882     0.0002536334 
   3025000   0.049706442   -0.25735033     0.035510001   -0.14728548     0.00022530312
   3026000   0.050204841   -0.25738673     0.035280489   -0.14680384     0.00020725886
   3027000   0.050358992   -0.25692658     0.034662539   -0.14673043     0.00016895038
   3028000   0.050157663   -0.25762135     0.035476505   -0.1469132      4.3460148e-05
   3029000   0.050343725   -0.25726119     0.035147031   -0.14660344     0.00064485769
   3030000   0.050003118   -0.2578063      0.035350845   -0.14745562     0.00046731563
   3031000   0.049360872   -0.25756604     0.035067374   -0.14846214     0.00019672387
   3032000   0.049817545   -0.25722314     0.035215376   -0.14728627    -1.7120452e-05
   3033000   0.050411033   -0.25763372     0.0349397     -0.14708235     0.00016668014
   3034000   0.049967732   -0.25753053     0.035809382   -0.14677439    -0.0005163615 
   3035000   0.050071691   -0.25750168     0.03552975    -0.14686923     0.00016994239
   3036000   0.049603443   -0.25715552     0.035569616   -0.14718554     0.00040244394
   3037000   0.050521999   -0.2577021      0.035348525   -0.14657547     0.00029155268
   3038000   0.050229339   -0.25744346     0.034855674   -0.14724864     0.00041929855
   3039000   0.049565015   -0.25777217     0.035493042   -0.1479364     -0.00026347118
   3040000   0.049785338   -0.2575719      0.034981309   -0.1479174      0.00046222819
   3041000   0.049865796   -0.25771096     0.035668543   -0.14724854    -2.8053636e-05
   3042000   0.049663374   -0.25799114     0.035266814   -0.14823407    -1.3308437e-05
   3043000   0.049783073   -0.25769278     0.03502375    -0.14799924     0.00065987529
   3044000   0.05009647    -0.25780694     0.035437421   -0.14722966     0.00032415131
   3045000   0.049509973   -0.25751347     0.035675694   -0.14757761     0.00024159537
   3046000   0.050250981   -0.25728072     0.034816321   -0.14709279     9.2931534e-05
   3047000   0.050112273   -0.25785521     0.035551442   -0.14714021     0.00016247703
   3048000   0.049723026   -0.25732914     0.036070145   -0.14667927     5.1652443e-05
   3049000   0.050262769   -0.25785842     0.035647106   -0.14682202    -1.6436192e-05
   3050000   0.050162615   -0.25766818     0.035846106   -0.146583       0.00049117453
   3051000   0.050350874   -0.25740879     0.035200387   -0.14668696     0.00015839795
   3052000   0.050155644   -0.25779236     0.035112822   -0.14745093     0.00077783   
   3053000   0.050144102   -0.25773373     0.035405858   -0.14711657     3.046337e-05 
   3054000   0.050537835   -0.25829468     0.035316478   -0.14717634     0.00016457532
   3055000   0.050094591   -0.25834611     0.035455869   -0.14775321     0.00056618741
   3056000   0.050312091   -0.25800145     0.03524905    -0.14728914     0.00019383564
   3057000   0.049695755   -0.25788655     0.035827702   -0.14752002     0.00023112151
   3058000   0.050297096   -0.25800225     0.03512005    -0.14744142     0.00018152328
   3059000   0.049858787   -0.25790323     0.03535367    -0.14776621    -9.3945092e-05
   3060000   0.050018116   -0.25801661     0.03527029    -0.14772399     0.00028853053
   3061000   0.04951771    -0.25790621     0.035427976   -0.14820646     0.00037490715
   3062000   0.050122103   -0.25798424     0.035362272   -0.14744367     1.5626528e-05
   3063000   0.050327112   -0.25766667     0.035658833   -0.14652204     0.0004191257 
   3064000   0.051119254   -0.25787432     0.03573566    -0.14546473     0.00048275847
   3065000   0.050587432   -0.25806922     0.035726995   -0.14646597     0.00031528052
   3066000   0.049843052   -0.25801302     0.036090947   -0.14716231    -0.00026525919
   3067000   0.050003925   -0.25789079     0.035197948   -0.14769179     3.5416261e-05
   3068000   0.050285598   -0.25827865     0.03546133    -0.14739379     0.00035232869
   3069000   0.049625271   -0.25808057     0.035534762   -0.1481127      0.00044728589
   3070000   0.050433336   -0.25820532     0.035744672   -0.14681552     0.00029323667
   3071000   0.050776951   -0.25805874     0.035679822   -0.14621841     3.4787016e-05
   3072000   0.049963132   -0.25812114     0.035083615   -0.14809766     0.00011394171
   3073000   0.049895679   -0.25808796     0.035287583   -0.14796168    -0.00011283276
   3074000   0.049989238   -0.25827549     0.035389834   -0.14790664     0.00034963672
   3075000   0.049878574   -0.25832685     0.03540321    -0.14811061    -0.00010799979
   3076000   0.050586702   -0.25853509     0.03555736    -0.14710257     0.00035582781
   3077000   0.050109722   -0.25818091     0.035409493   -0.14761168    -5.2300137e-05
   3078000   0.048983114   -0.25825837     0.035376082   -0.14941236    -0.00020939015
   3079000   0.049633693   -0.25801718     0.034832437   -0.14873901     0.00046395569
   3080000   0.049941682   -0.25817599     0.035309773   -0.14795852     0.0002045224 
   3081000   0.049738092   -0.25846862     0.035265592   -0.14860071     0.00021788744
   3082000   0.049980847   -0.25838311     0.035503938   -0.14791274     0.00038540533
   3083000   0.049559087   -0.25854489     0.035660709   -0.14855034     0.00036142951
   3084000   0.049987732   -0.25849259     0.034888104   -0.14862772     0.0003510802 
   3085000   0.049858747   -0.25878926     0.035314223   -0.14869174     9.3170768e-05
   3086000   0.050143825   -0.25823708     0.035245331   -0.14778086     0.0011160809 
   3087000   0.049955092   -0.25854109     0.034955749   -0.14865754     0.00013452851
   3088000   0.049645052   -0.25869461     0.035281188   -0.14895065     2.2971799e-05
   3089000   0.049777934   -0.25895206     0.035934692   -0.14835528     0.00043668059
   3090000   0.050244675   -0.2586249      0.035201311   -0.14806144     0.00035244598
   3091000   0.049783554   -0.25852464     0.035769469   -0.14808466     0.00041477645
   3092000   0.050038657   -0.25868658     0.035930291   -0.14770315     8.0516962e-05
   3093000   0.050248105   -0.25889433     0.035798317   -0.14772872    -0.00020320383
   3094000   0.050385769   -0.25842163     0.035254226   -0.14759362     0.00020361812
   3095000   0.050120404   -0.25850334     0.034717128   -0.14861045     0.0006366363 
   3096000   0.050125715   -0.2584057      0.035558821   -0.14766316     0.000362675  
   3097000   0.049518249   -0.25873308     0.035632973   -0.14882753    -7.4100194e-05
   3098000   0.049359093   -0.25885373     0.035081599   -0.14973827     0.00012995881
   3099000   0.050256193   -0.25889384     0.03473728    -0.14877713     0.00028002618
   3100000   0.050270411   -0.25842967     0.035220899   -0.14780802     0.00024430394
   3101000   0.050027765   -0.25871075     0.035908503   -0.14776544     8.3309249e-05
   3102000   0.049741926   -0.25857948     0.0354884     -0.148483       0.00022156822
   3103000   0.049736609   -0.25872191     0.035395982   -0.14872583     0.00010010488
   3104000   0.050066513   -0.25876506     0.035489342   -0.14818079     0.00033656555
   3105000   0.050263648   -0.25886771     0.035859057   -0.14761804     0.00048200448
   3106000   0.050452609   -0.25917564     0.035956296   -0.14754531     0.00019077542
   3107000   0.049796998   -0.25851785     0.034820069   -0.14900711     0.00042138786
   3108000   0.049762919   -0.25861715     0.035007121   -0.14897047     0.00034376014
   3109000   0.050272584   -0.25890869     0.034750745   -0.14875393     0.00032477991
   3110000   0.049708288   -0.25880316     0.035436502   -0.14880904     7.5283889e-06
   3111000   0.050170513   -0.25884109     0.035882687   -0.14770749     0.0004549241 
   3112000   0.04960855    -0.258693       0.035977244   -0.14830773     0.0006394357 
   3113000   0.050039273   -0.25932869     0.035742501   -0.14853213    -5.9186499e-05
   3114000   0.049722597   -0.25885826     0.035655425   -0.14862375     0.00048642478
   3115000   0.050157189   -0.25911005     0.035271631   -0.14860749    -0.00015202944
   3116000   0.050120602   -0.25948557     0.035351971   -0.14895755     0.00025130156
   3117000   0.049447905   -0.25937493     0.035988847   -0.14921901    -0.00034109566
   3118000   0.050542536   -0.25890879     0.035279411   -0.14782046     0.00055344787
   3119000   0.050455608   -0.25884474     0.035279431   -0.14788678     0.00038647783
   3120000   0.049720965   -0.25877897     0.035011706   -0.14919063     0.00010353308
   3121000   0.049444034   -0.25937893     0.035034062   -0.1501836      3.8494325e-05
   3122000   0.049907441   -0.25958181     0.035151368   -0.14957411     0.00067532499
   3123000   0.049695958   -0.25933937     0.035603666   -0.14919657    -0.00036287923
   3124000   0.049862541   -0.25887228     0.035087426   -0.14899587     0.00033375763
   3125000   0.050118072   -0.25942505     0.035790718   -0.14846207     1.3324111e-05
   3126000   0.049387843   -0.25959961     0.035697012   -0.14982562     4.6900583e-05
   3127000   0.049831691   -0.2594265      0.035131144   -0.14955264     0.00078257573
   3128000   0.05025328    -0.25881812     0.035203964   -0.1482391      0.00080067883
   3129000   0.049910398   -0.25929436     0.035103226   -0.14933037     4.3684722e-06
   3130000   0.049466356   -0.25935929     0.035363095   -0.14980145     0.00052955137
   3131000   0.050034767   -0.25914542     0.035160744   -0.14893737     0.00018513396
   3132000   0.049476289   -0.25925159     0.036184418   -0.14885753    -0.00011049665
   3133000   0.050673771   -0.2594037      0.036287472   -0.14711048     0.00018386111
   3134000   0.050260786   -0.25959032     0.035174427   -0.14902958     0.00025709661
   3135000   0.050111632   -0.25965793     0.035546839   -0.1489485      0.00040753727
   3136000   0.049905179   -0.25990845     0.035816158   -0.14923936    -1.532015e-05 
   3137000   0.050296835   -0.25963605     0.035484318   -0.14871134     0.00018639431
   3138000   0.050709724   -0.25922006     0.035273222   -0.14788716     0.00052211212
   3139000   0.050756172   -0.25946908     0.035764267   -0.14757547     0.00042976662
   3140000   0.050103744   -0.25958489     0.03582698    -0.14860714     0.00029215553
   3141000   0.050133466   -0.25932505     0.035660243   -0.14846946    -0.00011735429
   3142000   0.05011607    -0.25956692     0.035751979   -0.14864569     9.4184831e-05
   3143000   0.050032262   -0.25955358     0.034773795   -0.14973623     0.00030658592
   3144000   0.049750234   -0.25989795     0.035587818   -0.1496896      0.00078921216
   3145000   0.049769571   -0.25954807     0.035531733   -0.14936679     5.4112178e-05
   3146000   0.050155329   -0.2596898      0.035904359   -0.1485573      0.00016692991
   3147000   0.049882537   -0.25965817     0.035805116   -0.14903407     0.00035334653
   3148000   0.049483508   -0.26000004     0.035267843   -0.15051173     0.00026546287
   3149000   0.049781528   -0.2599003      0.035145224   -0.1500876     -0.00021486747
   3150000   0.049487539   -0.25980417     0.035687299   -0.14989035    -0.00025375214
   3151000   0.050415806   -0.25968998     0.035011692   -0.14905946    -6.8642142e-05
   3152000   0.050106034   -0.25988392     0.035082306   -0.14964741     0.00052099014
   3153000   0.049974206   -0.26003678     0.035245098   -0.14983521     0.00016250076
   3154000   0.049983282   -0.25998344     0.035387645   -0.14962571     9.2740847e-05
   3155000   0.049703485   -0.25965233     0.035016988   -0.15008492     0.00060067796
   3156000   0.049885479   -0.2600867      0.035357525   -0.14990579     0.00015224203
   3157000   0.050131684   -0.26021721     0.035506582   -0.14951795     0.00029768052
   3158000   0.049756543   -0.25999232     0.035546728   -0.14981559    -0.00048141852
   3159000   0.050299663   -0.25993486     0.035501381   -0.14898885     0.00040605403
   3160000   0.050304842   -0.25999191     0.035203628   -0.14933588     0.00016162153
   3161000   0.049910388   -0.26008526     0.035532606   -0.14969191     0.00048031492
   3162000   0.050199678   -0.26019946     0.035243945   -0.14966086     0.0002126122 
   3163000   0.04954579    -0.26042462     0.035690304   -0.15042043    -0.00034485414
   3164000   0.050139353   -0.26036146     0.034607044   -0.15055024     0.00028218754
   3165000   0.049755769   -0.26021886     0.036067484   -0.14952253    -0.00026448168
   3166000   0.049138292   -0.26040076     0.035501361   -0.15119671     0.00040247924
   3167000   0.050010087   -0.26048295     0.035592018   -0.14988064    -0.00026769901
   3168000   0.0500334     -0.26022287     0.035556013   -0.1496216      0.00046456745
   3169000   0.050132881   -0.26057351     0.035077059   -0.15030198     0.00024732252
   3170000   0.049827209   -0.26049747     0.035187377   -0.1505741      0.00031036919
   3171000   0.05033236    -0.26061528     0.03493216    -0.15018946     8.9808515e-05
   3172000   0.049444006   -0.26042446     0.03594147    -0.15032177    -0.00020755862
   3173000   0.049483188   -0.2604392      0.03529758    -0.15092162    -9.727293e-05 
   3174000   0.049448946   -0.26079352     0.035486872   -0.15113802     0.000121167  
   3175000   0.049952964   -0.2608003      0.035133411   -0.15074227     0.00015191759
   3176000   0.049921706   -0.26057951     0.0354291     -0.15027268     9.9805902e-05
   3177000   0.050059705   -0.26054572     0.035659222   -0.14980178     0.0002109994 
   3178000   0.050190024   -0.26064189     0.034819315   -0.15054239     0.00046848766
   3179000   0.049683603   -0.2607594      0.035485452   -0.15075336     0.00046460795
   3180000   0.050117938   -0.26086786     0.03498572    -0.15071008    -0.00016354759
   3181000   0.049906973   -0.26075573     0.035294505   -0.1506056      0.00029182561
   3182000   0.049943276   -0.26109105     0.035752548   -0.15042842     0.00031016434
   3183000   0.050243438   -0.2608248      0.035026005   -0.1504385      0.00043988101
   3184000   0.049840177   -0.26065233     0.035090256   -0.15080664     0.00013675406
   3185000   0.049729568   -0.26077273     0.035547535   -0.15063566     0.0007144791 
   3186000   0.049496287   -0.26067315     0.035770354   -0.15066316     0.00022317147
   3187000   0.050278806   -0.26066345     0.035260117   -0.14998999    -0.00024524499
   3188000   0.050085802   -0.2609767      0.035347044   -0.1505058      0.00011076157
   3189000   0.049823112   -0.26062273     0.035203691   -0.15068919     0.00037681983
   3190000   0.049749285   -0.26050162     0.034799476   -0.15108304     0.00017164311
   3191000   0.049368108   -0.26075403     0.035486052   -0.15122059     0.00017560299
   3192000   0.050167217   -0.26066783     0.035657423   -0.14976444     0.00033932132
   3193000   0.050357921   -0.26077294     0.035176705   -0.15006423     0.00051178096
   3194000   0.050222364   -0.26068516     0.035548567   -0.14980791     0.00014284376
   3195000   0.050172235   -0.26084741     0.035766502   -0.14982742     0.00021419982
   3196000   0.050764138   -0.26087039     0.035759233   -0.14896987     0.00023360494
   3197000   0.050681399   -0.26072584     0.035437886   -0.14927076    -5.9084171e-06
   3198000   0.050322914   -0.26076        0.035234198   -0.1500463      0.0003183642 
   3199000   0.050640184   -0.26084615     0.035405226   -0.14948555     0.00064255517
   3200000   0.049975736   -0.26121726     0.03567971    -0.15057878     0.00033537965
   3201000   0.050269439   -0.26131844     0.035387842   -0.1505313     -0.00027887668
   3202000   0.05013356    -0.261109       0.035586194   -0.15032731     0.0005886238 
   3203000   0.050056527   -0.26115022     0.035289043   -0.15078123     0.00037965347
   3204000   0.050011354   -0.26069981     0.035430903   -0.15025672     0.0002448103 
   3205000   0.050183757   -0.26110618     0.035872271   -0.14996313     0.00015222994
   3206000   0.049627493   -0.26069608     0.035512563   -0.15074708     0.00045864924
   3207000   0.050100523   -0.26084809     0.035194218   -0.15050794     0.00051383361
   3208000   0.050219589   -0.26115        0.03519058    -0.1506349      0.00054295641
   3209000   0.050131606   -0.26061384     0.035644697   -0.14977659     0.0003778293 
   3210000   0.050273437   -0.2612134      0.03530196    -0.15050615     0.00022033023
   3211000   0.050013722   -0.26110274     0.03586402    -0.15022298     0.00014077325
   3212000   0.049602903   -0.26149739     0.035521938   -0.15157589     0.00022169358
   3213000   0.049983476   -0.26103845     0.035352584   -0.15071549     0.00050859303
   3214000   0.049799039   -0.26139656     0.036151655   -0.15055117    -7.6997817e-05
   3215000   0.04973607    -0.26153929     0.035576453   -0.15136355    -0.0002784481 
   3216000   0.05021909    -0.26156502     0.034894334   -0.15134691     8.0341092e-05
   3217000   0.049962407   -0.26128333     0.035162753   -0.1511818      0.00038418408
   3218000   0.050349104   -0.26149802     0.034688017   -0.15129122     1.9420276e-05
   3219000   0.050308584   -0.26125814     0.035230192   -0.15056995     1.1044217e-05
   3220000   0.05025136    -0.26188111     0.034873236   -0.1516357      0.00011128283
   3221000   0.049697381   -0.26158095     0.035682747   -0.15135694    -0.0001096915 
   3222000   0.050027297   -0.26133337     0.035682464   -0.1506148      0.00059049233
   3223000   0.050640246   -0.26174904     0.035525808   -0.15026776     3.499586e-05 
   3224000   0.050201397   -0.26132614     0.035670423   -0.15035848     0.00059621107
   3225000   0.049882872   -0.26156622     0.035614093   -0.15113265     3.5736532e-05
   3226000   0.050058781   -0.26158457     0.035569675   -0.15093157     0.0002632339 
   3227000   0.050033191   -0.26172571     0.03529911    -0.15138165     0.00029406282
   3228000   0.049947881   -0.26173738     0.035369828   -0.15145056     0.00016533365
   3229000   0.050271717   -0.26191045     0.035338157   -0.15116958     0.00028066762
   3230000   0.050313558   -0.26171575     0.035619256   -0.15063103     0.0004109188 
   3231000   0.050325126   -0.26146009     0.035893774   -0.15008349     5.9327072e-05
   3232000   0.04972026    -0.26177033     0.035593348   -0.1516014      0.00034040163
   3233000   0.050360342   -0.26175047     0.035484185   -0.15073065     0.00016279892
   3234000   0.050520413   -0.26203739     0.035483036   -0.15077862     0.00055901225
   3235000   0.050105971   -0.26218265     0.035574038   -0.1514545      4.0136896e-05
   3236000   0.049272324   -0.26208125     0.035242528   -0.152935      -7.4838354e-05
   3237000   0.04999895    -0.26170364     0.035601438   -0.15110861    -8.2191381e-05
   3238000   0.049573154   -0.26189208     0.035435756   -0.15210139     0.00068967433
   3239000   0.050065962   -0.26220981     0.036137627   -0.15097808     0.00020840522
   3240000   0.04983041    -0.26229272     0.035010796   -0.15254113     0.00081981444
   3241000   0.050231558   -0.26210947     0.035191054   -0.15157594    -0.00019176044
   3242000   0.049728146   -0.26219922     0.035248642   -0.15236317     0.00047621469
   3243000   0.049772701   -0.26198914     0.035499795   -0.15183511     0.00032155254
   3244000   0.049979522   -0.26200932     0.035450978   -0.1515939     -0.00014787673
   3245000   0.049813881   -0.26216716     0.034527746   -0.15292341    -5.3175266e-05
   3246000   0.050442797   -0.26196586     0.035033794   -0.15127275     0.00052444952
   3247000   0.049796915   -0.26201976     0.03548264    -0.15184656     0.00011176806
   3248000   0.049739771   -0.26202809     0.034683596   -0.15273965     0.00025783669
   3249000   0.050017718   -0.26210453     0.035434858   -0.15164793     0.00018409735
   3250000   0.050417567   -0.26178785     0.03535192    -0.15081445     0.00016742386
   3251000   0.049832757   -0.26267004     0.035594491   -0.15233124    -0.00026482164
   3252000   0.049817831   -0.26211497     0.034881001   -0.15251204     6.1511798e-05
   3253000   0.049652622   -0.26205601     0.034919866   -0.15266201     0.00040114811
   3254000   0.050011835   -0.26254179     0.035829634   -0.15169924    -0.00013504428
   3255000   0.050035383   -0.26253043     0.035254143   -0.15222806     0.00017656185
   3256000   0.049309349   -0.26216105     0.035412726   -0.15278907    -0.00012195008
   3257000   0.049838814   -0.26183739     0.034552239   -0.15253175     0.00041998439
   3258000   0.050354194   -0.26264141     0.03544838    -0.15166661     0.00014652957
   3259000   0.050336394   -0.26238408     0.036000713   -0.15088365     0.00014715917
   3260000   0.049948423   -0.26209329     0.035833322   -0.15134217    -6.7189545e-05
   3261000   0.050305951   -0.26238902     0.035321398   -0.15161356     0.00023736366
   3262000   0.050169176   -0.26278498     0.035179319   -0.15235676     0.00014167279
   3263000   0.049115782   -0.26301473     0.035158807   -0.15418701     0.00045396855
   3264000   0.049735446   -0.26273913     0.035442004   -0.15269877    -0.0004242596 
   3265000   0.049801581   -0.26213637     0.03509241    -0.15234641     0.00075217716
   3266000   0.050004888   -0.26263806     0.035099874   -0.15253569     0.00022477408
   3267000   0.049518131   -0.26286121     0.034958898   -0.15362991     0.00013176579
   3268000   0.049765569   -0.26288415     0.035323149   -0.15291746     0.00031963247
   3269000   0.049808129   -0.26252122     0.035075257   -0.15273859     0.00043985061
   3270000   0.050131433   -0.26262744     0.035977309   -0.15145783    -0.00023074256
   3271000   0.05023981    -0.26250906     0.035564202   -0.15159        5.3927152e-05
   3272000   0.050891109   -0.26250957     0.035534571   -0.15064326     0.00055572071
   3273000   0.051047004   -0.2626715      0.035828634   -0.1502773      9.5756404e-06
   3274000   0.050194849   -0.26261872     0.035112641   -0.15221866     0.0002608524 
   3275000   0.049291251   -0.26282623     0.035365973   -0.15352815     0.00011685551
   3276000   0.050322552   -0.26296194     0.035598143   -0.15188484     0.00071209144
   3277000   0.05027932    -0.26263287     0.035540251   -0.1516785      0.00031732892
   3278000   0.050512795   -0.26261604     0.035699697   -0.15115204     0.00017302091
   3279000   0.04984444    -0.26278757     0.03546629    -0.15255945    -0.00023181012
   3280000   0.049678575   -0.26232012     0.035379156   -0.15242791     0.00037207694
   3281000   0.050126923   -0.26262289     0.034252315   -0.15318505     0.00013638832
   3282000   0.050081119   -0.26301052     0.034753685   -0.15314       -0.00016730037
   3283000   0.049399612   -0.26311009     0.035115418   -0.15390004     0.00049449953
   3284000   0.049904772   -0.26281029     0.034921458   -0.1530365      0.0004408839 
   3285000   0.049879359   -0.26297077     0.035290949   -0.15286561     0.00030627568
   3286000   0.049589974   -0.26265834     0.035368776   -0.1529094      0.00024857779
   3287000   0.050667395   -0.26282096     0.035518842   -0.15130592     0.00013023033
   3288000   0.049648054   -0.26294785     0.035620481   -0.15286009     9.339941e-05 
   3289000   0.049352445   -0.26304023     0.035072751   -0.15394359    -0.00022539631
   3290000   0.050212228   -0.26267625     0.03574039    -0.15162238     3.8918114e-05
   3291000   0.050021383   -0.26314977     0.035051239   -0.1530713      3.2583925e-05
   3292000   0.050147278   -0.26349523     0.03536312    -0.15291605     1.5831159e-05
   3293000   0.049765182   -0.26283256     0.035553909   -0.1526357      0.00027761682
   3294000   0.050633646   -0.26302156     0.035425785   -0.15165021     0.00036441697
   3295000   0.049972991   -0.26335928     0.035886937   -0.15251769     0.00012438282
   3296000   0.050481997   -0.26331343     0.035073418   -0.1525219     -0.00015569671
   3297000   0.049611331   -0.26331657     0.035156351   -0.15374802     0.00032512564
   3298000   0.049926199   -0.26341796     0.035066675   -0.15346682    -0.00016284923
   3299000   0.049673286   -0.26315784     0.035440827   -0.15321189     0.00045959928
   3300000   0.050063667   -0.26319056     0.035442508   -0.1526574     -0.00020754701
   3301000   0.050553924   -0.26317906     0.03569891    -0.15165415     0.00044520824
   3302000   0.049801014   -0.26314319     0.035033558   -0.15341293    -0.00022778085
   3303000   0.049638301   -0.26315575     0.03546625    -0.15323685    -0.00020226965
   3304000   0.050720945   -0.2636539      0.035263156   -0.15231424     0.0002120359 
   3305000   0.049615017   -0.26318543     0.035483246   -0.15328446     0.00017843013
   3306000   0.050097439   -0.26330798     0.035595822   -0.15257085     0.00014321634
   3307000   0.049941631   -0.2633962      0.035336255   -0.15315233     0.00065131152
   3308000   0.049848542   -0.2635152      0.0356492     -0.15309801     0.00035208781
   3309000   0.050113515   -0.26374568     0.034644132   -0.15393613     0.00023955377
   3310000   0.049913129   -0.26334692     0.035696751   -0.15278531     0.0001774033 
   3311000   0.050484666   -0.26358268     0.035131356   -0.15272921     0.00020066974
   3312000   0.050748044   -0.26318801     0.035041021   -0.15202984     0.00036405366
   3313000   0.050160553   -0.26349816     0.03572932    -0.15253287     0.00043895282
   3314000   0.050186259   -0.26319707     0.035423228   -0.15249931     0.00036159124
   3315000   0.049714876   -0.26317837     0.035235163   -0.1533757      0.0003788035 
   3316000   0.050020965   -0.26345081     0.035972275   -0.15245192     2.668628e-05 
   3317000   0.050385648   -0.26391528     0.036067733   -0.15227395     7.7173225e-05
   3318000   0.050312052   -0.26365566     0.034859553   -0.1533329      0.00063427443
   3319000   0.050217668   -0.26353331     0.03548231    -0.15272935     0.00054748575
   3320000   0.050251085   -0.26362251     0.035559096   -0.15269165     0.00027036445
   3321000   0.049986201   -0.26358517     0.035554324   -0.15305638     0.00023234465
   3322000   0.049846167   -0.26378446     0.035562827   -0.15345721    -7.9424028e-05
   3323000   0.049993708   -0.26362605     0.035370155   -0.15327017     5.1976376e-05
   3324000   0.049769491   -0.26395795     0.035865566   -0.15344296     0.0002806148 
   3325000   0.050148379   -0.26358407     0.035467074   -0.15289928     7.5750259e-05
   3326000   0.050088864   -0.26351941     0.035800317   -0.15259064     0.00032198857
   3327000   0.050348104   -0.26366968     0.035144094   -0.1530083      0.0001844536 
   3328000   0.050066502   -0.26415041     0.034509714   -0.15454579     0.00062781787
   3329000   0.050447894   -0.26379836     0.03481905    -0.15331235     0.00036804991
   3330000   0.049684077   -0.26359672     0.035529203   -0.15354621     0.0002088626 
   3331000   0.050064322   -0.26379877     0.035786954   -0.15292018     7.1412039e-05
   3332000   0.050539272   -0.26380317     0.036083487   -0.15191567    -1.6874736e-05
   3333000   0.050088482   -0.26352662     0.035878768   -0.15251998     0.00052389137
   3334000   0.050303128   -0.26375702     0.035400087   -0.15290711     5.1084265e-05
   3335000   0.049566016   -0.26375312     0.035613795   -0.15379509     0.00061194354
   3336000   0.050155611   -0.26357338     0.035354256   -0.15299056     0.00040594447
   3337000   0.049853122   -0.26380316     0.035305971   -0.15372233     9.3003003e-05
   3338000   0.04995272    -0.26354304     0.035521245   -0.15309755     0.00052037662
   3339000   0.050103561   -0.26343358     0.035732214   -0.15255088    -9.8663637e-05
   3340000   0.050716395   -0.26401418     0.035969465   -0.15197503    -0.00011333059
   3341000   0.050026317   -0.26390302     0.035321061   -0.15354732    -0.00016976368
   3342000   0.050616884   -0.26401252     0.035669842   -0.15242225     8.3617284e-05
   3343000   0.050444953   -0.26330078     0.034880309   -0.15275792     0.00030208673
   3344000   0.049944797   -0.26454569     0.035668832   -0.15396449    -2.8033488e-05
   3345000   0.049714771   -0.26426605     0.035240087   -0.15445862     0.00010920336
   3346000   0.049698982   -0.26413398     0.035220929   -0.15436938     0.00029257756
   3347000   0.050104614   -0.264061       0.035210919   -0.153698      -2.1635168e-05
   3348000   0.050142253   -0.26376723     0.035737668   -0.15282103     0.00043365477
   3349000   0.050101841   -0.26379676     0.035492175   -0.15315667    -0.00029652174
   3350000   0.050008027   -0.26379447     0.035905862   -0.15288141     0.00019939902
   3351000   0.050243181   -0.26405864     0.035093378   -0.15360536     0.0004063393 
   3352000   0.049942605   -0.26406048     0.035860175   -0.15329123     0.00030326344
   3353000   0.049701774   -0.26364692     0.035097101   -0.15400197    -0.00011037838
   3354000   0.049952421   -0.2641234      0.035985461   -0.15321414     5.8901476e-06
   3355000   0.050198754   -0.26390686     0.035807313   -0.15280627    -2.9896352e-05
   3356000   0.050393983   -0.26390379     0.03519159    -0.1531261      0.00056048045
   3357000   0.050391382   -0.26383897     0.035375351   -0.15288143    -0.00025436741
   3358000   0.050090123   -0.26397387     0.035852353   -0.15299118    -0.00020679028
   3359000   0.050691213   -0.26458395     0.035440052   -0.15311198     1.9896966e-05
   3360000   0.049419945   -0.26406409     0.035652566   -0.15428638     0.00011928341
   3361000   0.04983212    -0.26436148     0.035930308   -0.15368781    -0.00018394352
   3362000   0.049947555   -0.26407332     0.036009295   -0.15314753     0.0004612104 
   3363000   0.050624226   -0.26410166     0.03570718    -0.15246304     4.9903565e-05
   3364000   0.049994187   -0.26356927     0.035799844   -0.15278299     5.045429e-05 
   3365000   0.049670315   -0.26421183     0.035560903   -0.15415026    -0.00024361834
   3366000   0.0503123     -0.26380051     0.036223844   -0.15211309     0.00070449189
   3367000   0.050667811   -0.26377681     0.035492118   -0.15228788     0.00058126525
   3368000   0.050073318   -0.2638526      0.035777875   -0.15296959     0.00012919469
   3369000   0.050294997   -0.26423628     0.035169463   -0.15362919    -3.0186993e-05
   3370000   0.050203145   -0.26396287     0.034958842   -0.15370417     0.00040580538
   3371000   0.049733319   -0.26423512     0.035174843   -0.15446511     0.00048920187
   3372000   0.049841697   -0.26414527     0.035666754   -0.1537208      0.00050445745
   3373000   0.0503929     -0.26443988     0.034695513   -0.1541599      0.00017354272
   3374000   0.049581672   -0.26425663     0.035326202   -0.15456272    -0.00013937226
   3375000   0.049580609   -0.26438862     0.035161872   -0.15486063     0.000392423  
   3376000   0.050057458   -0.26454003     0.035183808   -0.15427488     0.0002378138 
   3377000   0.050721342   -0.26450245     0.035237149   -0.1531882      0.0001908253 
   3378000   0.050161495   -0.26398152     0.035886386   -0.15285775     0.00019061906
   3379000   0.050145911   -0.26436547     0.03597346    -0.153178      -9.9145479e-05
   3380000   0.049875938   -0.26444303     0.035817882   -0.15381607     0.00020038143
   3381000   0.050253916   -0.26470489     0.035209401   -0.15411948     0.00015394552
   3382000   0.050110975   -0.26442738     0.035139317   -0.15412645     0.00022377853
   3383000   0.050243841   -0.26426995     0.03500698    -0.15390207     0.00013933784
   3384000   0.049878144   -0.26448307     0.035650164   -0.15402052     0.000189806  
   3385000   0.049474735   -0.26439385     0.034996388   -0.15519015     0.00017789898
   3386000   0.04959384    -0.26436872     0.035752384   -0.15423037     0.00020247496
   3387000   0.050246466   -0.26455659     0.035800629   -0.15339113     0.0002369304 
   3388000   0.050549009   -0.26459807     0.035703407   -0.15307604     7.0076257e-05
   3389000   0.049409285   -0.26484782     0.035635705   -0.15510297     0.00046186573
   3390000   0.049526257   -0.26463589     0.035140297   -0.155211       0.00028916995
   3391000   0.049595232   -0.26488165     0.034548458   -0.15594514     0.00014479777
   3392000   0.049943991   -0.26439502     0.035277954   -0.15420592     0.0005157024 
   3393000   0.049582257   -0.26447632     0.035354643   -0.15475309     4.3653616e-05
   3394000   0.049714081   -0.26514938     0.03533577    -0.1552473      0.0001514982 
   3395000   0.049705314   -0.26503146     0.035630272   -0.15484802     0.00011405071
   3396000   0.049627699   -0.26522352     0.035549948   -0.15523683    -4.0276339e-06
   3397000   0.04994725    -0.26507478     0.035171724   -0.15498701     0.0002781614 
   3398000   0.049973628   -0.26484192     0.0355542     -0.15433211     0.00036772061
   3399000   0.049475676   -0.26521879     0.035312177   -0.15569789     6.5016252e-05
   3400000   0.050608862   -0.26514507     0.035238489   -0.15399819     0.00061269008
   3401000   0.05010614    -0.2650484      0.035628529   -0.1542655      0.00064443026
   3402000   0.050329248   -0.26514562     0.035448587   -0.15420803     0.00041342242
   3403000   0.050037877   -0.26529947     0.035405941   -0.15484155     0.00018843289
   3404000   0.05070196    -0.26525917     0.035798019   -0.15341312    -0.00069371534
   3405000   0.049787213   -0.26529498     0.035702407   -0.15491657    -5.8489412e-05
   3406000   0.049706201   -0.26535228     0.035797608   -0.15500018     3.0238268e-05
   3407000   0.050308755   -0.26522645     0.0356993     -0.15406888    -0.00041185587
   3408000   0.050090835   -0.26514455     0.035846087   -0.15416706     0.00026846406
   3409000   0.05005532    -0.26520371     0.03523826    -0.15488731     0.0001377026 
   3410000   0.050006085   -0.26519364     0.03573128    -0.15445807     2.0322529e-05
   3411000   0.050206859   -0.26545035     0.034992505   -0.15515242     0.00049925785
   3412000   0.050539821   -0.2651071      0.03510444    -0.15419782     0.00033251971
   3413000   0.049877571   -0.26524832     0.034939287   -0.15549751     0.00025311138
   3414000   0.050217576   -0.26523039     0.035533795   -0.15437509     0.00025125397
   3415000   0.049870533   -0.26536254     0.035392881   -0.15516868    -0.00023731819
   3416000   0.049803264   -0.26519369     0.035990298   -0.15450331    -8.0714356e-05
   3417000   0.050713625   -0.26519737     0.035469925   -0.15366192     0.00047132822
   3418000   0.049797799   -0.26553708     0.036119016   -0.15472618     2.0606624e-05
   3419000   0.049741204   -0.26543816     0.034996731   -0.15583444     4.3777368e-05
   3420000   0.049520587   -0.26519692     0.03506149    -0.15585934     0.00040702056
   3421000   0.050032847   -0.2650926      0.035499845   -0.15454832     0.00062253712
   3422000   0.050344534   -0.26542929     0.035764978   -0.15415238     0.00026313211
   3423000   0.050415328   -0.26531789     0.03547379    -0.15422599     0.00010060663
   3424000   0.049807364   -0.26504548     0.035456898   -0.15488236    -9.0150241e-05
   3425000   0.050326895   -0.26558947     0.035573442   -0.15453056    -8.1712256e-05
   3426000   0.049800444   -0.26512407     0.03507103    -0.1553572      4.3246787e-05
   3427000   0.050294967   -0.2652955      0.035248449   -0.15460946     0.00025429238
   3428000   0.050249633   -0.26539216     0.035670573   -0.154352       0.00032804627
   3429000   0.050115927   -0.26563739     0.035417884   -0.15505046     0.00048261958
   3430000   0.050203535   -0.26544635     0.035217312   -0.15492859     0.00031786596
   3431000   0.050067058   -0.26549241     0.035569229   -0.15482744     0.00024582701
   3432000   0.050384862   -0.26550403     0.035358526   -0.15457309     0.00024597732
   3433000   0.049727793   -0.2658788      0.035624666   -0.15566726     2.9375298e-05
   3434000   0.049895465   -0.26555421     0.03553816    -0.15517768    -0.00016741809
   3435000   0.049796868   -0.26572293     0.035637182   -0.15539527    -0.00028030689
   3436000   0.050150488   -0.26569873     0.036079      -0.15439885    -0.00028620109
   3437000   0.04990908    -0.26546515     0.035339915   -0.15526644     0.00011905752
   3438000   0.049628175   -0.26586442     0.03572868    -0.15569828     0.00015652235
   3439000   0.050037119   -0.26578939     0.035313661   -0.1554249      0.00050332446
   3440000   0.050049986   -0.26525897     0.035132464   -0.15505637     0.00012783952
   3441000   0.049692595   -0.26531793     0.035086055   -0.15569779     5.6415094e-05
   3442000   0.050082845   -0.26576006     0.034598088   -0.15604255     0.0002912369 
   3443000   0.04993618    -0.26582815     0.035582168   -0.15534654     0.000327779  
   3444000   0.049761077   -0.26573297     0.035337873   -0.1557583     -5.2596105e-05
   3445000   0.049451022   -0.2657432      0.034856439   -0.15671502     0.00010577657
   3446000   0.049713667   -0.26627705     0.035045644   -0.15666571    -2.9701453e-05
   3447000   0.049437682   -0.26550114     0.035081671   -0.15626773     0.00020385948
   3448000   0.050089536   -0.26579855     0.035136687   -0.15553241     0.00041703272
   3449000   0.049945982   -0.26605666     0.035224133   -0.15591838     3.5967555e-05
   3450000   0.0502412     -0.26592033     0.035724532   -0.15483886     0.00022771919
   3451000   0.050235033   -0.26601969     0.035451969   -0.15522003    -0.00022768561
   3452000   0.050570869   -0.26609355     0.035838699   -0.15440344     0.00037116693
   3453000   0.049679504   -0.26604507     0.035535189   -0.15599543     1.8523683e-05
   3454000   0.049805667   -0.2658317      0.035030776   -0.15609725     0.00033723398
   3455000   0.050070706   -0.26599953     0.035695006   -0.15520331    -8.6613737e-05
   3456000   0.049947478   -0.26612082     0.035218686   -0.15598575    -5.774664e-05 
   3457000   0.050304032   -0.2661846      0.035726523   -0.1550069      2.3497993e-05
   3458000   0.050270878   -0.2659972      0.035579532   -0.15501622     3.2093818e-05
   3459000   0.049923268   -0.26581628     0.035056755   -0.15587946     0.00053672882
   3460000   0.049828615   -0.26591673     0.035371986   -0.15580664     0.00080183632
   3461000   0.049796148   -0.26628106     0.035772248   -0.15581941    -0.00012590903
   3462000   0.049755174   -0.26633269     0.035318309   -0.15638644     0.00012672459
   3463000   0.049777147   -0.26601538     0.035829497   -0.15552498     0.00032935444
   3464000   0.049992455   -0.26620652     0.03554952    -0.15567315     1.8592602e-05
   3465000   0.050471431   -0.26620392     0.03546031    -0.15504135     0.00052291704
   3466000   0.049983255   -0.26616357     0.035554282   -0.15563924     9.1434576e-05
   3467000   0.050283217   -0.26617124     0.035402539   -0.15534874     0.00013377129
   3468000   0.049984731   -0.26613787     0.035501397   -0.15566422     2.8025187e-06
   3469000   0.050496201   -0.26626612     0.035584633   -0.15494207     0.00044413536
   3470000   0.050123039   -0.26617339     0.035448741   -0.15554494     0.00037484399
   3471000   0.050286033   -0.26598949     0.034782886   -0.15578242     0.00046228907
   3472000   0.049861279   -0.26625039     0.035633749   -0.15582954    -0.00011229384
   3473000   0.050577879   -0.26578493     0.035149844   -0.15477316     0.00064133521
   3474000   0.049468166   -0.26669051     0.036179474   -0.15631357     0.00012167317
   3475000   0.049920051   -0.26676455     0.035300254   -0.15658906     0.00015128561
   3476000   0.049998946   -0.26626418     0.035081049   -0.15618955     0.00029148584
   3477000   0.04990818    -0.26635068     0.035343999   -0.15614924     0.00022676318
   3478000   0.050007968   -0.26633302     0.035538583   -0.15578733     0.00035771616
   3479000   0.050171292   -0.26622799     0.036141214   -0.15483469    -0.00013151086
   3480000   0.050070167   -0.26640022     0.035663156   -0.15563666     0.00016653617
   3481000   0.049717564   -0.26599448     0.035541464   -0.15588148     0.0002529325 
   3482000   0.050645009   -0.2665309      0.035165609   -0.15540268     0.00018801765
   3483000   0.049930181   -0.26634622     0.035520319   -0.15593546     0.00056387138
   3484000   0.049629808   -0.26638346     0.035605461   -0.15633809     0.0002643716 
   3485000   0.050583104   -0.26681179     0.035625546   -0.15531649     0.00012428208
   3486000   0.050458205   -0.26671955     0.035561401   -0.15547572     0.00022727897
   3487000   0.050218094   -0.2662347      0.034950155   -0.15596226    -8.6911695e-05
   3488000   0.050056468   -0.26706709     0.035426225   -0.156561       0.00023556393
   3489000   0.049256958   -0.26674441     0.035714223   -0.15714951     0.00038893213
   3490000   0.04995175    -0.26670846     0.035815861   -0.15596981     0.00046108473
   3491000   0.050368454   -0.26703789     0.035520519   -0.15596957    -5.1070692e-05
   3492000   0.05011127    -0.26674981     0.035711072   -0.15587668     4.7603342e-05
   3493000   0.050267369   -0.26660792     0.035877634   -0.1553341     -0.00022583725
   3494000   0.050082063   -0.26674088     0.03468718    -0.15693545     0.00064614363
   3495000   0.049570105   -0.26675647     0.035465655   -0.15694046     0.00010651148
   3496000   0.050431046   -0.26701675     0.035021552   -0.15635351    -5.1094966e-05
   3497000   0.049929105   -0.26672899     0.035249216   -0.15659095     0.00058174185
   3498000   0.049257621   -0.26712917     0.035853824   -0.15739368     0.00017209294
   3499000   0.049977194   -0.26697108     0.035646312   -0.15636381    -0.00011496131
   3500000   0.049741395   -0.26667007     0.035771555   -0.15629124     0.00032848537
   3501000   0.050236178   -0.2668808      0.035673317   -0.15585808     0.00017317261
   3502000   0.049674294   -0.26681284     0.035950832   -0.15635538     0.00032127236
   3503000   0.050093382   -0.26695293     0.034677958   -0.15713975    -7.741868e-05 
   3504000   0.050185606   -0.26742783     0.035907365   -0.15624691     0.00021429765
   3505000   0.05007097    -0.26696008     0.035797108   -0.15606136     0.00012155869
   3506000   0.050313673   -0.26729096     0.035291164   -0.15653416     0.0002108678 
   3507000   0.050340275   -0.26697567     0.035406293   -0.15606384     0.00020919842
   3508000   0.049849294   -0.26740061     0.035710366   -0.15692113     0.00012665999
   3509000   0.050201199   -0.26705158     0.035437593   -0.15631705     2.1494311e-05
   3510000   0.050394923   -0.26760672     0.036171116   -0.1558481     -6.7451453e-05
   3511000   0.049918235   -0.26754041     0.035632659   -0.15703523    -8.4269926e-05
   3512000   0.050372805   -0.26758066     0.035352104   -0.15667423     0.00080453526
   3513000   0.049458333   -0.26741296     0.035739649   -0.1574906      7.3625933e-05
   3514000   0.049834397   -0.26753208     0.035702938   -0.15708237     0.00039115198
   3515000   0.050757122   -0.26747917     0.035446123   -0.15590227     0.00011411446
   3516000   0.05040208    -0.26732815     0.035854385   -0.15587552    -1.7628828e-05
   3517000   0.050023277   -0.26697716     0.035383902   -0.15656318     0.00054644837
   3518000   0.049823778   -0.26756479     0.035582238   -0.15725171    -9.0770758e-05
   3519000   0.049514213   -0.26763743     0.036261833   -0.15710906     0.00024212166
   3520000   0.049617099   -0.26747348     0.03555577    -0.15749686     0.00069250643
   3521000   0.049529889   -0.26750225     0.035610164   -0.15760205     2.5986768e-05
   3522000   0.049085066   -0.2674436      0.034901501   -0.15891925     0.00014823696
   3523000   0.04933402    -0.26718132     0.034792658   -0.1583924      0.00034416295
   3524000   0.049166908   -0.26734776     0.034779888   -0.15882227    -0.00012628747
   3525000   0.050139679   -0.26789683     0.03539346    -0.15729871     0.00062604058
   3526000   0.049670753   -0.26769201     0.035451458   -0.15773923    -0.00021454786
   3527000   0.049818257   -0.26763451     0.034853062   -0.15805888     0.00012072838
   3528000   0.050308737   -0.26756782     0.034951251   -0.15715833     0.00064352541
   3529000   0.049837757   -0.26751309     0.03545472    -0.15730655     0.00018475457
   3530000   0.049679153   -0.2674898      0.035884837   -0.15709104    -8.1991317e-05
   3531000   0.049993004   -0.26754992     0.035377948   -0.1571873      3.4277531e-05
   3532000   0.049528162   -0.26771743     0.035742237   -0.15768774    -0.00024521354
   3533000   0.049825025   -0.26767555     0.034926356   -0.15801648     0.00014363141
   3534000   0.0500107     -0.26776241     0.035693206   -0.157058      -0.00011741042
   3535000   0.05009828    -0.26760859     0.03499537    -0.15747065     0.00035738116
   3536000   0.049947285   -0.26746556     0.035252857   -0.15729661     0.0002595632 
   3537000   0.050177132   -0.26778385     0.03555283    -0.15697018     0.00010697324
   3538000   0.049934301   -0.2676378      0.03580068    -0.1569405     -0.00012882135
   3539000   0.049779764   -0.26749906     0.035383766   -0.15745047    -0.00023205997
   3540000   0.049884604   -0.26794522     0.035811377   -0.15731176     0.00028313666
   3541000   0.050062185   -0.26775594     0.036324257   -0.15634325     0.00028431225
   3542000   0.04980375    -0.26775151     0.035923893   -0.15712681     0.00011067451
   3543000   0.050111545   -0.26778081     0.035609185   -0.15700916     0.00018210956
   3544000   0.050162122   -0.26778105     0.035866987   -0.15667574     0.00013645633
   3545000   0.049760642   -0.26765517     0.035546932   -0.15747209     6.2905554e-05
   3546000   0.04960964    -0.26761837     0.035577818   -0.1576309     -0.00030912888
   3547000   0.050120007   -0.26818531     0.034591658   -0.15841849     8.4355837e-05
   3548000   0.049732099   -0.267798       0.034877487   -0.15832718     0.00034238273
   3549000   0.050174507   -0.26780847     0.035359017   -0.15719255    -0.0001045408 
   3550000   0.050156461   -0.26788975     0.035780825   -0.15687909    -7.6908878e-05
   3551000   0.050030118   -0.26811812     0.035615894   -0.15746189     0.00014868199
   3552000   0.049370403   -0.26749722     0.035629232   -0.15781716     0.00013925491
   3553000   0.050562745   -0.26757753     0.035276801   -0.1564615      7.3461081e-05
   3554000   0.050284676   -0.26779949     0.035695804   -0.15668154    -0.00022523831
   3555000   0.049278185   -0.26806162     0.036081802   -0.15806731     0.00035709371
   3556000   0.050299149   -0.26784178     0.035965388   -0.15643254     0.0001215207 
   3557000   0.049952736   -0.26787332     0.035424038   -0.15752502     0.00015828012
   3558000   0.050788957   -0.26781141     0.035065681   -0.1565672      0.00024868043
   3559000   0.049609935   -0.2679418      0.035239549   -0.15829215     0.00023312544
   3560000   0.050151053   -0.26759234     0.034950685   -0.15741993    -0.00052704003
   3561000   0.049756806   -0.26773516     0.035718011   -0.15738676     0.000143974  
   3562000   0.049812675   -0.26820303     0.03541163    -0.15807721     0.00016789079
   3563000   0.050407401   -0.26784848     0.034861942   -0.15738032     6.7929584e-05
   3564000   0.049746366   -0.26790055     0.035732313   -0.1575535      6.123079e-05 
   3565000   0.049906714   -0.2681254      0.035824608   -0.15744555    -0.00045167418
   3566000   0.049735496   -0.26797245     0.035581826   -0.15779219     0.0002146165 
   3567000   0.050115759   -0.26807129     0.035228404   -0.1576741      0.00014245072
   3568000   0.0502917     -0.2675556      0.035640783   -0.15648213    -0.00022265855
   3569000   0.049946133   -0.26763314     0.035413509   -0.15730526     0.00014424875
   3570000   0.050310234   -0.26842127     0.03515991    -0.15780088    -5.8117437e-05
   3571000   0.050227755   -0.26802809     0.035582977   -0.15710834     0.00014017824
   3572000   0.050236925   -0.26761864     0.035564343   -0.15670377    -1.2516998e-05
   3573000   0.050680448   -0.2681968      0.034988757   -0.15719228     0.00038351093
   3574000   0.049974604   -0.26775513     0.035505711   -0.15729235    -4.2211139e-06
   3575000   0.050284515   -0.26773793     0.035078029   -0.15723799     0.00054960517
   3576000   0.050062825   -0.26805393     0.035614841   -0.1573497     -8.7704735e-05
   3577000   0.050542422   -0.26771568     0.03524287    -0.15666407     0.00029457625
   3578000   0.050548224   -0.26800404     0.035870748   -0.15631585     0.00024251361
   3579000   0.049809179   -0.26783434     0.036620247   -0.15650515    -0.00013510973
   3580000   0.050267125   -0.26808882     0.035627809   -0.15706519     0.00035506872
   3581000   0.050376622   -0.2679882      0.035547778   -0.15688036     4.9047668e-06
   3582000   0.050002173   -0.26830795     0.034966872   -0.15834266     0.00063557484
   3583000   0.049460317   -0.26822029     0.035453882   -0.15858072    -9.6726628e-05
   3584000   0.049352001   -0.26794467     0.035509929   -0.15841152     4.3963218e-05
   3585000   0.049849773   -0.26827844     0.035760823   -0.15774779     0.0003771212 
   3586000   0.050131219   -0.26797418     0.035661946   -0.15712026    -7.6741231e-05
   3587000   0.050119483   -0.26810763     0.035247509   -0.15768575     0.00015180289
   3588000   0.050112198   -0.26785316     0.034853893   -0.15783582     0.00032349147
   3589000   0.049868367   -0.26785687     0.035152252   -0.15790689     0.00034444941
   3590000   0.049280695   -0.26812911     0.035184724   -0.15902812     0.00045370433
   3591000   0.049759125   -0.26805893     0.035272801   -0.15815225     0.00028570389
   3592000   0.049978431   -0.26830685     0.035494846   -0.1578492     -0.00020266681
   3593000   0.050157208   -0.26795543     0.034774144   -0.15795033     0.00060250368
   3594000   0.049872217   -0.26820672     0.034960704   -0.15844252     0.0002579611 
   3595000   0.050170982   -0.26834721     0.035214892   -0.1578807      0.00050631048
   3596000   0.049871954   -0.26799461     0.035140666   -0.15805084     0.0004960509 
   3597000   0.049479008   -0.26830227     0.035278727   -0.15880982    -3.2187237e-05
   3598000   0.049586293   -0.26843946     0.035922445   -0.15814237    -8.7771174e-05
   3599000   0.050143975   -0.26808346     0.036181962   -0.15669039     0.00025485672
   3600000   0.050439578   -0.26811297     0.03579628    -0.15666221     0.00030956002
   3601000   0.05019125    -0.2684054      0.035566422   -0.15755696     0.00023136156
   3602000   0.049851232   -0.26826907     0.035786082   -0.15771097    -1.8249516e-05
   3603000   0.050680042   -0.26812728     0.035456193   -0.15665593     0.00010150507
   3604000   0.050539548   -0.26847631     0.035499687   -0.15717219    -3.7867039e-05
   3605000   0.050016276   -0.26871674     0.035876061   -0.1578211     -0.00018303367
   3606000   0.049467231   -0.26803809     0.036008592   -0.15783344     0.00037971614
   3607000   0.050405882   -0.26842029     0.035649346   -0.15716699     0.00022484759
   3608000   0.050313889   -0.26844877     0.035533604   -0.15744921     0.00046947628
   3609000   0.049607133   -0.2686694      0.034863313   -0.15940018     0.00019858507
   3610000   0.050213258   -0.26858293     0.035630143   -0.15763776     0.00031427804
   3611000   0.050282184   -0.26846526     0.035845251   -0.1572016      0.00038639743
   3612000   0.051060795   -0.26893245     0.035117747   -0.15722845     0.00013329215
   3613000   0.05022528    -0.26850671     0.035965918   -0.15720773    -7.8445571e-06
   3614000   0.05054013    -0.26853953     0.035743821   -0.15699041     0.00033594967
   3615000   0.050265357   -0.26847834     0.035030909   -0.15805426     0.00038274514
   3616000   0.04981977    -0.26898099     0.035243919   -0.15901223     0.00021233643
   3617000   0.04978844    -0.26811228     0.035159535   -0.1582749      0.00053341795
   3618000   0.049727616   -0.26882172     0.035878232   -0.15835688    -3.9084011e-07
   3619000   0.049558722   -0.26843783     0.036186137   -0.1579184     -2.0763494e-05
   3620000   0.050280926   -0.26865639     0.035425037   -0.15781483     0.00038469853
   3621000   0.050305951   -0.26906963     0.036044271   -0.1575713     -0.00026114209
   3622000   0.050022435   -0.26893818     0.034967213   -0.15894215    -7.0670928e-05
   3623000   0.050219667   -0.26911613     0.035783231   -0.15800826     0.00030877261
   3624000   0.049625676   -0.26894733     0.035732714   -0.1587809      0.00011340379
   3625000   0.05035973    -0.26887891     0.03544693    -0.15789726     0.00034859354
   3626000   0.049980026   -0.26896776     0.035582803   -0.15841975     0.0004120481 
   3627000   0.049903096   -0.26870363     0.035057781   -0.15879603     0.00020002975
   3628000   0.050359935   -0.26882642     0.035368052   -0.15792334     0.00016894407
   3629000   0.050039932   -0.26898955     0.035559635   -0.15837486    -0.00027372591
   3630000   0.049998806   -0.26908042     0.035183028   -0.15890402     5.1369693e-05
   3631000   0.050040606   -0.26914305     0.035787487   -0.1582995     -0.00012119634
   3632000   0.049989221   -0.26882284     0.034975362   -0.15886848    -8.0955459e-05
   3633000   0.04988084    -0.26911668     0.035102345   -0.1591979      0.00017198133
   3634000   0.050195693   -0.2690363      0.035239202   -0.15850842    -0.00012745266
   3635000   0.05011794    -0.26925769     0.035346419   -0.15873921    -0.00010921897
   3636000   0.04972774    -0.26901444     0.03561553    -0.15881211     0.00035699094
   3637000   0.050599651   -0.26897091     0.035437911   -0.15763842     0.00031655198
   3638000   0.049874914   -0.26917827     0.034620628   -0.1597501      0.00029934689
   3639000   0.049909138   -0.26920874     0.035267631   -0.15908223     0.00039635021
   3640000   0.050077935   -0.26927963     0.035174399   -0.15899317    -0.00020518436
   3641000   0.050213612   -0.26917518     0.035356134   -0.15850349     0.00022459877
   3642000   0.050767574   -0.26914954     0.034944218   -0.15805888     3.88526e-05  
   3643000   0.050161909   -0.26945975     0.035132338   -0.1590894      7.0768032e-05
   3644000   0.049849505   -0.26936754     0.035360748   -0.15923735     0.00033646065
   3645000   0.04946429    -0.26984135     0.035347093   -0.1603026      9.7764178e-05
   3646000   0.049314308   -0.2693625      0.035203001   -0.16019281     0.00022638295
   3647000   0.050570251   -0.26951571     0.035241989   -0.15842324     6.7103152e-05
   3648000   0.050048492   -0.26923075     0.035048046   -0.15911481    -0.00011363198
   3649000   0.049993601   -0.26933995     0.035402683   -0.1589517      0.00029284219
   3650000   0.050033902   -0.26943944     0.03554728    -0.15884615     8.1095235e-06
   3651000   0.04922713    -0.26948755     0.035920318   -0.1597313      0.00033790727
   3652000   0.049741605   -0.26936084     0.035350074   -0.15940317     0.0006530194 
   3653000   0.049954223   -0.26931237     0.035094889   -0.15929098     3.0095474e-05
   3654000   0.049889349   -0.26964876     0.035011929   -0.15980763     0.00011551945
   3655000   0.05046515    -0.2695538      0.035237637   -0.15862332     0.00018354718
   3656000   0.049738977   -0.26968123     0.035163457   -0.15991412    -0.00046173866
   3657000   0.04963778    -0.26968416     0.035506724   -0.15972557    -7.6237839e-05
   3658000   0.049922005   -0.2694887      0.035366333   -0.15924419     0.00061178905
   3659000   0.049794361   -0.26998166     0.035766241   -0.1595287      0.0002931346 
   3660000   0.050352075   -0.26949922     0.035486343   -0.15848964     0.00034488591
   3661000   0.050561236   -0.26953615     0.035768558   -0.15793063     8.0943729e-05
   3662000   0.050099209   -0.26948873     0.035700806   -0.15864396    -3.9780375e-05
   3663000   0.050339691   -0.26938965     0.035716378   -0.1581686     -3.9465957e-05
   3664000   0.050295194   -0.26958238     0.036101371   -0.15804308     0.00020676595
   3665000   0.050200816   -0.26965997     0.035348546   -0.15901506     0.00019602411
   3666000   0.049821203   -0.26951327     0.035980271   -0.15880602    -7.999532e-05 
   3667000   0.050122326   -0.27003644     0.035386408   -0.15947139     0.00027650923
   3668000   0.050039621   -0.26962429     0.035394153   -0.15917555     0.00032677215
   3669000   0.050394326   -0.26949367     0.03556223    -0.15834482     0.00028613883
   3670000   0.050263574   -0.27004936     0.035601863   -0.159057       0.00082890689
   3671000   0.049514617   -0.26984425     0.035114362   -0.16046276     9.6808079e-05
   3672000   0.05003889    -0.26976308     0.035627683   -0.15908191    -2.1834097e-05
   3673000   0.049991982   -0.26990367     0.035737757   -0.15918278     0.0002930989 
   3674000   0.049803198   -0.26971197     0.035711228   -0.15930077     0.00025676193
   3675000   0.050295871   -0.26965388     0.035066383   -0.15914856     0.00032963564
   3676000   0.050203732   -0.2702581      0.035887648   -0.15906971     8.4312165e-05
   3677000   0.049751389   -0.26982191     0.035891586   -0.15930805     0.00027301935
   3678000   0.049776365   -0.27019683     0.035072277   -0.16046483    -0.00025523842
   3679000   0.050118104   -0.27017646     0.035564002   -0.15944015     0.00010910131
   3680000   0.050316792   -0.26954809     0.035838485   -0.15823929     0.00077283441
   3681000   0.050694789   -0.2698095      0.035594869   -0.15817735     5.9798831e-05
   3682000   0.050560597   -0.2697717      0.035668208   -0.15826749    -2.5610955e-05
   3683000   0.050803055   -0.27017659     0.036003607   -0.15797331     0.0004200771 
   3684000   0.050374957   -0.27020661     0.035429367   -0.15921968    -1.6147593e-05
   3685000   0.050245583   -0.2702715      0.035859853   -0.15904814     0.00022151346
   3686000   0.049844642   -0.27014001     0.035049767   -0.1603281      0.00037971032
   3687000   0.049940159   -0.27021988     0.035617566   -0.15969691     0.00036560571
   3688000   0.05025198    -0.27035665     0.03507724    -0.1599063      7.0235568e-05
   3689000   0.05009421    -0.27023399     0.034975773   -0.16012175     0.00028058637
   3690000   0.04965712    -0.27025499     0.035349765   -0.16042435    -0.00019209779
   3691000   0.050062171   -0.27013268     0.035400002   -0.15964427     1.107652e-05 
   3692000   0.049703682   -0.27012428     0.035118659   -0.16045491     0.00033027705
   3693000   0.049413046   -0.27021486     0.035389401   -0.16071068     6.5592707e-05
   3694000   0.050025354   -0.27020274     0.035318951   -0.1598506      0.00050181372
   3695000   0.049871747   -0.2701366      0.034747941   -0.16058587    -6.3924937e-05
   3696000   0.049567882   -0.27042208     0.035268142   -0.16080691     0.00018460799
   3697000   0.049689405   -0.27052028     0.035658217   -0.16033277    -4.7965074e-05
   3698000   0.049460518   -0.2705533      0.034983752   -0.16138356    -0.00051512749
   3699000   0.049449977   -0.27061395     0.035969189   -0.16047458    -0.00019317027
   3700000   0.04977648    -0.270744       0.035770642   -0.16031346     0.00023346326
   3701000   0.050523787   -0.26994943     0.03512169    -0.15904695     9.4159045e-05
   3702000   0.049997399   -0.27003963     0.035449886   -0.15959848     0.0001435039 
   3703000   0.049827456   -0.27032393     0.035362268   -0.1602253      0.00013534366
   3704000   0.049998176   -0.2699273      0.035586937   -0.15934794     8.6732754e-05
   3705000   0.049977906   -0.27066265     0.034799671   -0.16090096     0.00051683417
   3706000   0.050096792   -0.27063849     0.035474852   -0.1600233     -3.5573404e-05
   3707000   0.050098253   -0.27069284     0.035002656   -0.16054765     0.00037224471
   3708000   0.050163977   -0.27069515     0.036315665   -0.15913838    -8.0085251e-06
   3709000   0.049744894   -0.27047682     0.035464052   -0.16040024     0.0004463071 
   3710000   0.050617093   -0.2705028      0.036030315   -0.15855175    -0.00016909916
   3711000   0.050681595   -0.27065396     0.03537855    -0.15925792     0.00041144014
   3712000   0.050537157   -0.27047835     0.035493213   -0.15918429     0.00031806613
   3713000   0.050185544   -0.27059804     0.035483373   -0.1598412     -0.00019331623
   3714000   0.050620321   -0.2706082      0.035487976   -0.15919464     9.0802321e-05
   3715000   0.049743995   -0.27053769     0.035518257   -0.16040825     0.00030407799
   3716000   0.050302758   -0.2708395      0.035437157   -0.15995308     0.00049090208
   3717000   0.049556126   -0.27062063     0.035852409   -0.16043883     0.00021328199
   3718000   0.049718109   -0.27061518     0.03510843    -0.16093439     7.8313904e-05
   3719000   0.049715958   -0.27065447     0.035454328   -0.16063101     0.00049073145
   3720000   0.049825956   -0.27085701     0.035080919   -0.16104198     0.0003904452 
   3721000   0.050254739   -0.27117773     0.035737623   -0.16006286     1.3591751e-05
   3722000   0.050494424   -0.27057603     0.035700872   -0.15913841     0.00025134877
   3723000   0.049755348   -0.27087519     0.035732254   -0.16051473     0.000275272  
   3724000   0.049889193   -0.27105907     0.035198504   -0.16103161    -1.3951847e-05
   3725000   0.050019431   -0.27094383     0.035488986   -0.16043054     0.00010434284
   3726000   0.049950036   -0.2708813      0.035520138   -0.16044094    -5.2064184e-05
   3727000   0.050061117   -0.27092045     0.035213409   -0.16062021     0.00020658636
   3728000   0.049868268   -0.27085987     0.035319476   -0.16074282     1.7930033e-05
   3729000   0.049825818   -0.27069521     0.036019247   -0.15994205     2.4421207e-05
   3730000   0.050105628   -0.27076438     0.035954059   -0.15965673    -2.0806064e-05
   3731000   0.049911322   -0.27081016     0.035579022   -0.16036899     0.00022175426
   3732000   0.049453013   -0.27107758     0.03525737    -0.16164547     6.5658419e-05
   3733000   0.050101135   -0.2708162      0.035192862   -0.16047648     0.00029121839
   3734000   0.050265027   -0.2709896      0.035585406   -0.16001152    -0.00047063042
   3735000   0.04977078    -0.27086482     0.035501781   -0.16071168     0.00022346816
   3736000   0.04987881    -0.27088983     0.035485533   -0.16059091    -0.00024813783
   3737000   0.049832817   -0.27081683     0.035834167   -0.16023826     0.0001044316 
   3738000   0.05026411    -0.27063907     0.035852882   -0.15939489    -8.6694371e-05
   3739000   0.049929068   -0.27073261     0.035453007   -0.16039083    -8.636842e-06 
   3740000   0.050615123   -0.27129966     0.035252334   -0.16012954     0.00032820041
   3741000   0.050393794   -0.27138057     0.035376791   -0.16041797     9.4929115e-06
   3742000   0.049762459   -0.27114203     0.03525829    -0.16124487     0.0002384999 
   3743000   0.049913664   -0.27131599     0.035643659   -0.16080667     8.7734696e-06
   3744000   0.049601002   -0.27121444     0.035860224   -0.16095751     1.3481251e-05
   3745000   0.049880742   -0.27120368     0.035808081   -0.16057931     0.00045096256
   3746000   0.050394234   -0.27121575     0.035343379   -0.1602859      0.00041602126
   3747000   0.050045512   -0.27115141     0.035600059   -0.16048792    -3.6455059e-05
   3748000   0.049963989   -0.2711403      0.03582813    -0.16037103     3.6236566e-05
   3749000   0.050192058   -0.27121371     0.035382599   -0.16054788    -0.00011134695
   3750000   0.050142145   -0.27116626     0.035718605   -0.16023929    -4.547127e-05 
   3751000   0.049950796   -0.27146345     0.036032286   -0.16050981     0.00039645932
   3752000   0.04972612    -0.27137234     0.035374596   -0.16141337     0.00031285993
   3753000   0.049647063   -0.27131754     0.035134831   -0.16171692     0.00047082395
   3754000   0.050258181   -0.27126773     0.035075664   -0.16080966     0.00040118671
   3755000   0.050162915   -0.27152183     0.035297933   -0.16098438     5.0788604e-05
   3756000   0.049925429   -0.27158243     0.035020766   -0.16167835     0.00052497308
   3757000   0.050365736   -0.27139704     0.036127548   -0.15972576    -7.2553704e-05
   3758000   0.049810672   -0.27175761     0.035094087   -0.16195233     0.00038088193
   3759000   0.050156885   -0.27182923     0.035542913   -0.16105584     0.00025683994
   3760000   0.049790697   -0.27177252     0.035371065   -0.16172023    -0.00015297686
   3761000   0.050070162   -0.27161277     0.035697106   -0.16081526     4.5142434e-05
   3762000   0.049997639   -0.27188313     0.03604375    -0.16084776     0.00017380845
   3763000   0.049907778   -0.27166097     0.035635472   -0.16116867     3.9741156e-05
   3764000   0.049868152   -0.27163398     0.035527279   -0.1613093      0.00014676409
   3765000   0.04955286    -0.27196476     0.035858529   -0.16178173    -6.9563893e-05
   3766000   0.049697454   -0.27165848     0.035044696   -0.16207241     0.00037379108
   3767000   0.049821258   -0.27196978     0.034916904   -0.16232581     0.00060390286
   3768000   0.049351245   -0.2715818      0.035542548   -0.16201716    -6.7485458e-05
   3769000   0.049423871   -0.2719098      0.035094008   -0.16268476     0.00011827051
   3770000   0.0496627     -0.27199474     0.035611967   -0.16189353    -1.1558024e-05
   3771000   0.049732434   -0.27198189     0.035392101   -0.16199595    -0.00020349139
   3772000   0.049860337   -0.27219412     0.035122237   -0.1622862      0.00014427625
   3773000   0.050080312   -0.27205944     0.035707378   -0.16123644    -0.0001260225 
   3774000   0.050046047   -0.27213858     0.035815108   -0.16125924     5.0264471e-05
   3775000   0.049605305   -0.27177853     0.035225871   -0.1621495     -5.1472982e-05
   3776000   0.049701902   -0.27209024     0.035844221   -0.16169798     0.00012161781
   3777000   0.050195782   -0.27186211     0.035144077   -0.16142921     0.00019034191
   3778000   0.050074693   -0.27193424     0.035653571   -0.16117348     0.00010830713
   3779000   0.049865438   -0.27227462     0.035063777   -0.16241751    -5.8697072e-05
   3780000   0.049577827   -0.27181083     0.035239811   -0.16220907     6.5520243e-05
   3781000   0.050305866   -0.27207179     0.035654872   -0.16096298     0.00065335688
   3782000   0.049507944   -0.27244269     0.035769409   -0.16241615    -0.00022940188
   3783000   0.050068942   -0.27204051     0.035558251   -0.16138369    -0.00029553443
   3784000   0.049877624   -0.27195937     0.035484655   -0.1616631      0.00017685488
   3785000   0.049750901   -0.27204039     0.035568799   -0.16185005     0.00011195995
   3786000   0.049965191   -0.27228875     0.035171029   -0.16217477     0.000142724  
   3787000   0.050355195   -0.27193915     0.035277373   -0.16113386     0.00022231756
   3788000   0.049888066   -0.27198215     0.035363217   -0.16179167     1.7162918e-05
   3789000   0.04983359    -0.27212017     0.035354654   -0.16201996     0.00041838046
   3790000   0.050066159   -0.27263769     0.035050021   -0.16249328     8.8006585e-05
   3791000   0.049933859   -0.27201222     0.034910346   -0.16220592     8.6658889e-05
   3792000   0.049857938   -0.27238915     0.035526895   -0.16208018     0.00018344064
   3793000   0.050278037   -0.27216822     0.035470319   -0.16128571     0.00042584709
   3794000   0.050158442   -0.27244142     0.035998288   -0.16121032    -0.0002013059 
   3795000   0.050174911   -0.27201423     0.035556645   -0.16120008     0.00044401897
   3796000   0.049519495   -0.27223957     0.036130526   -0.16183459    -5.5174699e-05
   3797000   0.049973407   -0.27193576     0.035620403   -0.16136008     0.00031714904
   3798000   0.050211357   -0.27191363     0.035490054   -0.16111139    -0.00014631388
   3799000   0.049762346   -0.2724111      0.035854361   -0.16191803     0.00013907899
   3800000   0.050098204   -0.27239912     0.035899708   -0.16135696     3.2157764e-05
   3801000   0.049842902   -0.27216412     0.035233489   -0.1621711      0.00027554219
   3802000   0.050171832   -0.27242326     0.035433108   -0.16173726     0.00027220832
   3803000   0.049768845   -0.27229004     0.035365084   -0.1622765     -0.00011914906
   3804000   0.049428757   -0.27178891     0.035319875   -0.16233068     0.0002127343 
   3805000   0.049826048   -0.2723805      0.035727447   -0.1619188      2.2390223e-05
   3806000   0.050288884   -0.2725586      0.03527015    -0.16185999    -8.3543756e-05
   3807000   0.04980173    -0.27201927     0.035228147   -0.16209335     0.00045042322
   3808000   0.049833876   -0.27221261     0.035703036   -0.16176358     2.9791016e-05
   3809000   0.049831812   -0.27249887     0.035432268   -0.16232371     0.00027415809
   3810000   0.049767156   -0.27278394     0.035636488   -0.16250153    -0.0001723729 
   3811000   0.050107703   -0.27230832     0.035266531   -0.16188508     0.00046201372
   3812000   0.050220263   -0.2725866      0.035143597   -0.16211747     4.113034e-05 
   3813000   0.049487125   -0.27236805     0.03538967    -0.16275248    -9.5835197e-05
   3814000   0.049589926   -0.27256086     0.035515755   -0.16266501     0.00031103584
   3815000   0.050285378   -0.27270086     0.035497176   -0.16178048     0.0003593268 
   3816000   0.050286765   -0.27264923     0.035324782   -0.16189916     4.6140166e-05
   3817000   0.050023256   -0.27244982     0.035678778   -0.161741       0.00042377067
   3818000   0.050041308   -0.27267176     0.035778268   -0.16183637    -7.7584571e-05
   3819000   0.050199274   -0.27257404     0.035242345   -0.16203764     0.00040861087
   3820000   0.049440663   -0.27243233     0.035665364   -0.16261075     0.0002414522 
   3821000   0.050016918   -0.27255306     0.034814419   -0.1627181      0.00064100687
   3822000   0.050418533   -0.27284232     0.035085976   -0.16213342    -0.00016480643
   3823000   0.050249022   -0.27281979     0.035879905   -0.16157121    -4.286395e-05 
   3824000   0.049497309   -0.27275264     0.035177646   -0.16333382     0.00071985143
   3825000   0.049831958   -0.27238804     0.035342669   -0.16230226     2.7720865e-05
   3826000   0.050107619   -0.27237009     0.035614333   -0.16159918     0.00012971172
   3827000   0.049910294   -0.27248498     0.035735098   -0.16188927     0.00014571746
   3828000   0.049824087   -0.272711       0.035932313   -0.16204737     8.5792835e-05
   3829000   0.04967604    -0.27269463     0.034824999   -0.16336038     9.1656214e-05
   3830000   0.049652373   -0.27275134     0.035659805   -0.16261778     0.00018314969
   3831000   0.049953087   -0.27257947     0.035116217   -0.16253846     1.8856982e-05
   3832000   0.050032255   -0.27314128     0.036089686   -0.16200806     0.00033209112
   3833000   0.049998567   -0.27283655     0.035737472   -0.16210607    -0.00028159178
   3834000   0.050129495   -0.2727699      0.035225308   -0.1623552      0.00017458669
   3835000   0.049642961   -0.27255298     0.034789103   -0.16330424     0.00014565895
   3836000   0.049889368   -0.27325747     0.03563413    -0.16279411    -0.0002180267 
   3837000   0.050135711   -0.27296675     0.034510593   -0.16325744     0.0002470029 
   3838000   0.0501911     -0.27300992     0.035610422   -0.16211771    -8.3503406e-05
   3839000   0.050027053   -0.27249495     0.035195612   -0.1622636     -0.00030628006
   3840000   0.050284483   -0.27268788     0.035533509   -0.16173251     0.00042479594
   3841000   0.049793937   -0.27274909     0.035460506   -0.16260249    -0.00020630651
   3842000   0.049836551   -0.27310851     0.035212857   -0.16314564     2.7351884e-05
   3843000   0.049155438   -0.27283926     0.03565058    -0.16346028    -7.2946726e-05
   3844000   0.049811516   -0.2730132      0.035585506   -0.16271524     0.00023574091
   3845000   0.049896036   -0.27292405     0.034724837   -0.16335998     0.00025561146
   3846000   0.049698007   -0.27230994     0.035398835   -0.1623689      0.00032022562
   3847000   0.050489209   -0.27307496     0.035608235   -0.1617378     -6.8818917e-07
   3848000   0.05012741    -0.27302944     0.035725086   -0.16211809     2.3678454e-05
   3849000   0.050223147   -0.27276528     0.035834832   -0.16160059    -0.00015159616
   3850000   0.050109714   -0.27344153     0.034667463   -0.16361434     1.8907858e-05
   3851000   0.050145163   -0.27299158     0.035258867   -0.16251983    -9.7578742e-05
   3852000   0.049810773   -0.27289203     0.035522189   -0.1626585      2.2140694e-05
   3853000   0.049991477   -0.27304083     0.03577435    -0.1622841      0.00033256392
   3854000   0.050591822   -0.27299781     0.035318002   -0.16179697     0.00046020469
   3855000   0.050188592   -0.2729895      0.035906442   -0.16180503     0.00025228793
   3856000   0.050114163   -0.2732975      0.0356117     -0.1625194     -9.9988747e-05
   3857000   0.050230222   -0.27307889     0.035104444   -0.16263398     0.00017386595
   3858000   0.050365466   -0.27288369     0.035191886   -0.16214848     0.00076247215
   3859000   0.050280631   -0.27320799     0.035296931   -0.16249498     0.00010637046
   3860000   0.049439416   -0.2730214      0.035442078   -0.16342499     1.5388042e-05
   3861000   0.050004435   -0.27303678     0.03556227    -0.1624727      0.000391038  
   3862000   0.050036339   -0.27320748     0.035981792   -0.16217602     0.00013551326
   3863000   0.050184575   -0.2734933      0.035290986   -0.1629303      0.00023396931
   3864000   0.050364844   -0.27357514     0.035284664   -0.16274809     0.00017892684
   3865000   0.049876094   -0.27328208     0.035208308   -0.16326446     6.4240369e-05
   3866000   0.050502141   -0.27322736     0.036407321   -0.16107172    -0.00015532654
   3867000   0.050407139   -0.2731883      0.035745754   -0.16183672     0.00010691545
   3868000   0.050168993   -0.27315661     0.035764416   -0.16214356    -6.660586e-05 
   3869000   0.049535555   -0.27330402     0.035551256   -0.16345422    -4.1900342e-06
   3870000   0.049609561   -0.27332882     0.035653244   -0.16326603     0.00048664575
   3871000   0.049382701   -0.27324128     0.035472422   -0.16369959    -0.00011423777
   3872000   0.050173549   -0.27329415     0.035172235   -0.16286645     0.00016877727
   3873000   0.049492017   -0.27344614     0.035553825   -0.16365908    -7.7102289e-05
   3874000   0.050370974   -0.27361878     0.035732191   -0.162335      -2.3745165e-05
   3875000   0.050527096   -0.27346408     0.035437692   -0.16224063     0.00012568004
   3876000   0.050159148   -0.27363145     0.036063534   -0.16233405     0.00015927467
   3877000   0.050462415   -0.27352293     0.035439787   -0.1623944      0.0003190785 
   3878000   0.050469149   -0.27328652     0.035527775   -0.16205991    -0.00010704729
   3879000   0.050244591   -0.27335087     0.035695222   -0.16229362     0.00053238525
   3880000   0.049742096   -0.27339989     0.035548813   -0.16324274    -8.4368287e-05
   3881000   0.050269007   -0.27347767     0.035719111   -0.16235991     0.00011225622
   3882000   0.050188806   -0.27351334     0.035893963   -0.16234102     0.0003744353 
   3883000   0.050318069   -0.27344355     0.035266929   -0.16270438     0.0003179769 
   3884000   0.050155733   -0.27346205     0.03559914    -0.16263416     0.00032297889
   3885000   0.050082636   -0.27379966     0.034963796   -0.16371676     6.054453e-05 
   3886000   0.050092808   -0.27377911     0.035823278   -0.16282147    -0.00037891775
   3887000   0.049664232   -0.27377795     0.034831867   -0.16445454     0.00031992903
   3888000   0.049814806   -0.27366473     0.034966084   -0.16398125     0.00027979161
   3889000   0.049559383   -0.27382683     0.035480523   -0.16401202    -1.9220369e-05
   3890000   0.049875896   -0.27376632     0.035429771   -0.16352753    -4.4497494e-05
   3891000   0.049874259   -0.27387801     0.035218419   -0.16385303     0.00039560318
   3892000   0.050191681   -0.27357358     0.035534808   -0.16275611    -7.6499141e-06
   3893000   0.050228271   -0.27373528     0.035354567   -0.16304317    -0.00015074878
   3894000   0.050242672   -0.27403125     0.035853366   -0.16281874     0.00015542835
   3895000   0.05003401    -0.2737553      0.035424668   -0.16328446     0.00017402354
   3896000   0.049957878   -0.27375306     0.035414569   -0.16340651     0.00023947131
   3897000   0.050124097   -0.2740751      0.035650296   -0.16324351     0.00034172038
   3898000   0.049817818   -0.27393349     0.035008736   -0.16420285    -0.00015135505
   3899000   0.049950994   -0.27385769     0.035154642   -0.16378139    -7.0076511e-05
   3900000   0.050428304   -0.27362277     0.035919454   -0.16206574    -7.713464e-05 
   3901000   0.05012535    -0.27368733     0.036074405   -0.16242975     0.00042639225
   3902000   0.050202698   -0.27340893     0.035314143   -0.1627956      0.00035407205
   3903000   0.050290613   -0.27348408     0.035774891   -0.16227814    -8.0966491e-05
   3904000   0.050362116   -0.27382856     0.035131393   -0.16315887     0.00041082523
   3905000   0.050345283   -0.27373507     0.03597218    -0.16224984     6.6020196e-05
   3906000   0.050199563   -0.27366255     0.03595812    -0.16240994     5.7297198e-05
   3907000   0.050386864   -0.27374934     0.035777934   -0.16239599    -0.00022635281
   3908000   0.049597141   -0.27360217     0.035645254   -0.163566       0.00034148745
   3909000   0.04965662    -0.27407883     0.035140627   -0.16445808     0.00026754589
   3910000   0.049189864   -0.27363613     0.035276328   -0.16457977     0.00050568642
   3911000   0.049545303   -0.27391709     0.035341416   -0.16426251    -0.00011153628
   3912000   0.049870141   -0.27367179     0.035163988   -0.16370741     0.00047971088
   3913000   0.049853986   -0.27403228     0.035806974   -0.16344915    -0.00014396283
   3914000   0.049312233   -0.27369547     0.034993248   -0.16473865     0.00058138973
   3915000   0.04987136    -0.27391984     0.034951358   -0.16416627    -4.9730146e-05
   3916000   0.05028309    -0.2740459      0.035385952   -0.16324018     0.00028836815
   3917000   0.049862022   -0.27422065     0.035337751   -0.16409469     0.00052462062
   3918000   0.050377547   -0.27389333     0.03487013    -0.16346175     4.2057611e-05
   3919000   0.049637201   -0.2744108      0.035813044   -0.16414676     0.00016553117
   3920000   0.04975602    -0.2740288      0.035425704   -0.16397388     0.0002502344 
   3921000   0.050068292   -0.27445929     0.035115187   -0.16424651     0.00020236687
   3922000   0.049666562   -0.27432564     0.035554306   -0.1642763     -8.4522475e-05
   3923000   0.05004277    -0.27388989     0.034748608   -0.16408197     0.000357329  
   3924000   0.05077355    -0.27407724     0.035164396   -0.16275744     0.00013189103
   3925000   0.050561639   -0.2742859      0.034803781   -0.16364455     0.00029522666
   3926000   0.05008475    -0.27427462     0.035334711   -0.16381763     8.1977218e-05
   3927000   0.050029902   -0.27451229     0.035936255   -0.16353602     3.504612e-05 
   3928000   0.049389944   -0.27426899     0.035483826   -0.16470503     0.0002963466 
   3929000   0.049636787   -0.27418826     0.035477973   -0.16425991    -0.00017042616
   3930000   0.049867784   -0.27420102     0.035308161   -0.164096       2.3252823e-05
   3931000   0.04945418    -0.27447747     0.035072457   -0.16522853     9.5909423e-05
   3932000   0.049507016   -0.27438235     0.035176655   -0.16494996    -0.00037495655
   3933000   0.049821798   -0.274436       0.035326287   -0.16438183     0.00021605231
   3934000   0.050177717   -0.27439655     0.034892755   -0.16424208     0.00034989519
   3935000   0.050024939   -0.27421823     0.036349816   -0.16283585     5.1801456e-05
   3936000   0.049399868   -0.27449391     0.036147474   -0.16425141    -0.00027496248
   3937000   0.049663136   -0.27457869     0.035401247   -0.16468754     0.00015070334
   3938000   0.050244775   -0.27442181     0.035315458   -0.16374405    -0.00023497672
   3939000   0.049722609   -0.27461584     0.035615112   -0.16442163     2.1221426e-05
   3940000   0.049756612   -0.27448769     0.035584327   -0.16427326    -0.00011924559
   3941000   0.049647972   -0.27430142     0.035764721   -0.16406955    -0.00032668514
   3942000   0.049968337   -0.27430108     0.034915497   -0.16443792     0.00029050582
   3943000   0.050078469   -0.27418132     0.034931865   -0.1641366      0.00028363694
   3944000   0.049440648   -0.2743643      0.035860872   -0.16434725    -6.2293136e-05
   3945000   0.050381348   -0.27450372     0.035033113   -0.16390346     0.00040165301
   3946000   0.050053492   -0.27431821     0.035919511   -0.1633233     -6.6317379e-05
   3947000   0.050276492   -0.27437486     0.03556362    -0.16340137     1.6733328e-05
   3948000   0.050482202   -0.2743917      0.035935471   -0.16273781     0.00055991062
   3949000   0.049977123   -0.27428185     0.03527549    -0.16404551     0.00052950605
   3950000   0.050148522   -0.27446035     0.036013191   -0.16322923    -4.4945367e-05
   3951000   0.049750175   -0.27452671     0.035525717   -0.16438055    -0.00018532522
   3952000   0.050181595   -0.27463454     0.035515769   -0.16385124     1.3463256e-07
   3953000   0.049963033   -0.27449434     0.035602097   -0.16395252     0.00015123971
   3954000   0.050100519   -0.2751037      0.035741312   -0.16421646    -0.0001865052 
   3955000   0.049736411   -0.27487013     0.035383379   -0.16488695     0.00060559966
   3956000   0.050456021   -0.27493055     0.035234075   -0.16401733     0.00033611199
   3957000   0.050038534   -0.27462687     0.036004648   -0.16356927     0.00019858404
   3958000   0.049684518   -0.27491316     0.035217382   -0.16517381    -0.00029573182
   3959000   0.050084181   -0.27494734     0.035087127   -0.16473879     0.00042453505
   3960000   0.050281584   -0.27445624     0.035327274   -0.16371145    -8.3321981e-05
   3961000   0.050720715   -0.27482041     0.036070641   -0.1626736      7.3364333e-05
   3962000   0.050527492   -0.27460178     0.035425224   -0.16339021     0.00034343548
   3963000   0.050097488   -0.27462533     0.035428614   -0.16405533     0.00021924139
   3964000   0.050040939   -0.27471974     0.035366874   -0.1642963     -4.9586911e-05
   3965000   0.050259013   -0.27480426     0.03602727    -0.16339333     5.4829845e-05
   3966000   0.049814581   -0.2748062      0.035488063   -0.16460109     0.00012450793
   3967000   0.049973128   -0.27474887     0.035520615   -0.1642734      0.00052774513
   3968000   0.04993594    -0.27489751     0.035354937   -0.16464349    -0.00023752755
   3969000   0.050100364   -0.27515741     0.035577657   -0.16443406     0.00042258225
   3970000   0.049833892   -0.27470766     0.036020127   -0.16394152     0.00011112252
   3971000   0.050036657   -0.27426023     0.035670111   -0.16353997     0.00051610316
   3972000   0.050705878   -0.27475533     0.035837839   -0.16286358     0.00029929352
   3973000   0.05014659    -0.27462458     0.035407003   -0.16400254     0.00033326814
   3974000   0.04969037    -0.27516579     0.035099142   -0.1655359     -7.7846836e-05
   3975000   0.050067924   -0.27473954     0.03573113    -0.16391137    -0.00026457655
   3976000   0.049649114   -0.27469779     0.035883707   -0.16434521    -0.00037151811
   3977000   0.049742566   -0.27510367     0.035647381   -0.16484725     0.00018469132
   3978000   0.050053608   -0.27502327     0.035549221   -0.16439848     0.00017422669
   3979000   0.049469887   -0.27463049     0.034999852   -0.1654306     -0.00022465581
   3980000   0.050169508   -0.2751226      0.03520626    -0.16466693    -0.00011275001
   3981000   0.049628181   -0.27485639     0.035670823   -0.1647481      5.9544751e-05
   3982000   0.050215202   -0.27489254     0.03500204    -0.16457256     0.00048516756
   3983000   0.05027078    -0.27506414     0.03523957    -0.16442326    -0.00018543678
   3984000   0.050361698   -0.27523194     0.035073552   -0.16462071     0.00013975369
   3985000   0.049648992   -0.27510121     0.035390201   -0.16524233     0.00014114455
   3986000   0.049924959   -0.27517078     0.035434291   -0.16485389     2.4565914e-05
   3987000   0.049693412   -0.27477933     0.035315775   -0.16492825    -0.00023778337
   3988000   0.049297765   -0.2751531      0.035857749   -0.16535348    -0.00022903612
   3989000   0.050042713   -0.27497103     0.035219063   -0.16469274     9.9301709e-05
   3990000   0.050153115   -0.27526215     0.035480467   -0.16455686     0.0002811495 
   3991000   0.049978987   -0.27506705     0.035729533   -0.16437387     0.00029326793
   3992000   0.050181892   -0.27516497     0.035254446   -0.16464254     0.00013244369
   3993000   0.049800659   -0.27484862     0.03518961    -0.16496284     0.00012247746
   3994000   0.049764145   -0.27538006     0.036217201   -0.16452145    -0.000141357  
   3995000   0.049913748   -0.27556649     0.035927719   -0.16477298     0.00022591936
   3996000   0.049764673   -0.27539551     0.035459037   -0.16529428    -2.3736381e-05
   3997000   0.049648779   -0.27529963     0.035614039   -0.16521723     0.00020339512
   3998000   0.049680139   -0.27559203     0.035100905   -0.16597572     0.00014721686
   3999000   0.049915609   -0.27553137     0.035106889   -0.1655559      0.00042156999
   4000000   0.050313703   -0.27592886     0.035492928   -0.16497025    -4.3198828e-05
   4001000   0.049982202   -0.27530973     0.035577999   -0.16476327     0.00024778665
   4002000   0.049699211   -0.27566091     0.035725241   -0.16539167    -0.00021352665
   4003000   0.050024108   -0.27570934     0.035345754   -0.16533226     7.2449089e-06
   4004000   0.049818854   -0.27630236     0.035314558   -0.16626434     3.2929389e-05
   4005000   0.049586283   -0.27539445     0.035510039   -0.16550978     0.00025706817
   4006000   0.04983297    -0.27563151     0.035642005   -0.16524487    -5.5602245e-05
   4007000   0.049701178   -0.27569103     0.03544716    -0.16569692    -0.00035871331
   4008000   0.049374209   -0.27548217     0.034642393   -0.16678324     0.00065509381
   4009000   0.049939941   -0.27565294     0.035408832   -0.16533903     0.00035290559
   4010000   0.050242542   -0.27555361     0.03482132    -0.16537334     0.00025404352
   4011000   0.050420686   -0.27541283     0.035472866   -0.16431381     0.00034577102
   4012000   0.05033996    -0.27560804     0.035675945   -0.16442703    -0.0003435189 
   4013000   0.05031646    -0.27541882     0.035649986   -0.16429901     4.7454986e-05
   4014000   0.050033911   -0.27574871     0.035664378   -0.1650383      0.00018260773
   4015000   0.050061106   -0.27568792     0.034999785   -0.16560132     0.00051744187
   4016000   0.049968484   -0.27561986     0.035661296   -0.16501067    -7.2287995e-05
   4017000   0.049908592   -0.27545542     0.035550965   -0.1650464     -0.00026254063
   4018000   0.050063465   -0.27543114     0.035153433   -0.16518736     0.0004352859 
   4019000   0.049899795   -0.27539529     0.034946794   -0.16560363     2.6317224e-05
   4020000   0.050131647   -0.27568697     0.035178598   -0.16531575    -6.150365e-05 
   4021000   0.050130107   -0.27616359     0.03533409    -0.16563919    -0.00017781078
   4022000   0.049424905   -0.2761044      0.034976338   -0.16699549     4.3501034e-06
   4023000   0.049515746   -0.27619361     0.035836522   -0.16608826     0.00022468491
   4024000   0.049602342   -0.27621961     0.035194052   -0.16662684     0.00015664987
   4025000   0.050234664   -0.27579058     0.03518666    -0.16525679    -0.00015546776
   4026000   0.050083243   -0.27606377     0.03538741    -0.16555634    -4.3616871e-05
   4027000   0.050070333   -0.27597148     0.035011187   -0.16585964     0.00034803388
   4028000   0.050188149   -0.27560469     0.035262205   -0.16506512     0.00038544799
   4029000   0.050087038   -0.27589215     0.03532242    -0.16544402    -9.806479e-05 
   4030000   0.049520603   -0.27602224     0.035362828   -0.1663833      0.00058428839
   4031000   0.050246291   -0.27611804     0.035629357   -0.16512411    -0.00012614814
   4032000   0.04985414    -0.27616095     0.036222759   -0.1651618     -0.00023771071
   4033000   0.049925633   -0.27601327     0.035775836   -0.16535382     0.00010522386
   4034000   0.050006526   -0.2760242      0.035129891   -0.16588936     0.00065961618
   4035000   0.050190847   -0.27623355     0.036456245   -0.16449589     2.7148095e-05
   4036000   0.050058412   -0.27620981     0.035460665   -0.16566637     0.00022366619
   4037000   0.04951773    -0.27592836     0.035816447   -0.16584011    -3.7017523e-05
   4038000   0.050140328   -0.27567197     0.034833206   -0.16563312     0.00057661896
   4039000   0.049533119   -0.27606356     0.035698307   -0.16607036     0.00010593422
   4040000   0.050104974   -0.27595561     0.036164257   -0.16463874     5.3576973e-05
   4041000   0.049744574   -0.27591577     0.036101713   -0.16520201     0.00081869054
   4042000   0.050600239   -0.27563331     0.035281912   -0.16445593    -0.00025595591
   4043000   0.050459034   -0.27608237     0.035400322   -0.16499838     6.6593077e-05
   4044000   0.049967563   -0.27572948     0.035429028   -0.16535395     0.00037965509
   4045000   0.050226319   -0.27576622     0.035500865   -0.16493074     0.00031856525
   4046000   0.050344362   -0.27605315     0.035879947   -0.16466153    -0.00010343423
   4047000   0.050062252   -0.27585619     0.035709384   -0.16505827     8.9913048e-05
   4048000   0.050060306   -0.2757694      0.035817186   -0.1648666      0.00016750944
   4049000   0.049607949   -0.27602572     0.035983192   -0.16563541     0.00022311241
   4050000   0.050144184   -0.27594184     0.035424153   -0.16530626     0.0001893942 
   4051000   0.050153879   -0.2759396      0.03571288    -0.16500076    -1.0906321e-05
   4052000   0.050784807   -0.27571795     0.035814039   -0.16373161     0.00027526079
   4053000   0.049903902   -0.27594474     0.035619105   -0.16547461     0.00028205567
   4054000   0.050358365   -0.27605918     0.035969206   -0.1645573     -0.00023315035
   4055000   0.05004519    -0.27599792     0.035160303   -0.16577468     0.00036985674
   4056000   0.049901786   -0.27605986     0.035899081   -0.16531293    -0.00014078583
   4057000   0.050157921   -0.27603786     0.03560322    -0.16520261     0.00011972563
   4058000   0.05004263    -0.27597083     0.035117015   -0.16579472     0.00077252955
   4059000   0.049882117   -0.27615814     0.035240176   -0.16609961    -0.00011584387
   4060000   0.050027913   -0.27626986     0.035188867   -0.16604396     0.00013193453
   4061000   0.049306407   -0.27619522     0.035303265   -0.16693712     0.00041826506
   4062000   0.049511575   -0.27645092     0.034758374   -0.16742997     0.00036264845
   4063000   0.04976696    -0.27607456     0.035266086   -0.16616285     0.00049571871
   4064000   0.050397597   -0.27625164     0.035638185   -0.16502194     0.00045121938
   4065000   0.050174161   -0.27593976     0.035579921   -0.16510345     0.00046795603
   4066000   0.049845824   -0.27593473     0.035197603   -0.16597322     0.00028177805
   4067000   0.049888415   -0.27631804     0.035824361   -0.16566588     0.00046512544
   4068000   0.050326411   -0.27605163     0.035346366   -0.16522052     0.00016862075
   4069000   0.049908899   -0.27622198     0.035795993   -0.16556747     0.00015851398
   4070000   0.050428251   -0.2759759      0.035230995   -0.16510741     0.00013365217
   4071000   0.050717479   -0.2759735      0.03547311    -0.16442908     0.00011129333
   4072000   0.050454089   -0.27626871     0.034988963   -0.16560349     0.00080050502
   4073000   0.049955832   -0.27628571     0.034790787   -0.166566      -3.8227531e-05
   4074000   0.049886898   -0.27633941     0.035083805   -0.16643008    -0.00032045342
   4075000   0.049936003   -0.27622962     0.035238196   -0.16609225     0.00018443405
   4076000   0.050061093   -0.2765467      0.035756625   -0.16570328     0.00049785595
   4077000   0.049747374   -0.27653067     0.036002803   -0.16591162    -8.5686152e-05
   4078000   0.050688175   -0.27627514     0.035621707   -0.16462607     0.00024351597
   4079000   0.04981252    -0.27607469     0.03560965    -0.16575109     5.0510495e-05
   4080000   0.050187469   -0.27652799     0.036095695   -0.16515595     0.00015985585
   4081000   0.050589155   -0.27607564     0.0359321     -0.1642647      0.00017862849
   4082000   0.050357672   -0.27642779     0.035343556   -0.1655526      0.00024354267
   4083000   0.050833704   -0.27631982     0.036299993   -0.16377419     9.0152606e-05
   4084000   0.049737061   -0.27651793     0.03584156    -0.16607559    -0.000299053  
   4085000   0.050427915   -0.27589082     0.035125036   -0.16512879     0.0004366921 
   4086000   0.050071683   -0.27637938     0.036441557   -0.16483514    -0.00037822712
   4087000   0.050587428   -0.2765392      0.035399626   -0.16526333    -2.8202898e-05
   4088000   0.050002043   -0.27618477     0.035534345   -0.1656522     -2.0405683e-06
   4089000   0.050795745   -0.27666133     0.035012169   -0.16546046     0.00024750191
   4090000   0.049545961   -0.2766797      0.035564929   -0.16680062    -0.00018850561
   4091000   0.049377017   -0.276448       0.035256864   -0.16713038     0.00017276646
   4092000   0.050510034   -0.27669747     0.034716974   -0.16622033     0.0001218527 
   4093000   0.049945895   -0.27665986     0.035341935   -0.16640392     9.0851901e-05
   4094000   0.04999541    -0.27662061     0.035713605   -0.16591873     0.0004360926 
   4095000   0.050616443   -0.2766103      0.03521066    -0.16547987     0.00015576815
   4096000   0.050111517   -0.27660347     0.0358589     -0.16558214     0.00029354909
   4097000   0.050461377   -0.27665824     0.035278027   -0.16569303     1.9584566e-06
   4098000   0.049950419   -0.27648804     0.035508828   -0.16605842     0.00031814796
   4099000   0.049883058   -0.27688984     0.035370367   -0.16669972     5.2818622e-05
   4100000   0.049785521   -0.27690877     0.035458995   -0.16677631    -0.00040052968
   4101000   0.049582749   -0.2767463      0.035845271   -0.1665317     -0.00045586479
   4102000   0.049605082   -0.27657815     0.03545739    -0.16671794     0.00058899133
   4103000   0.050052314   -0.27668781     0.035628765   -0.16598542    -0.00041225876
   4104000   0.050393922   -0.27680668     0.035152029   -0.16606865     0.00027800285
   4105000   0.049673669   -0.27655437     0.035184127   -0.16686455     0.00062728698
   4106000   0.050001654   -0.27674058     0.034993989   -0.16674895     0.00021157267
   4107000   0.050510874   -0.27676987     0.035049461   -0.16595898     0.00034348959
   4108000   0.049921037   -0.27659407     0.035636028   -0.16608132     8.056582e-05 
   4109000   0.050025124   -0.27682842     0.0350214     -0.16677418    -0.00014348174
   4110000   0.050042908   -0.27671699     0.035831895   -0.16582558    -7.2622055e-05
   4111000   0.049561498   -0.27704043     0.035545009   -0.16715798    -6.6418179e-05
   4112000   0.049729504   -0.27690288     0.0357741     -0.16653934     0.00040434188
   4113000   0.049252194   -0.27686193     0.035212028   -0.16777638     0.00014186828
   4114000   0.04953083    -0.27653578     0.034903323   -0.16734101     0.00016532824
   4115000   0.04968755    -0.2766934      0.035714935   -0.16645194     1.79658e-05  
   4116000   0.05019407    -0.27704988     0.035771515   -0.16599211    -0.00021539116
   4117000   0.049944568   -0.27694243     0.035327303   -0.16670311     0.00045085094
   4118000   0.049677887   -0.27700106     0.03589292    -0.16659612     0.0001312722 
   4119000   0.050254354   -0.27676702     0.03506916    -0.1663212      0.00027370036
   4120000   0.050099894   -0.2768324      0.035582492   -0.16610492     0.00042494895
   4121000   0.049976321   -0.27696205     0.035685575   -0.16631683     3.1286586e-05
   4122000   0.050429655   -0.27680777     0.035147995   -0.16602017    -0.00014376937
   4123000   0.04977294    -0.27666299     0.035636767   -0.16637163    -7.7205854e-05
   4124000   0.050310243   -0.27690973     0.035567523   -0.16588171     0.00061413553
   4125000   0.049991546   -0.27680582     0.035159622   -0.16666372     0.00020054164
   4126000   0.05022754    -0.27681182     0.035741013   -0.16573435     0.00038813344
   4127000   0.049778611   -0.27679128     0.03552411    -0.16660407     0.00027624905
   4128000   0.049588944   -0.2771667      0.03550519    -0.16728289    -0.00035567793
   4129000   0.04983016    -0.27688227     0.035658807   -0.16648304     0.00013101991
   4130000   0.049779282   -0.27700675     0.035345274   -0.16699737     1.226826e-05 
   4131000   0.049921984   -0.27692157     0.035367307   -0.16667612     0.00013513644
   4132000   0.050056181   -0.27644203     0.034942424   -0.16642018     9.7041933e-05
   4133000   0.050142836   -0.2765416      0.035533166   -0.16579904     0.00031436162
   4134000   0.049971305   -0.27691772     0.035262935   -0.16670267     0.00012458568
   4135000   0.049573765   -0.2768668      0.035312608   -0.16719834    -0.00023870547
   4136000   0.049959635   -0.2773481      0.036234584   -0.1661789      0.00011397679
   4137000   0.050226391   -0.27689483     0.036295148   -0.16526496     6.4605967e-05
   4138000   0.049880383   -0.27699113     0.03549181    -0.16668357     3.7480439e-05
   4139000   0.050177791   -0.27681891     0.035620525   -0.16593655    -0.0002231606 
   4140000   0.050796059   -0.27724789     0.035740759   -0.16531796     0.00043646964
   4141000   0.050361314   -0.27693292     0.035367494   -0.16602833     1.9509149e-05
   4142000   0.049648583   -0.27661892     0.035713065   -0.16643778    -5.6363303e-05
   4143000   0.05002357    -0.27718104     0.035806914   -0.16634362     7.7549628e-05
   4144000   0.050438767   -0.27684271     0.035575479   -0.16561396     0.00050515241
   4145000   0.049533597   -0.2766662      0.035093793   -0.1672768      0.00029426148
   4146000   0.049984938   -0.2771567      0.035232398   -0.16695173    -2.4919557e-05
   4147000   0.049648289   -0.27702868     0.035845634   -0.16671541    -0.00017357342
   4148000   0.049374478   -0.27701815     0.035309862   -0.16765135     0.0004548082 
   4149000   0.049522136   -0.27687495     0.03516025    -0.16743629     0.00042360494
   4150000   0.049724792   -0.27684908     0.034893715   -0.16737299     0.00052895724
   4151000   0.049465606   -0.27688943     0.035698809   -0.166997       0.00021801687
   4152000   0.049818061   -0.27709275     0.035948481   -0.166422       0.00012477703
   4153000   0.050015457   -0.27656917     0.035197195   -0.16635363     0.00047474948
   4154000   0.050165053   -0.27717585     0.035556661   -0.16637646     0.00057900415
   4155000   0.050299019   -0.27740953     0.035639569   -0.1663263     -0.0003671432 
   4156000   0.049930886   -0.27724412     0.035297125   -0.1670555      2.7566455e-05
   4157000   0.049382105   -0.27742371     0.03514439    -0.16821094     0.00022916449
   4158000   0.049720309   -0.27726399     0.035389443   -0.16729889     0.00024788863
   4159000   0.050195042   -0.27751824     0.035460789   -0.16676974     0.00042534852
   4160000   0.050260677   -0.27708184     0.035977278   -0.16571841     0.0004328806 
   4161000   0.050197082   -0.27751662     0.03572805    -0.16649781    -0.00031071975
   4162000   0.049770792   -0.27758752     0.035601117   -0.16733504     6.7759484e-05
   4163000   0.050395187   -0.27723691     0.035425283   -0.16622373     0.00025432274
   4164000   0.04981724    -0.27734983     0.035157177   -0.16747162     0.00022892589
   4165000   0.050086326   -0.27719576     0.03553273    -0.16653839    -0.00023862618
   4166000   0.050410311   -0.27732723     0.035775341   -0.1659413     -7.9119721e-05
   4167000   0.049701537   -0.27734931     0.035643299   -0.16715852    -7.8677524e-05
   4168000   0.050180368   -0.27723139     0.035300358   -0.16666534     0.00013937581
   4169000   0.050084899   -0.27721332     0.0350942     -0.16699662     0.00058085148
   4170000   0.049712824   -0.27746376     0.035282023   -0.16761731     0.00020108584
   4171000   0.049738914   -0.27673221     0.035925992   -0.16620266    -0.00030214943
   4172000   0.050098909   -0.27716544     0.035429803   -0.16659213     0.00049174258
   4173000   0.050017694   -0.27711407     0.035405671   -0.1666867      0.00015084585
   4174000   0.050223503   -0.27738425     0.035287659   -0.16676619    -0.0001164217 
   4175000   0.049863439   -0.27765303     0.036098949   -0.16676374    -0.00015448498
   4176000   0.051146331   -0.27731945     0.035686571   -0.16491834    -3.2561118e-05
   4177000   0.049828947   -0.27736087     0.035998678   -0.1666236      3.7365632e-05
   4178000   0.050007801   -0.27757694     0.035135861   -0.16743422     0.00064040483
   4179000   0.049709528   -0.27744273     0.03514894    -0.16773431     0.00041295919
   4180000   0.049568403   -0.27773819     0.035098773   -0.16829161     0.00024431445
   4181000   0.049872487   -0.27725242     0.035475422   -0.16697309    -3.4060215e-05
   4182000   0.049877202   -0.27740093     0.03572368    -0.16686627     0.00026841666
   4183000   0.049660216   -0.27739349     0.035589578   -0.1673184      0.00030437182
   4184000   0.050107211   -0.27786028     0.035430937   -0.16727338    -0.00018547578
   4185000   0.049991454   -0.27719785     0.03469806    -0.16751745     4.889061e-05 
   4186000   0.04944726    -0.27750412     0.035299594   -0.16803842     4.2240102e-05
   4187000   0.049475798   -0.27745677     0.035540568   -0.16770729    -7.5317022e-05
   4188000   0.049891447   -0.27761443     0.035343326   -0.16743877    -0.00015002734
   4189000   0.050256134   -0.2776325      0.035243705   -0.16700946     0.00026034407
   4190000   0.050220295   -0.27748066     0.036157275   -0.1659978      0.00012430603
   4191000   0.050219964   -0.27741518     0.035473757   -0.16661634     0.00064664192
   4192000   0.050068289   -0.27761605     0.036123776   -0.16639469    -0.00035099108
   4193000   0.049863525   -0.27759094     0.035637656   -0.16716282    -0.00036938659
   4194000   0.050620107   -0.27811227     0.035781559   -0.16640545    -7.1909414e-05
   4195000   0.050374341   -0.27739667     0.0359746     -0.16586544    -8.9168757e-05
   4196000   0.049999413   -0.27742872     0.035308124   -0.16712632    -0.00015181249
   4197000   0.05033558    -0.27776454     0.036134466   -0.16613157    -0.00025530437
   4198000   0.050147155   -0.27768046     0.035872094   -0.16659248     7.0688232e-07
   4199000   0.050152402   -0.27751693     0.035519376   -0.1667738      0.00038200372
   4200000   0.050022327   -0.27762328     0.035373394   -0.16722124     0.00016661212
   4201000   0.049625726   -0.27726317     0.035568937   -0.16726045     0.00048372232
   4202000   0.049572958   -0.27751165     0.035548526   -0.16760849     9.9369727e-06
   4203000   0.050873963   -0.27748798     0.036100641   -0.16508132    -0.00046009603
   4204000   0.050867222   -0.27738511     0.035888706   -0.16520049     0.00013333   
   4205000   0.050007497   -0.2773939      0.035574419   -0.16681308     0.00033250901
   4206000   0.049731822   -0.27754401     0.035306779   -0.16764431     0.00022756008
   4207000   0.049124364   -0.27749733     0.036085087   -0.16773045     0.00011672164
   4208000   0.050103629   -0.27757504     0.035348553   -0.1670759      4.5880027e-05
   4209000   0.049551237   -0.2775882      0.035711197   -0.16755494    -4.7786604e-05
   4210000   0.04961447    -0.27778408     0.035572127   -0.16779505     3.1235465e-05
   4211000   0.050272365   -0.27786211     0.035709132   -0.1667493      2.193618e-06 
   4212000   0.050050822   -0.27748169     0.035770045   -0.16664025     0.00029935483
   4213000   0.049707262   -0.2776496      0.036236137   -0.16685738     0.00016062206
   4214000   0.049769934   -0.27720768     0.034883236   -0.16767436     0.00027231027
   4215000   0.050364196   -0.27793569     0.035305437   -0.16708884     1.536916e-05 
   4216000   0.050212899   -0.27735525     0.035317789   -0.16672297     0.00036200117
   4217000   0.049350504   -0.27776588     0.035782045   -0.16796285     0.00017715144
   4218000   0.049865619   -0.27794186     0.035556327   -0.16759193     0.00026471582
   4219000   0.049468299   -0.27750028     0.035399348   -0.16790327    -0.00018080331
   4220000   0.050286821   -0.27740264     0.035362422   -0.16661485     0.00039547808
   4221000   0.050109863   -0.27774398     0.035739599   -0.16684443     2.2377676e-05
   4222000   0.050100529   -0.27789213     0.035481671   -0.16726452    -0.00037994327
   4223000   0.050555361   -0.27791535     0.035749263   -0.16633794    -8.1593263e-05
   4224000   0.049995867   -0.27716763     0.035389583   -0.16678909     0.00014463555
   4225000   0.050558449   -0.27769774     0.035673686   -0.16619127    -0.00011793486
   4226000   0.050240929   -0.27757862     0.035246822   -0.16697527     0.00021268809
   4227000   0.050445625   -0.27757126     0.035385225   -0.16652248     0.00039660767
   4228000   0.049885381   -0.27769765     0.035411243   -0.16746316     0.00013210703
   4229000   0.049528205   -0.27773409     0.035715405   -0.16773117    -0.00028568119
   4230000   0.049862758   -0.27758321     0.034883929   -0.16790997     0.00011633444
   4231000   0.049531971   -0.27790721     0.035399996   -0.16821405     0.00026307655
   4232000   0.050494283   -0.27799489     0.035246793   -0.16701156    -0.00015303457
   4233000   0.050114811   -0.27771275     0.036290401   -0.16625498    -0.00043943303
   4234000   0.050525848   -0.27739593     0.034947107   -0.16666494     0.00072626544
   4235000   0.049474383   -0.27756105     0.035104903   -0.16824936     9.9458999e-05
   4236000   0.050309061   -0.27786727     0.035298557   -0.16710999     4.4481497e-05
   4237000   0.049774272   -0.27799759     0.035415568   -0.16792543     5.0947385e-05
   4238000   0.050079393   -0.27757997     0.036168908   -0.16629682    -0.00026759942
   4239000   0.05010639    -0.27763744     0.035489217   -0.16699349    -5.0066666e-05
   4240000   0.050394891   -0.27774043     0.03549741    -0.16665556     0.00013021546
   4241000   0.050386167   -0.27776931     0.035562608   -0.16663233     0.00044917434
   4242000   0.04978332    -0.27814128     0.036083523   -0.16738759     6.0009716e-05
   4243000   0.049977722   -0.27783496     0.034948694   -0.16792452     0.00037503817
   4244000   0.049747612   -0.27776459     0.035082975   -0.16806501     0.0002079049 
   4245000   0.050407358   -0.27736569     0.035830782   -0.16592875     0.00026310796
   4246000   0.050148303   -0.27784975     0.035314639   -0.16731751    -5.0320744e-05
   4247000   0.050066338   -0.27771755     0.035122233   -0.16750066     0.00027701788
   4248000   0.049596876   -0.27767675     0.035520975   -0.16776526    -0.00014551248
   4249000   0.049650289   -0.27758631     0.035192548   -0.16792314     0.00045107725
   4250000   0.049760975   -0.27749242     0.035292172   -0.1675636      0.00023438812
   4251000   0.049982734   -0.27810827     0.035930109   -0.1672089     -4.6118373e-05
   4252000   0.050004755   -0.27775289     0.035615919   -0.16713468     0.00037147118
   4253000   0.049910397   -0.2778217      0.035488929   -0.16747201     0.00019319382
   4254000   0.049751119   -0.27784334     0.035526408   -0.16769507     0.000333328  
   4255000   0.049891015   -0.27786114     0.035364109   -0.16766533     9.9674693e-05
   4256000   0.049366455   -0.27787725     0.035112835   -0.16871951     3.8782759e-05
   4257000   0.050108784   -0.27801946     0.035249855   -0.16761128     0.0005096508 
   4258000   0.049837332   -0.27805439     0.035493607   -0.1678096      0.0004386406 
   4259000   0.050175424   -0.27829929     0.036141087   -0.16689992    -0.00053393477
   4260000   0.049535054   -0.27817466     0.035915083   -0.16796179    -0.00061675166
   4261000   0.049342953   -0.27773715     0.036079761   -0.16764774    -0.00026006584
   4262000   0.049062051   -0.27771513     0.0356566     -0.1684702      0.00020747348
   4263000   0.049992789   -0.27730758     0.035565836   -0.1667574      0.00061834565
   4264000   0.050698333   -0.27831059     0.035271913   -0.16699609     0.00014853847
   4265000   0.05019047    -0.27793714     0.035242182   -0.16741411     0.00034770521
   4266000   0.050033267   -0.27827531     0.035344181   -0.16788607     0.00027769536
   4267000   0.049717104   -0.27806869     0.034669581   -0.16882826     9.1248629e-05
   4268000   0.049959182   -0.27801044     0.035355215   -0.16772128    -0.00017076407
   4269000   0.049350687   -0.27823251     0.035087276   -0.16912398     0.00015711214
   4270000   0.049886574   -0.27840858     0.035331094   -0.16825245     6.4075492e-05
   4271000   0.049814639   -0.27798622     0.035536261   -0.16773282     0.00018026623
   4272000   0.049752687   -0.27773719     0.035667762   -0.16744522    -7.764488e-05 
   4273000   0.050381297   -0.27785067     0.035035893   -0.1672477      4.041213e-05 
   4274000   0.049864591   -0.27765023     0.034904341   -0.16795383     0.00011190202
   4275000   0.049953781   -0.27808306     0.034962033   -0.16819519    -3.6210241e-05
   4276000   0.05054136    -0.27819661     0.035798095   -0.16659137    -7.9515481e-05
   4277000   0.050196827   -0.27776553     0.034976569   -0.16749858    -0.00015593236
   4278000   0.049880026   -0.27821872     0.03581547    -0.16758804    -0.00026530068
   4279000   0.050558312   -0.27798664     0.035427912   -0.16672615     0.00031226872
   4280000   0.050428048   -0.27753771     0.0351261     -0.16677442     0.00043894497
   4281000   0.049772763   -0.27762355     0.035620905   -0.16734832     0.00039566455
   4282000   0.049688517   -0.27832776     0.036112145   -0.16768765    -4.5080386e-05
   4283000   0.049625303   -0.27785276     0.035525867   -0.16789374     0.00030684573
   4284000   0.049621599   -0.27811447     0.035160139   -0.16852673     0.00025413173
   4285000   0.049812511   -0.27831636     0.035215211   -0.1683872      0.00011010075
   4286000   0.050014849   -0.27785674     0.03548448    -0.16735483     0.00054030533
   4287000   0.050467848   -0.27790197     0.034829992   -0.16737509     0.00027108213
   4288000   0.049703298   -0.27765854     0.035548935   -0.16755947     0.00020197691
   4289000   0.0499602     -0.27801438     0.035251039   -0.16782788     0.0002570987 
   4290000   0.050119672   -0.27787069     0.035059441   -0.16763659    -9.4228871e-05
   4291000   0.050320323   -0.27826938     0.03512968    -0.16766408     0.00058441557
   4292000   0.050529815   -0.27798537     0.035502051   -0.16669348     0.00019454543
   4293000   0.050103654   -0.27788034     0.035826413   -0.1669033      0.00017514344
   4294000   0.050300434   -0.27816624     0.035644163   -0.1670763      0.00034498403
   4295000   0.050375798   -0.2778176      0.035901752   -0.16635702     0.00013144371
   4296000   0.049718937   -0.27821999     0.03567135    -0.16797504     0.00037824034
   4297000   0.049819127   -0.27802857     0.035561369   -0.16774333     0.00066587789
   4298000   0.049653696   -0.27829415     0.035412742   -0.16840567     0.00047945629
   4299000   0.049734822   -0.27808346     0.035318781   -0.16816726    -7.8280153e-05
   4300000   0.050380885   -0.27842511     0.035307278   -0.16755138    -0.00033306735
   4301000   0.050077294   -0.27802531     0.035554414   -0.1673598      0.00059714299
   4302000   0.050121591   -0.27814919     0.035881613   -0.16709004     7.7368263e-05
   4303000   0.049813449   -0.27815266     0.03568895    -0.16774835     0.0001601789 
   4304000   0.049396509   -0.27860891     0.035620166   -0.16889876     0.00020344286
   4305000   0.049821626   -0.27835339     0.035086038   -0.16853973     0.00013494849
   4306000   0.050490158   -0.2786283      0.035416761   -0.16748118     0.00022556144
   4307000   0.050382065   -0.27835665     0.03571925    -0.16706918     0.00052267738
   4308000   0.050603293   -0.27816714     0.035315414   -0.16695169     0.00035678496
   4309000   0.049287172   -0.27810839     0.03562083    -0.16856157     0.00024425551
   4310000   0.049688247   -0.27813405     0.034285028   -0.16932146     0.0001878656 
   4311000   0.049666041   -0.27834166     0.035270796   -0.1685766      0.00022245102
   4312000   0.050137176   -0.27841802     0.035487388   -0.16772972     0.00074880368
   4313000   0.050385569   -0.2781915      0.035517738   -0.16710029     0.00021457583
   4314000   0.050193703   -0.2782427      0.035741445   -0.16721555     0.00038557553
   4315000   0.050041878   -0.27844622     0.035570655   -0.16781759    -0.00028352274
   4316000   0.049785422   -0.27880644     0.035463809   -0.16866931    -0.00024450002
   4317000   0.04989678    -0.27854766     0.035416638   -0.16829068     0.0003987612 
   4318000   0.050317188   -0.27867106     0.035453627   -0.16774652     0.0003998834 
   4319000   0.050249103   -0.27872207     0.036130022   -0.16722326     0.00020998008
   4320000   0.050661478   -0.27882668     0.035699555   -0.16713981    -1.3637041e-05
   4321000   0.050099525   -0.27853913     0.035651885   -0.1677428      0.00045042519
   4322000   0.05049631    -0.27926766     0.036110338   -0.16741775    -4.0088855e-05
   4323000   0.050293474   -0.2787844      0.035732222   -0.16761684     0.00029844535
   4324000   0.050238358   -0.27846272     0.035625518   -0.16748453     0.00067844105
   4325000   0.049744181   -0.27867291     0.036192087   -0.16786936    -8.1109601e-05
   4326000   0.050264768   -0.27897837     0.035689648   -0.16789644     0.00014352806
   4327000   0.050053564   -0.27892112     0.035152067   -0.16869355    -0.0003185892 
   4328000   0.04993099    -0.27857046     0.035415994   -0.16826281     0.00034792834
   4329000   0.049980058   -0.27901412     0.034903087   -0.16914578     0.00035237183
   4330000   0.049638882   -0.27879416     0.035515      -0.16882564     0.00074059117
   4331000   0.050252755   -0.278763       0.036106496   -0.16728224     0.00065168524
   4332000   0.050347762   -0.27897341     0.035861277   -0.16759536    -4.2538605e-05
   4333000   0.050052612   -0.27856982     0.035754534   -0.16774121     2.307549e-05 
   4334000   0.050214299   -0.27904846     0.035223928   -0.16850795     0.00042343428
   4335000   0.050034159   -0.27888274     0.035494432   -0.16834191     0.00037994342
   4336000   0.049716814   -0.2789354      0.035558284   -0.1688067     -0.00012690246
   4337000   0.049686102   -0.27960907     0.035206302   -0.16987842     1.7457197e-05
   4338000   0.049792227   -0.27905131     0.034955561   -0.16941222     0.00033529998
   4339000   0.04980961    -0.27901911     0.035470059   -0.16883946    -2.4164488e-05
   4340000   0.050284475   -0.27901616     0.035227668   -0.16836664     0.00073175849
   4341000   0.049997955   -0.27913473     0.03605284    -0.16808979    -0.00011143289
   4342000   0.050548639   -0.27903158     0.035220042   -0.16799347    -6.4919554e-05
   4343000   0.049619244   -0.27867841     0.035168979   -0.16908537     0.00050597737
   4344000   0.049855225   -0.27929875     0.035616561   -0.16890417    -2.1658225e-05
   4345000   0.049785007   -0.27926671     0.035408674   -0.16918534     0.00018556766
   4346000   0.0502307     -0.27931294     0.035232047   -0.1687397      0.00062319583
   4347000   0.049977325   -0.27909591     0.035436106   -0.16869866    -2.2374856e-05
   4348000   0.050006856   -0.27893371     0.035342516   -0.16858575     0.00028952433
   4349000   0.049607996   -0.27898949     0.035689977   -0.16889232     0.00032164929
   4350000   0.049576531   -0.27895051     0.035254183   -0.16933633     0.000283386  
   4351000   0.050002009   -0.27901383     0.035286716   -0.16872894     0.00059017412
   4352000   0.050399905   -0.27914124     0.03515403    -0.16839223     0.00026007655
   4353000   0.050544096   -0.27885351     0.035725139   -0.16731712     0.00020592115
   4354000   0.050225172   -0.27923063     0.03565523    -0.1682425      8.1949215e-05
   4355000   0.05039681    -0.279175       0.035634694   -0.16794997     0.00028981256
   4356000   0.05069847    -0.27932508     0.035206979   -0.1680753      3.4278126e-05
   4357000   0.050318397   -0.2791902      0.035147709   -0.16856977     0.00012187509
   4358000   0.050401842   -0.27932247     0.035605039   -0.16811955     0.00025788956
   4359000   0.050259209   -0.27922747     0.035038077   -0.16880544     0.00022389902
   4360000   0.050161393   -0.27884113     0.035469388   -0.1681345      0.00029873481
   4361000   0.049771394   -0.27915875     0.035327225   -0.16917925     9.8235034e-05
   4362000   0.049868938   -0.27873975     0.035689722   -0.16825145     0.00079700534
   4363000   0.049982182   -0.27908236     0.036090703   -0.16802322    -0.00040199665
   4364000   0.050045926   -0.27908034     0.035402681   -0.16861362     7.7380798e-05
   4365000   0.0497536     -0.27938977     0.035686677   -0.16907751     0.00022362682
   4366000   0.049430681   -0.27909702     0.035099877   -0.1698559      0.00019606737
   4367000   0.050510917   -0.2789622      0.034745185   -0.16845553     8.6420934e-05
   4368000   0.049996738   -0.27916437     0.035779161   -0.16839494     0.00031706766
   4369000   0.050887221   -0.27920874     0.035682111   -0.16720072     0.00039996022
   4370000   0.050535049   -0.27913375     0.035799393   -0.16753668     0.00024348028
   4371000   0.050480556   -0.2792876      0.03567426    -0.16789739     0.0002806241 
   4372000   0.049755139   -0.27934836     0.035443518   -0.16927695     7.3663858e-05
   4373000   0.050161332   -0.27951895     0.035731678   -0.16855013     0.00043709749
   4374000   0.049562415   -0.27944047     0.035677828   -0.16942382     0.00020487861
   4375000   0.050457471   -0.27918874     0.035359649   -0.16814777     0.00012927998
   4376000   0.050212149   -0.27940263     0.035190043   -0.16889922    -3.889228e-06 
   4377000   0.049488343   -0.27943615     0.035618385   -0.16959004    -0.00011930271
   4378000   0.049872232   -0.27932354     0.035390837   -0.16912918     0.00016978647
   4379000   0.04952841    -0.27913426     0.035558036   -0.1692884     -0.00010642827
   4380000   0.050155774   -0.27891927     0.035788179   -0.16790228     0.00038916794
   4381000   0.049848333   -0.27927057     0.035632201   -0.16887069     0.00040566246
   4382000   0.049851035   -0.27924125     0.035357508   -0.16911201     0.00036446184
   4383000   0.049793079   -0.27919294     0.035917008   -0.16859113     0.00021565288
   4384000   0.050076451   -0.27935307     0.03540937    -0.16883387    -0.00013455721
   4385000   0.049766913   -0.27942377     0.036156662   -0.16862156     7.3532475e-06
   4386000   0.049769363   -0.27940803     0.035092662   -0.16966614     0.00061680805
   4387000   0.049783661   -0.27897128     0.035553037   -0.16874757    -0.00032661429
   4388000   0.050481091   -0.27918761     0.035340598   -0.16813026     0.00043389068
   4389000   0.049808173   -0.27885418     0.035754527   -0.16839221    -0.0002854952 
   4390000   0.049866332   -0.27925856     0.035592235   -0.16887165     0.00038894976
   4391000   0.050246635   -0.27955075     0.035459037   -0.16872662    -0.00011815892
   4392000   0.050031512   -0.27926173     0.035363281   -0.16885603     0.0003912317 
   4393000   0.049337643   -0.27921208     0.035660524   -0.16954986    -0.00047496696
   4394000   0.049825635   -0.27914837     0.035101779   -0.16931296     0.00050375629
   4395000   0.049867737   -0.27941667     0.035468739   -0.16915116    -2.6267467e-05
   4396000   0.050366702   -0.27968728     0.035711478   -0.16843062    -0.00027544307
   4397000   0.050039836   -0.27906739     0.035704538   -0.16830794     0.00013080037
   4398000   0.049977563   -0.27926879     0.035031451   -0.16927583    -0.0001464643 
   4399000   0.050206649   -0.27906712     0.035698973   -0.16806304     0.00030305819
   4400000   0.049693879   -0.27966873     0.035936444   -0.16919628    -0.00042154506
   4401000   0.050136642   -0.27948297     0.035397962   -0.1688849     -0.00044703116
   4402000   0.049763169   -0.2792691      0.035355875   -0.16927328    -0.00018511535
   4403000   0.050427903   -0.27938261     0.035372862   -0.16837278     0.00018028927
   4404000   0.050198414   -0.27902244     0.03518675    -0.16854293    -2.6724601e-05
   4405000   0.049543723   -0.27904138     0.035205999   -0.16952459     0.00020769544
   4406000   0.050129627   -0.27941551     0.035818018   -0.1684079     -9.1024377e-05
   4407000   0.050270134   -0.2794704      0.035544298   -0.16852577    -0.00028114183
   4408000   0.049762778   -0.27937064     0.03472286    -0.17000843     0.00012377564
   4409000   0.04964145    -0.27935675     0.035581911   -0.16931747     0.00016424846
   4410000   0.04964705    -0.27971809     0.03579078    -0.16946154     0.00031769125
   4411000   0.050035876   -0.27976406     0.035392671   -0.16932242    -0.00044389101
   4412000   0.049769522   -0.27925336     0.035568768   -0.16903512     0.00054582639
   4413000   0.04978003    -0.27996983     0.035853982   -0.16945062     0.0002541026 
   4414000   0.050157598   -0.27951481     0.035729729   -0.16855353    -0.00011370977
   4415000   0.049908353   -0.27961567     0.035504539   -0.16925343     0.00014851852
   4416000   0.050905182   -0.27891423     0.035918993   -0.16664239     3.2878328e-05
   4417000   0.050049602   -0.27949966     0.035890552   -0.16853955    -0.00014874509
   4418000   0.050126105   -0.27948327     0.035625101   -0.16867386     0.00027979711
   4419000   0.049735607   -0.2795661      0.035399263   -0.16956824     9.8036496e-05
   4420000   0.049625644   -0.27964734     0.035312615   -0.16990107     0.00029327361
   4421000   0.050515866   -0.27946739     0.035761333   -0.16793714    -6.079386e-05 
   4422000   0.050743932   -0.27956733     0.036364192   -0.16709215     0.0003566048 
   4423000   0.049839023   -0.27958286     0.036032519   -0.16879663    -0.00030058015
   4424000   0.050485108   -0.27951534     0.035445753   -0.16834681     0.00037680397
   4425000   0.049756896   -0.27935386     0.035292685   -0.16943065     0.00067165161
   4426000   0.049991644   -0.27956508     0.035562047   -0.16902041     0.0003899097 
   4427000   0.05012926    -0.27952829     0.035515622   -0.16882363     0.00021718894
   4428000   0.050109049   -0.27985082     0.035732779   -0.16895931    -1.6128205e-05
   4429000   0.049829535   -0.27956448     0.03598195    -0.16884305    -0.00011871722
   4430000   0.049495604   -0.27967305     0.035694036   -0.16974039     0.00019943691
   4431000   0.049872564   -0.27942049     0.035197502   -0.16941897     8.7932134e-07
   4432000   0.050168472   -0.27967176     0.035582578   -0.16884133     0.00021819063
   4433000   0.049911906   -0.27981996     0.035813719   -0.16914321     0.00025685449
   4434000   0.050111955   -0.27981701     0.03529705    -0.16935688     0.00052968849
   4435000   0.049411198   -0.27998635     0.03580679    -0.17006754    -0.00013556627
   4436000   0.050082234   -0.2796441      0.035422911   -0.16910268    -1.5837206e-05
   4437000   0.050351052   -0.27945488     0.036176658   -0.16775652    -8.7030896e-05
   4438000   0.049923192   -0.2797972      0.036096443   -0.1688208     -0.00014360258
   4439000   0.049730448   -0.27931229     0.035311355   -0.16941007     0.00041734261
   4440000   0.050112385   -0.27973415     0.035716345   -0.16885408     0.00042980475
   4441000   0.049638464   -0.27965066     0.035569327   -0.16962844    -0.00032583043
   4442000   0.049239747   -0.2795086      0.035489507   -0.17016424     0.00024744707
   4443000   0.049431997   -0.27998546     0.035852637   -0.16998961    -0.00031158006
   4444000   0.049806118   -0.27991408     0.034626177   -0.17058355     0.00015798448
   4445000   0.049987633   -0.27996091     0.036041703   -0.1689426      1.9992105e-05
   4446000   0.050632911   -0.28010582     0.036311441   -0.16784991     7.777531e-05 
   4447000   0.050669601   -0.27973704     0.03539513    -0.16834242    -0.00011943373
   4448000   0.05075713    -0.27986407     0.035595614   -0.16813767     5.0996692e-06
   4449000   0.050364312   -0.27969273     0.035911774   -0.16823936     0.00010833543
   4450000   0.050159411   -0.2799533      0.035822803   -0.16889624     0.00021604855
   4451000   0.050051987   -0.27986054     0.035996166   -0.16879124     0.00013616716
   4452000   0.050310887   -0.27985247     0.035761751   -0.16862926    -0.00010398828
   4453000   0.050906118   -0.27967905     0.034992725   -0.16833208     0.00043702083
   4454000   0.050497566   -0.27994894     0.035412075   -0.1687954      0.00019829533
   4455000   0.049610247   -0.28013348     0.03584725    -0.16987566     0.00011092002
   4456000   0.050089964   -0.28023372     0.035846138   -0.16925748    -0.0001908164 
   4457000   0.050456879   -0.28013828     0.035332389   -0.16912546     0.00017946643
   4458000   0.050342485   -0.28018573     0.035614979   -0.1690619      0.00013815889
   4459000   0.050169312   -0.28059685     0.036256474   -0.16909126     0.00011218476
   4460000   0.050118901   -0.28040994     0.035897594   -0.16933885     0.00010561851
   4461000   0.049943372   -0.28002103     0.035178984   -0.16993182     0.00042297543
   4462000   0.049436059   -0.27997581     0.035392227   -0.17043428    -3.282623e-05 
   4463000   0.050143362   -0.27989106     0.034970996   -0.16970987     4.1749197e-05
   4464000   0.049937202   -0.28061959     0.035816862   -0.16990176    -0.00026923976
   4465000   0.050389275   -0.28080721     0.035359827   -0.16986834     0.00014544577
   4466000   0.050212652   -0.28041428     0.03576319    -0.16933697     4.4377278e-05
   4467000   0.049737187   -0.27988894     0.034785139   -0.17050284     0.00011884984
   4468000   0.049799234   -0.28034094     0.035412446   -0.17023447    -0.0004917144 
   4469000   0.05044367    -0.28030556     0.03596616    -0.16867878     0.00024161131
   4470000   0.049921748   -0.2802796      0.03622794    -0.16917386     0.00015179475
   4471000   0.04986849    -0.28042721     0.035888045   -0.16974126    -0.00042432982
   4472000   0.050009884   -0.28041839     0.035603546   -0.16980486    -0.00047457791
   4473000   0.049978331   -0.28030364     0.035502104   -0.16983888     0.00020143273
   4474000   0.049795901   -0.28032058     0.035658057   -0.16997349     0.00020051777
   4475000   0.050386659   -0.28076168     0.035347755   -0.16983882     6.6467218e-05
   4476000   0.049907539   -0.28050811     0.035813452   -0.16983818    -0.00021738209
   4477000   0.050388812   -0.28037233     0.03573265    -0.16906134     0.0004289089 
   4478000   0.049897391   -0.2801109      0.036026858   -0.16924278    -0.00018554691
   4479000   0.050174908   -0.28086002     0.036611724   -0.16899078     9.6104482e-05
   4480000   0.04973765    -0.28055754     0.035612534   -0.17034335    -2.9653456e-05
   4481000   0.050136553   -0.28045705     0.035452514   -0.16980456     0.0002575376 
   4482000   0.049575827   -0.28046524     0.035790844   -0.17031545    -2.5507261e-05
   4483000   0.049874805   -0.28063714     0.035256901   -0.17057286    -0.00032778176
   4484000   0.049782925   -0.28103748     0.035584586   -0.17078332    -0.0001648347 
   4485000   0.049660303   -0.28068601     0.035497375   -0.17070299     0.00013997567
   4486000   0.050381683   -0.28027608     0.03515902    -0.16954941     0.00050168103
   4487000   0.049635584   -0.28010045     0.035850416   -0.16980146     5.8230441e-05
   4488000   0.050138206   -0.28059443     0.03521601    -0.17017597     0.00041625679
   4489000   0.050145099   -0.28071831     0.035166614   -0.1703389      0.00034099316
   4490000   0.049922535   -0.27996626     0.035572293   -0.169515       0.0002591718 
   4491000   0.049809971   -0.28012209     0.035628524   -0.16978343     0.00035029204
   4492000   0.050256863   -0.28035021     0.035624299   -0.16934548     0.00036326565
   4493000   0.050021616   -0.28061862     0.035571014   -0.17002002     0.00027936413
   4494000   0.049886233   -0.28069303     0.035764937   -0.17010357     0.00013097058
   4495000   0.04966851    -0.28017273     0.035024132   -0.17065064     0.00041847195
   4496000   0.049395155   -0.2805036      0.035475577   -0.17094007     3.4416913e-05
   4497000   0.049963281   -0.28049205     0.035053612   -0.17049835     0.00028867256
   4498000   0.050156913   -0.28037859     0.035379688   -0.16976838    -0.00036682679
   4499000   0.049636566   -0.28050107     0.03528684    -0.17076418     0.00054822965
   4500000   0.049840818   -0.28064292     0.035400969   -0.17048555     0.00044824299
   4501000   0.049921263   -0.28008137     0.03492925    -0.17027506    -0.00018517468
   4502000   0.049521806   -0.2799409      0.035423672   -0.17023932     0.0004365405 
   4503000   0.049827003   -0.28059099     0.035346549   -0.17050876     0.00016943561
   4504000   0.049966686   -0.28060709     0.035983223   -0.16967867    -0.00013779727
   4505000   0.049610147   -0.28024539     0.035400091   -0.17043488     0.00020836923
   4506000   0.049926862   -0.28033795     0.035298592   -0.1701539      6.6105365e-05
   4507000   0.049926205   -0.28056615     0.035770176   -0.1699115     -2.206648e-05 
   4508000   0.049581861   -0.2803381      0.035658546   -0.17031156     0.00056486347
   4509000   0.049839772   -0.28040736     0.035423825   -0.1702287     -0.00012946675
   4510000   0.04960132    -0.28085919     0.036395742   -0.17006626    -0.00030083199
   4511000   0.049937221   -0.28065932     0.035693522   -0.17006479     0.00021600361
   4512000   0.04995863    -0.28060917     0.03534573    -0.17033033     0.00010494704
   4513000   0.049949414   -0.2808477      0.035664565   -0.17026384     2.9680214e-05
   4514000   0.050190416   -0.28051246     0.035036612   -0.17019508     0.00040684476
   4515000   0.049864383   -0.28056156     0.035752389   -0.17001742    -1.8234618e-05
   4516000   0.049665669   -0.28088758     0.035595278   -0.17079861    -0.00013766361
   4517000   0.049896843   -0.28055356     0.03494626    -0.17076687     0.00065671593
   4518000   0.050176642   -0.28086183     0.035241936   -0.17035979    -2.2850854e-05
   4519000   0.049870199   -0.28087453     0.035884203   -0.17018985    -0.00027699554
   4520000   0.050245005   -0.28060766     0.036115159   -0.16912985    -0.00011832151
   4521000   0.049977006   -0.28080556     0.035459769   -0.17038512     0.00030155677
   4522000   0.050113224   -0.28095168     0.035579651   -0.17020704     0.00039181714
   4523000   0.049831986   -0.28078282     0.035794974   -0.17024469     0.00014003736
   4524000   0.050212958   -0.2811865      0.035419112   -0.17045281    -6.0662008e-05
   4525000   0.049872458   -0.2807747      0.03505622    -0.17091461    -0.00049625507
   4526000   0.049880277   -0.28116031     0.035604905   -0.17073982    -3.1617673e-05
   4527000   0.050413122   -0.28115094     0.035343721   -0.17019241     0.0002576689 
   4528000   0.049945016   -0.28113288     0.035446704   -0.17077349     0.00026421046
   4529000   0.049745928   -0.28109736     0.035263952   -0.17121933     2.4025608e-05
   4530000   0.049758206   -0.28119682     0.035922293   -0.17064204    -0.00017778483
   4531000   0.050735574   -0.28129182     0.036023791   -0.16916958     0.00085365162
   4532000   0.050367941   -0.28135717     0.035322836   -0.1704873     -0.0003144737 
   4533000   0.050598511   -0.28103134     0.035601735   -0.16953673    -0.00028680933
   4534000   0.050119384   -0.28107694     0.035962965   -0.16993975     0.00015590799
   4535000   0.050272359   -0.28120683     0.035751654   -0.1700515     -0.00023254329
   4536000   0.049897261   -0.28101394     0.035926281   -0.1702466      0.00012949301
   4537000   0.050466027   -0.28089935     0.035254769   -0.16995042     0.00065068932
   4538000   0.049778395   -0.28107784     0.035486636   -0.17092843    -0.00026228368
   4539000   0.050293758   -0.28115385     0.034990914   -0.17072716     0.00050796201
   4540000   0.049872671   -0.28106717     0.035726852   -0.17053614    -1.0219015e-05
   4541000   0.049581683   -0.28163165     0.035364625   -0.1718993     -0.00028552587
   4542000   0.050511747   -0.28180295     0.035098819   -0.1709414      0.00038489069
   4543000   0.049534247   -0.28097545     0.035635528   -0.17104334    -0.00029084126
   4544000   0.049750849   -0.28128058     0.035354145   -0.17130498     0.00024344476
   4545000   0.049737576   -0.28148769     0.035553234   -0.17133291    -0.00012903219
   4546000   0.049766819   -0.28103634     0.034933148   -0.17145778     0.00030941963
   4547000   0.049919367   -0.28114108     0.035236997   -0.17102987     0.00011077142
   4548000   0.049791434   -0.28114131     0.035018019   -0.17144096     0.00043606243
   4549000   0.05013566    -0.28136177     0.035923168   -0.17023996     7.4977239e-05
   4550000   0.049996871   -0.28109521     0.035663892   -0.17044085    -0.00023578848
   4551000   0.049963591   -0.28126321     0.035272108   -0.17105055     4.3906576e-05
   4552000   0.050421013   -0.28122822     0.035197823   -0.17040376     0.0003573797 
   4553000   0.050550118   -0.2811027      0.035190795   -0.17009162     0.00031347385
   4554000   0.050209535   -0.28138256     0.035465242   -0.17060788     0.00016609618
   4555000   0.049443952   -0.28111493     0.035554196   -0.17139959     3.639016e-05 
   4556000   0.049508613   -0.28073386     0.035210068   -0.17126566    -4.4371893e-05
   4557000   0.050289488   -0.28125264     0.035229731   -0.17059354     0.00034924224
   4558000   0.050013221   -0.28112544     0.036467275   -0.16964318    -0.0001235881 
   4559000   0.051004035   -0.28159192     0.035610634   -0.16948017     0.00074873311
   4560000   0.050388627   -0.28107742     0.035724386   -0.16977497     0.00012255056
   4561000   0.050124136   -0.28101092     0.035542798   -0.17028677     0.00025927049
   4562000   0.049919062   -0.28137678     0.035610767   -0.17089225     0.0004295251 
   4563000   0.049851897   -0.28130021     0.035874576   -0.17065261     0.00029206882
   4564000   0.050455567   -0.2811983      0.035908282   -0.16961155     0.00030405343
   4565000   0.050155065   -0.28118211     0.035656641   -0.17029772    -5.3337308e-05
   4566000   0.050202594   -0.28113273     0.035708076   -0.17012562     0.00045356832
   4567000   0.050080545   -0.28113382     0.035871072   -0.17014678    -0.00031648417
   4568000   0.049673008   -0.28115593     0.035472923   -0.1711783      0.00028527375
   4569000   0.049856215   -0.28161549     0.035470255   -0.17136574     1.969171e-05 
   4570000   0.049537282   -0.28078543     0.035043298   -0.17144101     0.00036239967
   4571000   0.04982588    -0.28112545     0.035545485   -0.17084597    -0.0001638832 
   4572000   0.050148404   -0.28145395     0.035083413   -0.17115278     0.0001657144 
   4573000   0.050295481   -0.28135501     0.035242841   -0.17067382     0.00041597649
   4574000   0.050008147   -0.28095928     0.036018298   -0.1699336      0.00024021341
   4575000   0.050488974   -0.28128086     0.035682498   -0.16986979     0.00021180737
   4576000   0.049866957   -0.2813473      0.035569697   -0.17098199    -0.00011391555
   4577000   0.049892291   -0.28112723     0.035514175   -0.17077945    -0.00025243657
   4578000   0.04991748    -0.28150448     0.03539017    -0.17124292     0.00017761543
   4579000   0.049844447   -0.28150662     0.036242796   -0.17050198     0.0001200171 
   4580000   0.050694706   -0.28145076     0.035869718   -0.16954389     0.00026125864
   4581000   0.049874229   -0.28166564     0.036284555   -0.17057457     9.1932699e-06
   4582000   0.049930603   -0.28153871     0.03530213    -0.17134551     3.0296366e-05
   4583000   0.049773833   -0.28124911     0.035271479   -0.1713217      0.00041469084
   4584000   0.050512949   -0.28170979     0.035769932   -0.17017533    -9.038002e-05 
   4585000   0.049305094   -0.28126154     0.036059148   -0.17124952     0.00019018305
   4586000   0.05006667    -0.28116457     0.036204114   -0.1698653     -0.00010293204
   4587000   0.050050568   -0.28130039     0.035551936   -0.17067745    -0.0002025297 
   4588000   0.050714375   -0.28147901     0.035625285   -0.16978707    -0.00010217155
   4589000   0.050605189   -0.28150655     0.035705864   -0.1698978     -0.00018869108
   4590000   0.049999024   -0.28142244     0.035366264   -0.17106248    -0.00020519548
   4591000   0.049429087   -0.28114398     0.035420482   -0.17158465     0.00011546878
   4592000   0.050406063   -0.2816212      0.035714757   -0.17030223     0.00023017933
   4593000   0.049528766   -0.28177046     0.035013641   -0.17246847    -3.8116065e-05
   4594000   0.049352892   -0.28118279     0.035245319   -0.17191291    -0.0003499508 
   4595000   0.049691612   -0.28169196     0.035195115   -0.17196424    -9.1925965e-05
   4596000   0.050038252   -0.28152072     0.036000794   -0.17046739     0.00020243613
   4597000   0.04990426    -0.28183778     0.035798945   -0.17118727     0.00019793682
   4598000   0.050432356   -0.28157877     0.035159694   -0.17077542     9.0876157e-05
   4599000   0.049719976   -0.28169428     0.035623227   -0.1714959      0.00011422252
   4600000   0.050502175   -0.28195093     0.035254726   -0.17094783     0.00029497894
   4601000   0.049913218   -0.28158053     0.035290842   -0.1714247      0.00053043202
   4602000   0.050022869   -0.28160914     0.035963589   -0.17061609    -1.2238145e-05
   4603000   0.049912221   -0.28185422     0.035822192   -0.17116852    -7.207315e-05 
   4604000   0.050715999   -0.28178582     0.036093909   -0.16962282     0.0005752715 
   4605000   0.05033858    -0.28135233     0.035855329   -0.169994       0.00017165457
   4606000   0.050377111   -0.2816092      0.035515878   -0.17053253     0.00017221798
   4607000   0.050183861   -0.28152148     0.035913167   -0.17033738     4.986773e-05 
   4608000   0.050187102   -0.28176866     0.035651949   -0.17084091     7.3197007e-05
   4609000   0.049943592   -0.28167423     0.035076538   -0.17168714     0.00035167909
   4610000   0.049897103   -0.28144419     0.035651997   -0.17095137     4.1848912e-05
   4611000   0.050198559   -0.28169521     0.035551424   -0.1708508     -8.0913642e-06
   4612000   0.049773768   -0.28148345     0.035889763   -0.17093786    -0.00027275371
   4613000   0.050234929   -0.28128516     0.035760496   -0.17017714     0.00013339205
   4614000   0.049773356   -0.28179113     0.035836962   -0.17129895     0.00013833482
   4615000   0.050272777   -0.28164545     0.035667625   -0.17057352    -1.5405519e-05
   4616000   0.050032188   -0.28137647     0.035343636   -0.17098939     0.00030620238
   4617000   0.049817803   -0.28169122     0.035821365   -0.17114797     0.00011609477
   4618000   0.050024462   -0.28172112     0.035347302   -0.17134196     0.00015835059
   4619000   0.050497467   -0.28214091     0.035532291   -0.1708673     -0.00018044888
   4620000   0.049811719   -0.2816042      0.035594921   -0.17129653    -0.00030076793
   4621000   0.049475004   -0.28197736     0.035231709   -0.17253793    -2.6834403e-05
   4622000   0.050408276   -0.28175763     0.035860269   -0.17028983     0.00023612751
   4623000   0.050202819   -0.28122227     0.03541772    -0.17050518     0.00072419005
   4624000   0.050294565   -0.28172394     0.035345596   -0.17094136     0.00031554363
   4625000   0.049914989   -0.28173132     0.035298329   -0.17156534     0.0002599569 
   4626000   0.050162909   -0.28167978     0.035505566   -0.1709347      0.00045410148
   4627000   0.050310639   -0.28161721     0.035682297   -0.17047382     0.00015661614
   4628000   0.050020896   -0.28163974     0.035857293   -0.17075594     0.00019866215
   4629000   0.050531707   -0.28186309     0.036029234   -0.17004119    -0.00037327903
   4630000   0.049879851   -0.28159111     0.035985346   -0.17079081     0.00016347818
   4631000   0.049709142   -0.28142723     0.035309007   -0.17155932    -7.8412941e-05
   4632000   0.050298227   -0.28180665     0.034727412   -0.17163676     0.00039452639
   4633000   0.049576732   -0.28161406     0.035263673   -0.17199009    -5.5059762e-05
   4634000   0.049478724   -0.28157015     0.035244035   -0.17211282     5.8736184e-05
   4635000   0.050016427   -0.28147167     0.035683755   -0.17076811     0.00020783693
   4636000   0.049331469   -0.28170464     0.035262677   -0.17244953    -0.00013662235
   4637000   0.049752546   -0.28184634     0.034891217   -0.17233112     4.9721594e-05
   4638000   0.049730976   -0.28188177     0.036065758   -0.17122436    -0.00013494296
   4639000   0.050039945   -0.28201371     0.035550557   -0.17140808     0.00027855235
   4640000   0.04990244    -0.28153323     0.035563912   -0.17112048     7.8239145e-05
   4641000   0.050326073   -0.28154824     0.035654315   -0.17040969     0.00019268697
   4642000   0.050038487   -0.28199705     0.035761574   -0.17118259    -0.00032910026
   4643000   0.050214768   -0.28206256     0.035652331   -0.17109293     0.00048709933
   4644000   0.050259835   -0.28218319     0.035310704   -0.1714876      0.00012927573
   4645000   0.049963608   -0.28159028     0.035701846   -0.17094786     0.0002944012 
   4646000   0.049646953   -0.28193323     0.035081227   -0.17238638     0.00016472904
   4647000   0.050208114   -0.28182478     0.035033517   -0.17148395     0.00053515857
   4648000   0.05045381    -0.28173844     0.035361293   -0.17070131     0.0003873237 
   4649000   0.049878222   -0.2817752      0.035601811   -0.17136088     0.00052840747
   4650000   0.049412949   -0.2820761      0.035410614   -0.17255085     0.00025493034
   4651000   0.049852258   -0.28187157     0.035421053   -0.17167695     9.9808826e-05
   4652000   0.049929675   -0.28216895     0.035563254   -0.17171602    -0.00014775351
   4653000   0.050172062   -0.28205079     0.035653778   -0.17114377     0.00019225384
   4654000   0.050273971   -0.28182723     0.034862285   -0.17155886     9.2240937e-05
   4655000   0.050322985   -0.28192626     0.035673843   -0.17077281     0.00064413529
   4656000   0.049877551   -0.28181381     0.035626805   -0.17137551     0.00030584302
   4657000   0.050109119   -0.2823539      0.036150245   -0.17104483     5.172126e-05 
   4658000   0.050198718   -0.28238282     0.03604502    -0.17104458    -0.00016341333
   4659000   0.049967164   -0.28228694     0.036027413   -0.17131361    -0.00017634021
   4660000   0.049635747   -0.28204046     0.036432459   -0.17115918     0.0001916171 
   4661000   0.050040289   -0.28193165     0.035372754   -0.17150331     0.00017143993
   4662000   0.049924467   -0.28199583     0.035735329   -0.17137863    -1.1341211e-05
   4663000   0.04974078    -0.2819302      0.035697363   -0.17162648    -0.00018107072
   4664000   0.050238767   -0.2819088      0.035521188   -0.17103432    -0.00013651404
   4665000   0.050168335   -0.28237994     0.035267857   -0.17186444    -0.00020615545
   4666000   0.050618566   -0.28180551     0.03518298    -0.17069958     0.00042579533
   4667000   0.050438114   -0.28216872     0.036231537   -0.17028489    -0.00012304128
   4668000   0.049708349   -0.28229827     0.036149375   -0.17159118    -0.00015787873
   4669000   0.049918685   -0.28181384     0.035563976   -0.17137666     0.00019123074
   4670000   0.049740345   -0.2820947      0.035557776   -0.17193122     0.00045734447
   4671000   0.049608131   -0.28210939     0.03550298    -0.17219902     0.00012165202
   4672000   0.05002401    -0.28243508     0.035270764   -0.17213314    -0.0001005747 
   4673000   0.049911398   -0.2823832      0.036064517   -0.17145642    -3.8499932e-06
   4674000   0.049712266   -0.28186424     0.035701222   -0.17159943     0.00013358069
   4675000   0.04976889    -0.28171208     0.03597046    -0.1710931     -8.2952531e-05
   4676000   0.050121036   -0.28188742     0.034686005   -0.17202471     0.00034389042
   4677000   0.049468005   -0.28211681     0.035233925   -0.17268566     0.00055670984
   4678000   0.049805472   -0.28230668     0.03553062    -0.17207267    -0.00030542652
   4679000   0.050382528   -0.28200715     0.035039429   -0.17139881     0.00022024762
   4680000   0.05003222    -0.28193419     0.035387804   -0.17150289     0.00020284572
   4681000   0.049946784   -0.28238967     0.035688392   -0.17178593     8.4864945e-05
   4682000   0.049618635   -0.28227292     0.035430192   -0.17241957     0.00061817352
   4683000   0.049939899   -0.2821093      0.035301075   -0.17190321     0.00015433055
   4684000   0.04993608    -0.28177713     0.035538449   -0.17133939    -3.5134124e-05
   4685000   0.049771454   -0.28218512     0.035926863   -0.1716059      0.00015447294
   4686000   0.050087856   -0.28227476     0.035688325   -0.1714595      0.00039953018
   4687000   0.049874163   -0.28199946     0.035518719   -0.17167433     0.00023136888
   4688000   0.050057892   -0.28223968     0.03550715    -0.17165054     0.00011728212
   4689000   0.049568695   -0.28216484     0.035476297   -0.1723403      0.00029554944
   4690000   0.050520814   -0.28231601     0.03521931    -0.17132036     0.00027366865
   4691000   0.04937357    -0.28230144     0.035719112   -0.17252675    -0.00026995846
   4692000   0.050000035   -0.28201262     0.035793628   -0.17122377     9.7286316e-05
   4693000   0.049840818   -0.28225208     0.035217507   -0.17227817     8.5769231e-05
   4694000   0.050350277   -0.28245333     0.035659287   -0.1712735     -0.00018133431
   4695000   0.049988977   -0.28196742     0.035720887   -0.1712679      0.00023230318
   4696000   0.049949099   -0.28198058     0.035520912   -0.17154085     0.00018175252
   4697000   0.050298472   -0.28219385     0.035553541   -0.17119747    -0.00024344868
   4698000   0.050363024   -0.28183294     0.035075098   -0.17121818     3.0759198e-05
   4699000   0.050057721   -0.28218922     0.035750181   -0.1713573      1.638215e-05 
   4700000   0.050158201   -0.2823345      0.035552529   -0.17154952    -3.5057909e-05
   4701000   0.050052101   -0.28235889     0.035272933   -0.17201264     0.00012610791
   4702000   0.049788262   -0.28241091     0.035698884   -0.17203445     4.6802141e-06
   4703000   0.049613416   -0.28273792     0.035563892   -0.17275871    -0.0002078861 
   4704000   0.050063441   -0.28273188     0.03514983    -0.17249173     0.00023800804
   4705000   0.049245447   -0.28281975     0.035652581   -0.17330377    -0.00022311434
   4706000   0.050067361   -0.28284338     0.035832387   -0.17191479     0.00012829762
   4707000   0.049636527   -0.28267725     0.035290701   -0.17293656     0.00012010397
   4708000   0.04997265    -0.28260888     0.035462842   -0.1721919      9.2146925e-05
   4709000   0.050096735   -0.28260207     0.035487712   -0.17197411     0.00024769348
   4710000   0.049960011   -0.28286497     0.03575848    -0.1721713     -6.4261878e-05
   4711000   0.050239096   -0.28250423     0.036314377   -0.17083607     0.00029572261
   4712000   0.050609061   -0.28239413     0.035418285   -0.17106715     0.00012961129
   4713000   0.049886872   -0.28243765     0.036250448   -0.17136172     0.00014183449
   4714000   0.050042949   -0.28190255     0.035739881   -0.17110308     6.0690207e-05
   4715000   0.050015069   -0.2825016      0.034721047   -0.17276279     6.0645326e-05
   4716000   0.049930921   -0.28265845     0.036039279   -0.17172762    -0.00011327113
   4717000   0.050190274   -0.28165976     0.035795735   -0.17058347     0.00070879002
   4718000   0.049959448   -0.28249514     0.035476848   -0.17208396    -0.00042627036
   4719000   0.050066479   -0.28254639     0.035487404   -0.17196411     0.00035849661
   4720000   0.049820137   -0.28257924     0.035906247   -0.17194761     0.00064046867
   4721000   0.049882671   -0.28264208     0.035853154   -0.17196974     2.5768354e-05
   4722000   0.049439186   -0.28250611     0.035168289   -0.17318382     0.00033855783
   4723000   0.049839702   -0.28276033     0.03529761    -0.17270799     0.00018038438
   4724000   0.050264916   -0.28283874     0.035140087   -0.17230614    -0.00020973496
   4725000   0.049756576   -0.28282931     0.035976219   -0.17222305     0.00025635144
   4726000   0.050227046   -0.28257224     0.035797654   -0.17143888     0.00036248264
   4727000   0.049958917   -0.28233252     0.035854739   -0.17154424     0.00030109023
   4728000   0.050263331   -0.28230043     0.035084397   -0.1718259      0.00021909781
   4729000   0.050432734   -0.28276851     0.035713703   -0.17141059    -0.00010863299
   4730000   0.050411036   -0.28284112     0.035034443   -0.172195       0.00010130769
   4731000   0.049984893   -0.28240676     0.036212923   -0.17122134     0.00029899452
   4732000   0.05048088    -0.28297176     0.035847598   -0.17140773     0.00016353947
   4733000   0.04980062    -0.28303521     0.035608275   -0.17273082    -8.9391477e-05
   4734000   0.050185499   -0.28251574     0.035640554   -0.1716018      0.000312515  
   4735000   0.049964825   -0.28287471     0.035877779   -0.17205453     0.00021583704
   4736000   0.050000724   -0.28243722     0.035505305   -0.17193567     0.00047281629
   4737000   0.049883475   -0.2826107      0.035397618   -0.17239269     0.00021574841
   4738000   0.049952342   -0.28272745     0.035355652   -0.17244812     0.00042653063
   4739000   0.049881378   -0.28302072     0.035401909   -0.17280157    -0.00012481868
   4740000   0.049729324   -0.2825852      0.035456181   -0.17253985    -5.2677965e-06
   4741000   0.049730665   -0.28259927     0.035334984   -0.1726731      0.00033793114
   4742000   0.050033022   -0.28288861     0.035783313   -0.1720606      3.4790427e-05
   4743000   0.050363951   -0.28256291     0.035056354   -0.1719655      9.0445789e-05
   4744000   0.050043031   -0.28287835     0.035713532   -0.17210512     0.00036570179
   4745000   0.049750824   -0.28254728     0.035978412   -0.17194745     0.00062810554
   4746000   0.05042719    -0.28284211     0.035641744   -0.17156447     0.00043104991
   4747000   0.050209671   -0.2827971      0.035578677   -0.17190878     0.00024608608
   4748000   0.049762525   -0.28261658     0.035362826   -0.17261478     0.00033044925
   4749000   0.050120475   -0.28292968     0.034760601   -0.17299322     4.5065365e-05
   4750000   0.050057274   -0.28285459     0.035112229   -0.1726613      0.00064465602
   4751000   0.05030306    -0.2828017      0.03571335    -0.17163863     1.3339237e-05
   4752000   0.049772265   -0.282909       0.035562944   -0.17269248     0.00017314289
   4753000   0.0502345     -0.28271744     0.034949466   -0.17242108     0.00042871547
   4754000   0.050000307   -0.2828383      0.035662141   -0.17218053    -0.00033535813
   4755000   0.050402448   -0.28252504     0.035065472   -0.17186077     0.00044254793
   4756000   0.050048549   -0.28277801     0.035365018   -0.17234501    -2.2605323e-05
   4757000   0.050039078   -0.28294251     0.036118374   -0.17177036    -1.3364832e-07
   4758000   0.050006639   -0.28287986     0.035548838   -0.1723259      3.6081913e-05
   4759000   0.050816511   -0.28251818     0.035539095   -0.17075923     0.00060256636
   4760000   0.05039584    -0.28285205     0.035721751   -0.17154142     5.7516274e-06
   4761000   0.050199495   -0.28278952     0.035254235   -0.17224091     0.00063760011
   4762000   0.049892914   -0.28237115     0.035982943   -0.17155366     0.00017492971
   4763000   0.05044192    -0.28308735     0.035569154   -0.1718602      0.00041414797
   4764000   0.050492453   -0.28303205     0.035726188   -0.17157207     2.376764e-05 
   4765000   0.050325812   -0.28252679     0.035280618   -0.17176233    -9.0428016e-06
   4766000   0.05000704    -0.28249801     0.035466869   -0.17202542    -0.00023038958
   4767000   0.050366643   -0.28312172     0.035659079   -0.17191755     8.5624341e-05
   4768000   0.050158095   -0.28305248     0.035914924   -0.17190527    -4.429033e-06 
   4769000   0.050329459   -0.2829299      0.035253075   -0.17218751     0.00018576664
   4770000   0.050072669   -0.28295517     0.035370698   -0.17248031     4.403638e-05 
   4771000   0.050111604   -0.28320659     0.035305884   -0.17273815     0.0006491629 
   4772000   0.050075723   -0.28328453     0.035606514   -0.17256928     7.9934861e-05
   4773000   0.050122678   -0.28310267     0.035345549   -0.17257795     0.00029508461
   4774000   0.050077594   -0.28304026     0.035570346   -0.17235837     6.6793883e-06
   4775000   0.049875153   -0.28264098     0.035389903   -0.17244317     0.00041697216
   4776000   0.049777593   -0.28293408     0.035788453   -0.17248405     4.1664806e-05
   4777000   0.050179515   -0.28316423     0.035551545   -0.17234827     0.00015474085
   4778000   0.0502791     -0.28298648     0.035338081   -0.17223462     0.00033923088
   4779000   0.049886302   -0.28332113     0.035867327   -0.17262918     1.5354652e-05
   4780000   0.049900299   -0.2835021      0.035829797   -0.17282668     5.0820054e-05
   4781000   0.05018579    -0.28335735     0.035598956   -0.17248457     5.4663136e-05
   4782000   0.050075806   -0.2832758      0.035501261   -0.17266568     0.00048982015
   4783000   0.050904241   -0.28355444     0.035453815   -0.17174919     0.00027709214
   4784000   0.04981434    -0.28350488     0.035581588   -0.17320661     0.00059906985
   4785000   0.049611061   -0.28361105     0.035460722   -0.17373854    -0.00029797698
   4786000   0.050312034   -0.28308024     0.035290246   -0.17232681     0.00039235496
   4787000   0.050171154   -0.28354707     0.035567885   -0.17272731    -0.00019568432
   4788000   0.050025127   -0.28351243     0.036111457   -0.17236813     0.00014968652
   4789000   0.049812402   -0.28304013     0.035299904   -0.17302644     0.00037587938
   4790000   0.050571592   -0.28342196     0.035340291   -0.17222917     0.00014940718
   4791000   0.050446334   -0.28336948     0.036088518   -0.17161634     0.00022231619
   4792000   0.049830208   -0.28344196     0.0366353     -0.17206617    -0.00018902119
   4793000   0.050461593   -0.28355307     0.035692829   -0.17217273     0.00033268186
   4794000   0.05017833    -0.28360635     0.03566686    -0.17267685     7.1206167e-05
   4795000   0.049936726   -0.28324956     0.035467066   -0.17288224     0.00041793542
   4796000   0.049415922   -0.28376572     0.035403719   -0.1742429     -0.00013094434
   4797000   0.049318116   -0.28387745     0.035632208   -0.17427284     3.9701222e-05
   4798000   0.049450777   -0.28355276     0.03592692    -0.17345445     0.00012682914
   4799000   0.050124278   -0.28363379     0.035171464   -0.17328076     9.6780811e-05
   4800000   0.050188975   -0.28364541     0.035520898   -0.17284591    -0.00011217764
   4801000   0.049907525   -0.28357338     0.036106787   -0.17261013     0.00038999055
   4802000   0.050559159   -0.28343455     0.035510677   -0.17209003     7.6233992e-05
   4803000   0.049870681   -0.28333281     0.035950589   -0.17258103     3.6682193e-05
   4804000   0.050095396   -0.28356396     0.036239167   -0.17218655     0.0001341314 
   4805000   0.050137699   -0.28379936     0.035824168   -0.1727735     -0.00020257791
   4806000   0.04927176    -0.28366919     0.035546459   -0.17421986     2.3480765e-05
   4807000   0.049839764   -0.28362048     0.034962152   -0.1739035      0.00018956795
   4808000   0.050016199   -0.28400657     0.035324225   -0.17366289     0.000373182  
   4809000   0.049762524   -0.28334112     0.035761108   -0.17294104     0.00019933104
   4810000   0.050147057   -0.28353742     0.03583701    -0.17248467     0.00033608345
   4811000   0.050016177   -0.28362963     0.035627577   -0.17298262     0.00020901964
   4812000   0.049560734   -0.28354676     0.036111297   -0.17309915    -9.0264573e-05
   4813000   0.050181631   -0.28391783     0.036305605   -0.17234463    -5.5685175e-05
   4814000   0.049819547   -0.28383952     0.035867624   -0.1732474      0.00051496737
   4815000   0.050063789   -0.28369156     0.035518542   -0.17308218     0.00014052982
   4816000   0.050081867   -0.28352207     0.035355625   -0.17304849     0.00029248206
   4817000   0.049882634   -0.2835845      0.035599241   -0.17316614     0.000856688  
   4818000   0.049985185   -0.28385681     0.035491281   -0.17339259     0.00036863901
   4819000   0.050386086   -0.28373505     0.036321128   -0.17183967    -7.5187379e-05
   4820000   0.050441937   -0.28375354     0.035688897   -0.17240662    -0.00018238554
   4821000   0.050274075   -0.28392515     0.03525598    -0.17326293     6.318285e-05 
   4822000   0.050167965   -0.28401288     0.035598665   -0.17316713     0.00012570364
   4823000   0.050545308   -0.28376969     0.035129955   -0.17282666     0.00044061932
   4824000   0.049204821   -0.28418738     0.035711263   -0.17467365    -9.476379e-06 
   4825000   0.049947995   -0.28406294     0.035316527   -0.17382925    -0.00023550387
   4826000   0.049968993   -0.28381619     0.03552563    -0.17334191    -0.00022499418
   4827000   0.050425683   -0.28362443     0.035971986   -0.1720188      0.00040281615
   4828000   0.05033991    -0.28395944     0.035895366   -0.17255908     0.00045744672
   4829000   0.049630888   -0.28383136     0.035392854   -0.17399698     0.00011083503
   4830000   0.049924333   -0.28418084     0.035341877   -0.17395729    -0.00023106901
   4831000   0.050133165   -0.28406414     0.035795594   -0.17307365    -4.8515201e-05
   4832000   0.050465355   -0.28354971     0.035760805   -0.17209576     0.00016462953
   4833000   0.049947488   -0.28418141     0.035900074   -0.17336493     0.00037596846
   4834000   0.050501105   -0.2844658      0.035631526   -0.17308751     9.7896013e-05
   4835000   0.050153034   -0.28392641     0.035977748   -0.17272397     0.00017689319
   4836000   0.049932664   -0.28398464     0.035118026   -0.17397246    -5.09149e-05  
   4837000   0.049648488   -0.28361135     0.034852259   -0.17429117     0.00045674649
   4838000   0.050022195   -0.28402067     0.035274001   -0.17371822     0.00031150447
   4839000   0.049931998   -0.28428095     0.035925317   -0.17346247    -9.804254e-05 
   4840000   0.050180771   -0.28391064     0.035812458   -0.17283188     0.00041862321
   4841000   0.050177985   -0.28372785     0.034901151   -0.17356457     0.00043475822
   4842000   0.050319538   -0.28398476     0.035522498   -0.17298783     0.00019388461
   4843000   0.050497294   -0.28426678     0.035503868   -0.17302186    -1.551003e-07 
   4844000   0.05035669    -0.28396113     0.035478445   -0.17295253     0.0003135663 
   4845000   0.050163541   -0.28382456     0.035971645   -0.17261246     8.3317194e-05
   4846000   0.050515312   -0.28405395     0.035410244   -0.17287562     0.00053221211
   4847000   0.050008151   -0.28446904     0.035577509   -0.17388415    -0.00012445331
   4848000   0.04982       -0.2842777      0.035233656   -0.17431887     0.00038042994
   4849000   0.049939936   -0.28433178     0.035375004   -0.17405171    -0.00019153469
   4850000   0.050145934   -0.28397681     0.035720817   -0.17304194     0.0004680508 
   4851000   0.049686753   -0.28402695     0.035805741   -0.17369589     0.00054957271
   4852000   0.04975814    -0.28366626     0.034794496   -0.17423937     0.00015119213
   4853000   0.049836117   -0.28375717     0.035124386   -0.17388343     0.0002804615 
   4854000   0.050127421   -0.28397066     0.035829406   -0.17295497     0.00017000458
   4855000   0.050371613   -0.28403365     0.036015879   -0.17246523    -6.0826815e-05
   4856000   0.050284592   -0.28402655     0.035307619   -0.17329691    -2.0445826e-05
   4857000   0.050207518   -0.28405894     0.035144407   -0.17360812     0.00054397616
   4858000   0.05002229    -0.28441873     0.035630186   -0.17375995     8.2015324e-05
   4859000   0.050361416   -0.28416381     0.035626742   -0.17299982     0.00027501464
   4860000   0.050190337   -0.2841868      0.035722789   -0.17318336     0.00044919746
   4861000   0.049663367   -0.28390375     0.035631511   -0.173782      -0.00029118711
   4862000   0.050025676   -0.28428684     0.035211424   -0.17404174     2.0458793e-05
   4863000   0.049799188   -0.28413322     0.035807343   -0.17363191     7.8813956e-05
   4864000   0.04992166    -0.28436107     0.035421073   -0.17406234    -0.00015030334
   4865000   0.049326893   -0.28414548     0.035283183   -0.17487673     0.00052443795
   4866000   0.050168129   -0.28458038     0.035769078   -0.17356397    -0.00019756368
   4867000   0.050009905   -0.28410705     0.035840092   -0.17325694    -4.0074592e-05
   4868000   0.050949121   -0.28434984     0.035069756   -0.17286134     0.00027522074
   4869000   0.049898872   -0.28446958     0.035859577   -0.17376652    -0.0001719197 
   4870000   0.050167812   -0.28427869     0.035831451   -0.17320038    -8.3658837e-05
   4871000   0.050043977   -0.28433273     0.034939516   -0.17433209     0.00018608018
   4872000   0.049819492   -0.28405233     0.035950364   -0.17337755     9.1077854e-05
   4873000   0.05032705    -0.28415813     0.035435687   -0.17323674     5.5815592e-05
   4874000   0.049990364   -0.28471184     0.036169986   -0.17356115    -8.4331674e-05
   4875000   0.049898624   -0.2841355      0.035781282   -0.17351111     0.0004245671 
   4876000   0.049858934   -0.28418046     0.035622413   -0.17377447     0.00039888901
   4877000   0.050673119   -0.28461158     0.035380687   -0.17322612     0.00037925614
   4878000   0.049721829   -0.28427565     0.035753936   -0.17394378     0.00014855258
   4879000   0.04946612    -0.28462555     0.03577947    -0.17465169     0.00064991317
   4880000   0.050097355   -0.28447932     0.035839848   -0.17349828     0.00027529515
   4881000   0.050223073   -0.28446945     0.035278966   -0.17386074     0.00020662218
   4882000   0.049931379   -0.28445848     0.03579177    -0.17377447     0.0003088464 
   4883000   0.050197998   -0.28453853     0.035551772   -0.17369462     0.0005876488 
   4884000   0.050128665   -0.28438532     0.035626605   -0.17357056     0.00070562832
   4885000   0.050522746   -0.28467241     0.035476165   -0.17341702     8.2801795e-05
   4886000   0.049914963   -0.28436349     0.036182149   -0.17331373     0.0002304574 
   4887000   0.050092801   -0.28442393     0.035701032   -0.17358855     0.00052835185
   4888000   0.050209337   -0.28416004     0.034828137   -0.17402276     5.4520452e-05
   4889000   0.050320002   -0.28450443     0.035464529   -0.17356476     0.000142381  
   4890000   0.04991609    -0.28441711     0.035963439   -0.17358437     0.00015489913
   4891000   0.049913567   -0.28450006     0.035162646   -0.17447189     0.00051971366
   4892000   0.04954471    -0.28430872     0.035652022   -0.17434443     0.00025318493
   4893000   0.05009219    -0.28462859     0.035409194   -0.17408596     0.00035887063
   4894000   0.050267739   -0.28450534     0.03514977    -0.17395883     0.00018067683
   4895000   0.049824649   -0.28431289     0.035299728   -0.17428101     0.00022203619
   4896000   0.050274182   -0.28441599     0.035736224   -0.17327336    -6.6610946e-06
   4897000   0.050091027   -0.28436473     0.035897249   -0.17333579    -0.00017273435
   4898000   0.04994463    -0.28471132     0.035756708   -0.1740425     -0.00013495503
   4899000   0.04995497    -0.2843819      0.035164483   -0.17428979    -1.8104983e-05
   4900000   0.04950742    -0.28447331     0.035666225   -0.17455075     0.00016336401
   4901000   0.049290423   -0.2846073      0.035681491   -0.17499494    -0.00020886623
   4902000   0.050525155   -0.28461288     0.034814346   -0.17401569     0.00022182672
   4903000   0.050294728   -0.28491261     0.035908102   -0.17356728     4.6280635e-05
   4904000   0.049960967   -0.2847913      0.03616639    -0.1736883     -0.00019536366
   4905000   0.05005339    -0.28474146     0.03600173    -0.17366449     9.7823619e-05
   4906000   0.049337395   -0.28448777     0.035135984   -0.17535047    -1.9692071e-06
   4907000   0.049552392   -0.28451013     0.035948836   -0.1742375      0.00025863511
   4908000   0.049476091   -0.28447526     0.035565479   -0.17470043     0.00058892975
   4909000   0.04984637    -0.28475351     0.035248072   -0.17474071    -0.00013585894
   4910000   0.049827933   -0.28434149     0.035526346   -0.17407806    -3.8109821e-05
   4911000   0.05014563    -0.28480011     0.035573786   -0.17401274    -0.00013438173
   4912000   0.049874034   -0.28478619     0.035561135   -0.17441883     0.00011923381
   4913000   0.050133065   -0.28480718     0.035680227   -0.17393221    -9.5754837e-06
   4914000   0.049274107   -0.28483204     0.035409416   -0.17551624     5.4279808e-05
   4915000   0.050049994   -0.28454734     0.035458181   -0.17401901     0.00042630028
   4916000   0.049282532   -0.28463254     0.035040115   -0.17567339     0.00045272404
   4917000   0.04963713    -0.28468878     0.035392256   -0.17484563     0.00018458921
   4918000   0.050234548   -0.28465154     0.035660618   -0.17364396     0.00044558306
   4919000   0.049917982   -0.28483574     0.035461633   -0.17450197     0.00012894919
   4920000   0.049681135   -0.28490682     0.036154494   -0.17423543     0.0002183698 
   4921000   0.050105461   -0.28521451     0.035179871   -0.1748813      6.3073501e-05
   4922000   0.049598738   -0.28500159     0.035696743   -0.17491154     4.9438016e-05
   4923000   0.05014432    -0.28482229     0.035445894   -0.17416477     0.00038994279
   4924000   0.050359924   -0.2847379      0.035672082   -0.1735308      3.3528677e-05
   4925000   0.049759625   -0.28471687     0.035656056   -0.17442619    -1.0798581e-05
   4926000   0.049814768   -0.28499055     0.035514642   -0.17475858     0.00057483173
   4927000   0.05031667    -0.28474807     0.035378381   -0.17389955     0.00062196034
   4928000   0.050107447   -0.28515192     0.034664373   -0.17533123    -0.00037969367
   4929000   0.049785368   -0.28476756     0.035535577   -0.17455875     0.00062913562
   4930000   0.049893844   -0.28453455     0.035170238   -0.17452838     0.00025323402
   4931000   0.050290917   -0.28475609     0.035335204   -0.17398937     0.00023118542
   4932000   0.050344227   -0.28490454     0.035843443   -0.17354963    -5.7859282e-05
   4933000   0.050554139   -0.28482449     0.035619722   -0.17337846     0.00036983822
   4934000   0.050083783   -0.28517667     0.035818479   -0.17423736     0.0003333126 
   4935000   0.04944776    -0.28488811     0.035496684   -0.17522457     0.00036108994
   4936000   0.05029576    -0.28492619     0.035480615   -0.1740068     -0.00019522782
   4937000   0.050026532   -0.28485726     0.03545102    -0.17437128     0.00069107802
   4938000   0.050402521   -0.28514139     0.036152851   -0.17338963     0.0001709834 
   4939000   0.050321099   -0.28502211     0.035805856   -0.17373948     0.0003021968 
   4940000   0.04999383    -0.28509888     0.035358311   -0.17475466    -3.7859334e-05
   4941000   0.049883654   -0.28503178     0.035651486   -0.17455964     0.00021948033
   4942000   0.049907962   -0.28498324     0.035493592   -0.17463253     0.00021967689
   4943000   0.050524357   -0.2852926      0.035850215   -0.17366074     0.00022091247
   4944000   0.050664164   -0.28480558     0.035309426   -0.17350481     0.00026210777
   4945000   0.05027535    -0.28460571     0.035208533   -0.17398901     7.3797591e-05
   4946000   0.050243528   -0.28500454     0.035312231   -0.17433188     0.00046748919
   4947000   0.049336103   -0.28485523     0.035743761   -0.17511209    -0.00037522318
   4948000   0.050345114   -0.28489195     0.035580257   -0.1737989      8.9925561e-05
   4949000   0.04961557    -0.28504888     0.035591843   -0.17503848     0.00047551823
   4950000   0.049665345   -0.28500606     0.034879397   -0.17563346     6.6391376e-05
   4951000   0.049292533   -0.28509893     0.035612415   -0.17555249     0.00013613486
   4952000   0.04993812    -0.28490214     0.035368646   -0.17463115     5.0758993e-05
   4953000   0.050174232   -0.28491277     0.035801285   -0.17385499     0.00026233275
   4954000   0.050144717   -0.28499527     0.036478833   -0.17330421     3.8338723e-05
   4955000   0.049736786   -0.28503933     0.036194288   -0.17424468    -0.00012789633
   4956000   0.049586425   -0.28478323     0.035027805   -0.17538059    -7.4603291e-05
   4957000   0.050219551   -0.28504571     0.035445102   -0.17427614    -6.3969466e-05
   4958000   0.049786969   -0.28505941     0.036136301   -0.17424747     6.0145383e-05
   4959000   0.049766117   -0.28490005     0.035205833   -0.17504986     0.00035239183
   4960000   0.050014902   -0.28535272     0.035822921   -0.17451229    -0.00022995543
   4961000   0.049875058   -0.2849442      0.035180225   -0.17495622     0.00042841301
   4962000   0.05007166    -0.28469996     0.03527089    -0.17432642     0.00050258913
   4963000   0.050137104   -0.28501732     0.035339351   -0.17447717     6.0336862e-05
   4964000   0.050021333   -0.2847258      0.035385823   -0.17431282     0.00024490194
   4965000   0.049410838   -0.28487959     0.035624346   -0.17514377     0.00049620838
   4966000   0.050071095   -0.28516555     0.035354167   -0.17470959     0.00015474473
   4967000   0.050221241   -0.28483552     0.035567362   -0.17394116     0.00012270523
   4968000   0.05019149    -0.28467484     0.035087762   -0.1743047      0.00046379381
   4969000   0.049446464   -0.28492573     0.035735964   -0.17502486     0.00015722667
   4970000   0.04998944    -0.28504566     0.03620062    -0.17386572     0.0002967355 
   4971000   0.049845776   -0.28510853     0.035873493   -0.1744712      2.0624658e-06
   4972000   0.049951234   -0.28529771     0.036313181   -0.17406251     0.00033987185
   4973000   0.049912682   -0.28513574     0.03573841    -0.17453313     0.00014391271
   4974000   0.049510043   -0.28509329     0.035446681   -0.17538634    -0.00015117922
   4975000   0.05042098    -0.28540281     0.034925455   -0.17485077     3.6632939e-05
   4976000   0.050014579   -0.28482399     0.035569575   -0.17423739     0.0003430357 
   4977000   0.05031361    -0.28504534     0.035842194   -0.1737376      9.7883149e-05
   4978000   0.049591644   -0.28497602     0.035646992   -0.17494636     1.8547262e-05
   4979000   0.04973737    -0.28520574     0.035401449   -0.17520305    -0.00027077439
   4980000   0.050448506   -0.28553879     0.035567844   -0.17430307     0.00024594799
   4981000   0.050368823   -0.28471645     0.034992367   -0.17417572    -0.00013845388
   4982000   0.049822689   -0.28483572     0.035667188   -0.17443932     4.9623535e-05
   4983000   0.050207807   -0.28507002     0.035310057   -0.17445311     0.0001559424 
   4984000   0.050328384   -0.28503701     0.035529582   -0.17401972     8.4671839e-05
   4985000   0.050100815   -0.28541293     0.035275869   -0.17499068     0.00046715   
   4986000   0.05044917    -0.28496821     0.035036704   -0.17426264     0.0001265928 
   4987000   0.050050951   -0.28480217     0.036149006   -0.17358159    -0.00041359647
   4988000   0.049854421   -0.28497134     0.03540396    -0.17479058     0.00021335048
   4989000   0.050128173   -0.28466793     0.035390895   -0.17408962     0.00034892746
   4990000   0.049897635   -0.28511477     0.035608739   -0.17466441     0.00030736321
   4991000   0.05007322    -0.2852133      0.035307928   -0.17480039    -0.00023494983
   4992000   0.0500228     -0.28487895     0.035452828   -0.17439676     6.349794e-05 
   4993000   0.050093456   -0.28513083     0.03573143    -0.17426407     0.00023186685
   4994000   0.050035063   -0.28545464     0.035321983   -0.1750849      0.00025595622
   4995000   0.050107714   -0.28482768     0.035936518   -0.17373444     9.1328774e-05
   4996000   0.050468819   -0.28477787     0.035619673   -0.17345986     7.2918017e-05
   4997000   0.050065673   -0.28510794     0.035682071   -0.1743322     -0.00015391388
   4998000   0.050149306   -0.28515882     0.03535124    -0.17458847     0.00028558641
   4999000   0.049260487   -0.28508043     0.035780569   -0.17541389     0.00039507773
   5000000   0.049726828   -0.28526693     0.035301151   -0.17538035    -1.3490831e-05
   5001000   0.049814492   -0.28533086     0.036164123   -0.17444982     0.00018552509
   5002000   0.050353853   -0.28544531     0.035478851   -0.17444055     0.00061127003
   5003000   0.050059181   -0.28528367     0.036410122   -0.17378962    -0.00024417203
   5004000   0.049917482   -0.28515615     0.035770361   -0.17451439     7.8882491e-05
   5005000   0.050340259   -0.2851865      0.035709749   -0.17397123     0.00025425532
   5006000   0.050396144   -0.28503287     0.035946031   -0.1734975      0.0002018678 
   5007000   0.049853488   -0.28499868     0.035665096   -0.17455818     0.00016051244
   5008000   0.05028007    -0.28547018     0.034990789   -0.17506415     0.00024761227
   5009000   0.049701233   -0.28523917     0.035630626   -0.1750615      0.00017327271
   5010000   0.049943748   -0.28561545     0.035816815   -0.17488785     0.00014624698
   5011000   0.049560426   -0.28513474     0.035795446   -0.17500345     0.00035118374
   5012000   0.049521086   -0.285225       0.035160955   -0.17578721     0.0003275685 
   5013000   0.050067268   -0.28542568     0.036163357   -0.17416627    -0.00026494117
   5014000   0.050097151   -0.28529894     0.035655637   -0.17450242     4.1508436e-05
   5015000   0.050230941   -0.28588239     0.03525008    -0.17529076    -0.0002211912 
   5016000   0.050010737   -0.2849631      0.034991298   -0.17496054     0.00054338188
   5017000   0.049767228   -0.28551616     0.035868883   -0.17500125     5.7945357e-05
   5018000   0.050011797   -0.28528883     0.03566118    -0.1746148      8.6617917e-05
   5019000   0.050244146   -0.2853292      0.036004086   -0.17396376     4.2343061e-05
   5020000   0.050482314   -0.28537046     0.035842854   -0.17380902     0.00033918765
   5021000   0.050259133   -0.28525599     0.035248204   -0.17462395     0.00012340952
   5022000   0.049958266   -0.28576319     0.035146147   -0.17568448    -7.6597231e-05
   5023000   0.049407391   -0.28533317     0.035926058   -0.17530081     0.0004210119 
   5024000   0.049552599   -0.28530233     0.035761231   -0.175217       2.7960094e-05
   5025000   0.050165092   -0.28544981     0.035703538   -0.17450348     0.0002116855 
   5026000   0.049621361   -0.28515936     0.035347067   -0.17538505     2.9340546e-05
   5027000   0.04951914    -0.28556493     0.036382708   -0.1749083     -0.00030714819
   5028000   0.050065036   -0.28511599     0.03551873    -0.17450455     0.00023876827
   5029000   0.050230434   -0.2856557      0.035283522   -0.17503139    -0.00013240556
   5030000   0.050241533   -0.28567483     0.03608781    -0.17422958     0.00010521684
   5031000   0.049939907   -0.28577464     0.035874059   -0.17499555     0.00022293324
   5032000   0.05014799    -0.28535885     0.036097705   -0.17404401    -0.00018344678
   5033000   0.049607416   -0.28582996     0.035475893   -0.17594774     0.00032842367
   5034000   0.049845926   -0.28552061     0.035084671   -0.17567187    -4.0629586e-05
   5035000   0.049965991   -0.28594943     0.035487692   -0.17551759     0.00018147449
   5036000   0.049754057   -0.28567771     0.035910304   -0.17514113     9.9374247e-05
   5037000   0.04983888    -0.28546904     0.035725944   -0.1749896     -0.00044483502
   5038000   0.050523349   -0.28540968     0.03548695    -0.17414259    -1.343312e-05 
   5039000   0.049682033   -0.28608793     0.034898804   -0.17667088     0.00010976238
   5040000   0.050170146   -0.28562457     0.035604224   -0.17476998     0.0003878384 
   5041000   0.050054947   -0.28575459     0.036119863   -0.17455715    -0.00018039202
   5042000   0.049643766   -0.28549045     0.03588425    -0.17514536    -0.00060559476
   5043000   0.049833203   -0.28538115     0.035109786   -0.17552638     0.00033739926
   5044000   0.050067963   -0.28534568     0.035624135   -0.17462445     0.00046233707
   5045000   0.050492081   -0.28558952     0.03583643    -0.17401986     0.00025975839
   5046000   0.05032716    -0.28598844     0.03525155    -0.17525102     0.0001872719 
   5047000   0.050138953   -0.28604068     0.036542139   -0.17429496    -9.9677041e-05
   5048000   0.049555204   -0.28580484     0.035391717   -0.17608512     1.2920466e-08
   5049000   0.05023425    -0.28599168     0.034692197   -0.17595296     0.00028989314
   5050000   0.049392775   -0.28606318     0.035109873   -0.17686893    -0.00064618297
   5051000   0.050179082   -0.28567921     0.035547272   -0.17486817    -4.1953798e-05
   5052000   0.049941477   -0.28579509     0.035156616   -0.17573109    -2.6067553e-05
   5053000   0.049994549   -0.28564257     0.034976608   -0.17567897    -2.6140405e-06
   5054000   0.049876198   -0.28584672     0.035536318   -0.17550093    -0.00034539582
   5055000   0.050015632   -0.2857051      0.035411128   -0.17527536     0.00015976969
   5056000   0.050184063   -0.28638516     0.035440798   -0.17567312     0.00011920381
   5057000   0.04950949    -0.28593068     0.03577798    -0.17589326     5.4194191e-05
   5058000   0.050037449   -0.28604554     0.036065581   -0.17492862     5.1489358e-05
   5059000   0.050552358   -0.28622713     0.03562911    -0.17477438     0.00019326709
   5060000   0.0500171     -0.28620596     0.035648094   -0.17553706     0.00045409668
   5061000   0.049640807   -0.28623157     0.035560564   -0.1762146     -0.00022720922
   5062000   0.050001761   -0.28590086     0.035550824   -0.17535223     0.00017469027
   5063000   0.050381215   -0.28632145     0.034561084   -0.17619342    -0.00010658237
   5064000   0.050588722   -0.2859908      0.03456193    -0.17555068     0.00021277439
   5065000   0.049527348   -0.28559715     0.035660823   -0.1756501     -8.7800399e-05
   5066000   0.050001967   -0.28574673     0.035544837   -0.17520378     0.00017893135
   5067000   0.050301841   -0.28601717     0.035625511   -0.17494377     5.4462048e-05
   5068000   0.049822279   -0.28596352     0.035758444   -0.17547648    -0.00021612515
   5069000   0.049980846   -0.28599529     0.03511561    -0.17591324    -8.6016566e-05
   5070000   0.049902907   -0.28566381     0.035347344   -0.17546694     0.00010350407
   5071000   0.050162988   -0.28573784     0.035254099   -0.17524411     0.00043462201
   5072000   0.049824629   -0.28627631     0.035432748   -0.17611144     0.00020016435
   5073000   0.049852846   -0.28643482     0.035832781   -0.17582759    -0.00011114177
   5074000   0.050326008   -0.2858577      0.035513276   -0.17486028     0.00040647678
   5075000   0.050203084   -0.28623339     0.035042128   -0.17589149    -0.00010525575
   5076000   0.049660639   -0.28595753     0.035795358   -0.17567602     0.00018539572
   5077000   0.050015369   -0.28585702     0.035474611   -0.1753642     -0.00049438249
   5078000   0.050127765   -0.28577906     0.035541127   -0.17505114     0.00023402921
   5079000   0.049916298   -0.28582855     0.036519515   -0.17443942     5.2651455e-05
   5080000   0.05045225    -0.28599768     0.036039557   -0.17428463     0.00016450386
   5081000   0.050419499   -0.28591363     0.035617015   -0.17467225     0.00025670413
   5082000   0.050350798   -0.28616761     0.035850861   -0.17479543    -0.00029790542
   5083000   0.04978967    -0.2857092      0.035108663   -0.17592085     0.00028768401
   5084000   0.049636983   -0.28596143     0.035470837   -0.17603992     8.2335821e-05
   5085000   0.049951671   -0.28581838     0.035120849   -0.17577486     0.00014106999
   5086000   0.050282942   -0.28600861     0.035445451   -0.17514361    -2.7131575e-05
   5087000   0.050210805   -0.2854402      0.035651827   -0.17447702    -6.0675356e-05
   5088000   0.050843107   -0.28592375     0.035583945   -0.17408007     0.00045998312
   5089000   0.050313273   -0.28577394     0.035186165   -0.17512273     0.00028443594
   5090000   0.049918079   -0.2859106      0.036083947   -0.17495437    -0.00017226384
   5091000   0.049633264   -0.28640956     0.035384731   -0.17657974     0.00029788206
   5092000   0.049864295   -0.2862522      0.035383982   -0.1760766     -8.2701298e-06
   5093000   0.049595587   -0.28608716     0.035749718   -0.17594886     2.857115e-05 
   5094000   0.050520186   -0.28616278     0.03546159    -0.1749258     -0.00013914074
   5095000   0.050004141   -0.28652447     0.035622584   -0.17590052     0.00048646975
   5096000   0.049327576   -0.28589281     0.035430719   -0.1764755      0.00025305975
   5097000   0.049802922   -0.28611821     0.035920996   -0.17549765    -7.0514872e-05
   5098000   0.050361654   -0.28599883     0.035435198   -0.17502602     0.00046632132
   5099000   0.049981571   -0.28595416     0.035467409   -0.17551924     0.0002366069 
   5100000   0.049898659   -0.28636579     0.035315397   -0.17620723     0.00037209678
   5101000   0.050585579   -0.28628623     0.035456575   -0.17495618     0.00041668859
   5102000   0.049818477   -0.2858057      0.035294311   -0.17578849     0.00031948931
   5103000   0.049896508   -0.28555144     0.035480317   -0.17523119    -8.74962e-05  
   5104000   0.050333172   -0.28592644     0.03464574    -0.17578582     0.00057778962
   5105000   0.049782775   -0.28610225     0.035486049   -0.17594686     0.00025924434
   5106000   0.049814348   -0.28591182     0.035621586   -0.17557353    -0.00018780328
   5107000   0.050376103   -0.28580548     0.035991215   -0.17425499    -0.00013634311
   5108000   0.050455438   -0.28614638     0.036085392   -0.17438271    -0.00021320226
   5109000   0.050262776   -0.28641692     0.03600111    -0.17502651     0.00046874569
   5110000   0.050197793   -0.28616109     0.035730003   -0.17513926     0.00043351934
   5111000   0.050412891   -0.28611849     0.035869886   -0.17463415     0.0002151465 
   5112000   0.050151217   -0.28598008     0.035149801   -0.17560831     0.00010939703
   5113000   0.050086267   -0.28630613     0.034926833   -0.17625474    -3.8054872e-05
   5114000   0.049759977   -0.28615592     0.035227159   -0.17629361     0.00052027809
   5115000   0.049828617   -0.28633669     0.035497094   -0.1761015     -0.0001814892 
   5116000   0.050119013   -0.28592937     0.036010512   -0.17474518    -0.00052365663
   5117000   0.050271938   -0.28616197     0.036165402   -0.17459353     6.9369214e-05
   5118000   0.050247472   -0.28581241     0.035669657   -0.17477641     5.6341091e-05
   5119000   0.050143691   -0.28617434     0.035739473   -0.17522418     0.00011023929
   5120000   0.050168808   -0.28613755     0.035143482   -0.17574571    -0.00014524157
   5121000   0.050280684   -0.28614277     0.035715728   -0.17501089     8.579663e-05 
   5122000   0.050400187   -0.28656566     0.035626787   -0.17534347     0.00031927835
   5123000   0.050131562   -0.28651389     0.035545588   -0.17577581     4.603587e-05 
   5124000   0.049484969   -0.28602841     0.036080921   -0.17572482    -0.00014669587
   5125000   0.05052456    -0.28624699     0.03499649    -0.17546855     0.00018167848
   5126000   0.050396659   -0.28620959     0.035301701   -0.17531777     6.7677607e-06
   5127000   0.050208037   -0.28596935     0.035550878   -0.17511128     0.00017396231
   5128000   0.050441722   -0.28632089     0.035855998   -0.17480719     3.8998344e-06
   5129000   0.050337312   -0.28629041     0.035942117   -0.1748472      0.0002065515 
   5130000   0.04978098    -0.2865975      0.035984765   -0.17594608     0.00042882518
   5131000   0.049861804   -0.28628057     0.035268609   -0.17622408    -0.00020138533
   5132000   0.049749932   -0.28586494     0.035040877   -0.17620398     0.00039284466
   5133000   0.050099529   -0.28615078     0.035851906   -0.17515443     1.3836626e-05
   5134000   0.050251437   -0.28652781     0.03581058    -0.17534494     7.0217748e-05
   5135000   0.050181342   -0.28645031     0.035404001   -0.17577915     0.00040613931
   5136000   0.050141643   -0.28635815     0.035379027   -0.17577151     0.00014048286
   5137000   0.049582884   -0.28633346     0.035990123   -0.17597381    -2.8368899e-05
   5138000   0.050059972   -0.28634079     0.0353788     -0.17587688    -2.4784494e-05
   5139000   0.049789556   -0.28636124     0.035650785   -0.17603094     0.00034124719
   5140000   0.049954305   -0.28621324     0.035511242   -0.17577538    -0.00021943539
   5141000   0.05012671    -0.28631332     0.035558599   -0.17556951     0.00014687942
   5142000   0.049438401   -0.28635031     0.035793864   -0.17640363     0.00020589418
   5143000   0.049728994   -0.28649719     0.035718524   -0.17618999     0.00019894366
   5144000   0.050185927   -0.28648983     0.035649264   -0.17556653    -0.00023320931
   5145000   0.050312833   -0.28640723     0.03564807    -0.17529478    -7.1360812e-05
   5146000   0.050708456   -0.28641827     0.03588621    -0.17447428    -5.3018601e-05
   5147000   0.050084672   -0.28617025     0.036470496   -0.17457759     0.00014725329
   5148000   0.049791381   -0.28614761     0.035304494   -0.17616087     0.00015869938
   5149000   0.049793095   -0.28646702     0.035710558   -0.17607164    -0.0004883715 
   5150000   0.049713471   -0.28630255     0.035805722   -0.17593143    -0.00029588151
   5151000   0.050198111   -0.28656425     0.035569035   -0.1757029      0.00031960686
   5152000   0.050476178   -0.2864651      0.035431823   -0.1753239      0.00018027342
   5153000   0.050006123   -0.2860728      0.035298323   -0.17577014     0.00034573019
   5154000   0.049759798   -0.28616418     0.035516689   -0.17601261    -0.00019846017
   5155000   0.050497696   -0.28637766     0.035409291   -0.17522671     0.00017114954
   5156000   0.04985883    -0.2863957      0.035353675   -0.1762586     -0.00019730167
   5157000   0.049910735   -0.28650152     0.035571386   -0.17606886    -0.00017882007
   5158000   0.049584295   -0.28592964     0.035759286   -0.17579871     7.950792e-05 
   5159000   0.049751942   -0.28616853     0.035512899   -0.17603254    -7.2473884e-05
   5160000   0.049800175   -0.28649615     0.035581352   -0.17621935     0.00021834863
   5161000   0.049593957   -0.28650798     0.03509168    -0.17703016     0.0001681031 
   5162000   0.050137933   -0.28607775     0.035130912   -0.17574479     0.00026726786
   5163000   0.050470435   -0.28648109     0.035520092   -0.17526023     0.00018178409
   5164000   0.049820298   -0.28635174     0.035186954   -0.17643916    -5.5545783e-05
   5165000   0.049954284   -0.28636282     0.035245401   -0.17619083     0.0001521497 
   5166000   0.049485916   -0.28627071     0.035722346   -0.17632428     0.0001509051 
   5167000   0.049633741   -0.2864451      0.035783767   -0.17621552     0.00023911467
   5168000   0.050278133   -0.28641252     0.035321691   -0.1756785      0.00022104923
   5169000   0.049984728   -0.28635773     0.03543948    -0.17594599     0.00028272861
   5170000   0.050343796   -0.28621329     0.035548149   -0.17515432     4.2799223e-06
   5171000   0.050194189   -0.28629654     0.035242489   -0.17576763     0.0003584767 
   5172000   0.050607216   -0.28679946     0.035518843   -0.17537469     0.00019266724
   5173000   0.049819803   -0.28663088     0.035259074   -0.17664692    -7.3604148e-05
   5174000   0.050050002   -0.28670386     0.035994877   -0.17563883     0.00032774922
   5175000   0.049871148   -0.28638816     0.03564138    -0.17594488     0.00034326425
   5176000   0.049632054   -0.28652495     0.035815998   -0.17626567     0.0003715461 
   5177000   0.049979148   -0.28691766     0.035672447   -0.17628133     8.9330464e-05
   5178000   0.049658601   -0.28654235     0.035275678   -0.17678358     4.9073261e-05
   5179000   0.049550606   -0.28663469     0.035412626   -0.17690095    -2.9279995e-05
   5180000   0.049740333   -0.28657        0.036020638   -0.17594367    -0.00028517991
   5181000   0.050732479   -0.28690122     0.035710604   -0.17509681     3.4532299e-05
   5182000   0.049958781   -0.28645242     0.03540509    -0.176114       0.00019641354
   5183000   0.049733407   -0.28689019     0.035737775   -0.17655712    -0.00015904129
   5184000   0.050793273   -0.28686187     0.035741746   -0.17493513    -0.00015075256
   5185000   0.049918683   -0.28634406     0.035673728   -0.17579714     0.00053468753
   5186000   0.049843995   -0.28644895     0.035697385   -0.1759904      0.00033914538
   5187000   0.050020163   -0.28673225     0.035654377   -0.17605247     0.00054268871
   5188000   0.049919817   -0.28643348     0.035473398   -0.17608519     0.00056260179
   5189000   0.049983997   -0.2866451      0.035694764   -0.17597918    -7.6386767e-06
   5190000   0.049538092   -0.2867103      0.035470631   -0.17693732     0.00044942737
   5191000   0.049713697   -0.28691534     0.035572966   -0.17677664    -0.00015432372
   5192000   0.050057966   -0.28683071     0.035600439   -0.17614817    -0.00016219425
   5193000   0.050108367   -0.28696418     0.035826065   -0.17598041     0.00046272945
   5194000   0.049314981   -0.28661893     0.035760307   -0.17689092    -0.00028209226
   5195000   0.050005416   -0.28701751     0.036108225   -0.175906       0.00016026345
   5196000   0.049588543   -0.28709234     0.035746703   -0.17696762     0.00047383118
   5197000   0.049727296   -0.28672951     0.035496168   -0.1766472      2.5869232e-06
   5198000   0.049693488   -0.28664614     0.035300639   -0.17681008    -4.4391899e-05
   5199000   0.050237537   -0.28675165     0.035573106   -0.1758271      0.00042860098
   5200000   0.050381535   -0.28708307     0.035629788   -0.17588585    -0.00020014708
   5201000   0.050517087   -0.28683074     0.035260307   -0.1757997      0.00020919131
   5202000   0.050152366   -0.286975       0.035623002   -0.17612831     0.00030024699
   5203000   0.049890642   -0.28697857     0.036005765   -0.17614167     0.00027787765
   5204000   0.049809227   -0.2869571      0.035245662   -0.17700241    -3.2851691e-05
   5205000   0.049691759   -0.28688447     0.035513425   -0.17683822    -0.00020065262
   5206000   0.049879515   -0.28700367     0.035598063   -0.17659117     0.00028689198
   5207000   0.050287124   -0.28688723     0.035382957   -0.17607845    -0.00011634933
   5208000   0.050392147   -0.28695377     0.035666514   -0.17570391     0.00035567802
   5209000   0.050509087   -0.28674406     0.035438839   -0.17554648     0.00015811119
   5210000   0.050259501   -0.28711936     0.036061304   -0.17567367    -0.00011486646
   5211000   0.049920907   -0.28662808     0.0352634     -0.17648815     0.00024559826
   5212000   0.050383678   -0.28716504     0.035400571   -0.17619383     0.00049772985
   5213000   0.050116814   -0.2870076      0.035737918   -0.17609931     0.00047820122
   5214000   0.049845172   -0.2870686      0.035519475   -0.17678619     5.2518462e-05
   5215000   0.049715073   -0.28706001     0.035387903   -0.17710431    -0.00019165522
   5216000   0.05004374    -0.28721668     0.035312294   -0.17684362    -0.00015908855
   5217000   0.049735807   -0.28708731     0.035784622   -0.17670379     0.00030724375
   5218000   0.049777776   -0.28687711     0.034738051   -0.17747721     9.8830098e-05
   5219000   0.04994708    -0.28692669     0.036060381   -0.17595052     2.2668314e-05
   5220000   0.049744148   -0.28719018     0.035140048   -0.17743872    -0.00022523879
   5221000   0.049701044   -0.2870653      0.035735816   -0.17678273    -0.00010106941
   5222000   0.049765464   -0.28712778     0.036021326   -0.17646308     3.8084606e-05
   5223000   0.05009164    -0.28718849     0.035567783   -0.17648809     0.00018206682
   5224000   0.050169284   -0.28682525     0.035832653   -0.17574352     0.00038965748
   5225000   0.049627323   -0.28695989     0.035776651   -0.17674706    -0.00018722013
   5226000   0.049878706   -0.28723027     0.035444957   -0.17697208    -0.0003937207 
   5227000   0.049847299   -0.28716133     0.035600431   -0.17679477     9.978377e-05 
   5228000   0.049673609   -0.28725213     0.035978685   -0.17676784     0.00015937317
   5229000   0.049886326   -0.28694563     0.035826063   -0.1762949      0.00027683486
   5230000   0.04996269    -0.28699919     0.035501481   -0.17655851     2.348147e-05 
   5231000   0.050442471   -0.28741686     0.035971898   -0.17578614     0.00042838051
   5232000   0.050692048   -0.2868653      0.035321152   -0.17551098    -0.00014045598
   5233000   0.049809718   -0.28735791     0.035663655   -0.17698449     0.00026943834
   5234000   0.050409366   -0.28746655     0.035778054   -0.17607933     0.00031370082
   5235000   0.050321989   -0.28701516     0.035441769   -0.17609528     0.00036720386
   5236000   0.050026547   -0.28687413     0.035816185   -0.17602297     7.7510902e-05
   5237000   0.050181274   -0.28764656     0.035232761   -0.17714674     0.00029081246
   5238000   0.050322977   -0.28750388     0.035733638   -0.17629064    -1.5901966e-05
   5239000   0.050006631   -0.28710912     0.035481796   -0.17662222    -5.0655131e-05
   5240000   0.04978641    -0.28740772     0.035940991   -0.17679193     0.00033446683
   5241000   0.050868019   -0.28739409     0.035242279   -0.17585471     0.00037920521
   5242000   0.050181102   -0.28743839     0.035317744   -0.17685385     0.00015924694
   5243000   0.049373952   -0.28714532     0.035224235   -0.17786493     0.00020822935
   5244000   0.0500347     -0.28728685     0.035054268   -0.17718537     0.00014874518
   5245000   0.050020217   -0.28745253     0.035239012   -0.17718804     0.00036653224
   5246000   0.049683286   -0.28684695     0.035468293   -0.17685853     0.00017021886
   5247000   0.04976504    -0.28721837     0.035737605   -0.17683802     0.00048268259
   5248000   0.049661533   -0.28776936     0.035432671   -0.1778492     -0.00020124928
   5249000   0.049139074   -0.28719391     0.035906271   -0.17758379    -0.00038376564
   5250000   0.049870697   -0.28778709     0.035611254   -0.17737462     0.00043785301
   5251000   0.048811153   -0.28744949     0.036049546   -0.17818794     5.3847845e-06
   5252000   0.050290504   -0.28724483     0.03516975    -0.17664419     9.7773502e-05
   5253000   0.0495719     -0.2871813      0.035543086   -0.17728516     0.00046873726
   5254000   0.050233878   -0.28734639     0.035795295   -0.17620514    -0.00010866067
   5255000   0.050416868   -0.28741709     0.035936243   -0.17586042    -0.00037133029
   5256000   0.050384066   -0.28736472     0.035654725   -0.17613877     7.9432221e-05
   5257000   0.049375696   -0.28732924     0.03601341    -0.17725707    -0.00036403469
   5258000   0.04994646    -0.28735144     0.03537639    -0.17706019     0.00030925452
   5259000   0.049856157   -0.2875726      0.036043033   -0.17675016    -0.00024766579
   5260000   0.050221529   -0.28742373     0.034904532   -0.17719176     0.00036062808
   5261000   0.049858798   -0.28769831     0.035342871   -0.17757207     1.0802666e-05
   5262000   0.050197399   -0.28731073     0.035733052   -0.17628644    -5.6436315e-05
   5263000   0.049911023   -0.28751488     0.035778294   -0.17687488    -0.00014821827
   5264000   0.050128031   -0.28744111     0.035230432   -0.17702348     0.00037127926
   5265000   0.049961288   -0.28756424     0.035553384   -0.17707376     0.00013742226
   5266000   0.049927148   -0.28755134     0.035695722   -0.17696972     0.00023155947
   5267000   0.050419696   -0.28766641     0.035267483   -0.17677426     0.00020007666
   5268000   0.049873926   -0.28781298     0.035257852   -0.17774906    -0.00011563582
   5269000   0.049625812   -0.28754288     0.035587093   -0.17752187     0.00017824806
   5270000   0.050199696   -0.28715294     0.035306913   -0.17655134     0.00032120749
   5271000   0.050088699   -0.28734262     0.035385259   -0.17682916    -0.00029777208
   5272000   0.049232384   -0.28724251     0.035536217   -0.17786248    -8.8131036e-05
   5273000   0.050207694   -0.2871418      0.035222175   -0.17661294     0.00012284233
   5274000   0.050432818   -0.2870569      0.035820331   -0.17559223     0.00018551299
   5275000   0.050437811   -0.28733166     0.035892351   -0.17578747     0.00072953642
   5276000   0.05038181    -0.28750889     0.035031922   -0.17690913     0.00041220303
   5277000   0.04978791    -0.28709336     0.035781013   -0.1766353      0.00030770629
   5278000   0.05012087    -0.28732412     0.035626167   -0.1765215      0.00023443437
   5279000   0.049568727   -0.28793057     0.036081575   -0.1775007     -0.00011616225
   5280000   0.049897727   -0.2878176      0.035637779   -0.17733806    -0.0002174552 
   5281000   0.050172782   -0.28762964     0.035317271   -0.17705806     0.00018824867
   5282000   0.049756599   -0.28762388     0.036274963   -0.17671883    -0.00018243979
   5283000   0.049590086   -0.28784521     0.035878946   -0.17758594     0.00027968681
   5284000   0.050875484   -0.2875836      0.035209006   -0.1760663     -0.00024064407
   5285000   0.050469329   -0.28736608     0.036026237   -0.17564073    -0.00027439639
   5286000   0.050716168   -0.28748281     0.035750203   -0.17566326     0.00050515189
   5287000   0.050350119   -0.2873874      0.03606162    -0.17580547     0.00050400039
   5288000   0.049892398   -0.28761278     0.035577807   -0.1772012      0.00014630724
   5289000   0.049716404   -0.28800414     0.035395375   -0.17803897    -6.8782018e-05
   5290000   0.049785523   -0.28757718     0.034850016   -0.1780537      0.00030087103
   5291000   0.050031198   -0.28700882     0.034929604   -0.17703726     0.00036211918
   5292000   0.050095175   -0.28743116     0.035734316   -0.17655893    -0.00046172463
   5293000   0.050068565   -0.28774774     0.035591405   -0.17705833     6.7050996e-05
   5294000   0.050235528   -0.28791534     0.03511492    -0.17745198    -1.3525875e-05
   5295000   0.049691326   -0.28743727     0.035728363   -0.17717673     0.00010389086
   5296000   0.050424293   -0.28772674     0.035847447   -0.17624774     0.00047875661
   5297000   0.050239263   -0.28750013     0.035858415   -0.17628768    -0.00016098932
   5298000   0.050152427   -0.2876638      0.035157969   -0.17728204     0.00036015777
   5299000   0.050205285   -0.28747544     0.03483001    -0.17734236     0.00070878119
   5300000   0.04953015    -0.28747692     0.034355338   -0.17883115     0.0002933316 
   5301000   0.050132941   -0.28777356     0.035442685   -0.17713631     0.00031267195
   5302000   0.049869562   -0.28781655     0.035583833   -0.1774332      9.6839283e-05
   5303000   0.049978092   -0.28810084     0.035199576   -0.17793897     8.2028434e-05
   5304000   0.050028259   -0.28751971     0.035089784   -0.17739238     0.00027699341
   5305000   0.04984755    -0.28759617     0.035571482   -0.17725818     0.00038692569
   5306000   0.05019817    -0.2876985      0.035703275   -0.17670283     0.00012347774
   5307000   0.0500139     -0.28788332     0.035733708   -0.1771336      0.00036391025
   5308000   0.049951501   -0.28803119     0.035953604   -0.17715517     0.00045952089
   5309000   0.049757394   -0.28766258     0.03544791    -0.17758339    -0.00027023178
   5310000   0.050225352   -0.28768958     0.035260588   -0.17709582     0.00014722157
   5311000   0.04970928    -0.28785146     0.03555461    -0.17773774     0.00017295633
   5312000   0.050016034   -0.28762323     0.035180191   -0.17742383     0.00047589348
   5313000   0.049914631   -0.28788758     0.035515883   -0.17750459    -0.00017861449
   5314000   0.049287167   -0.2878194      0.035729718   -0.1781637      0.00013451346
   5315000   0.05030219    -0.28778466     0.035955368   -0.17638087    -9.4017034e-06
   5316000   0.050289505   -0.28764933     0.036036789   -0.17618315    -4.3041924e-05
   5317000   0.049775581   -0.28778101     0.035972156   -0.1771503      0.00020926911
   5318000   0.050070024   -0.28783716     0.03527224    -0.17746473    -9.1478879e-05
   5319000   0.050105793   -0.28764794     0.035304097   -0.17719       -0.00019699111
   5320000   0.049937937   -0.28791956     0.036054344   -0.17696315    -4.3963292e-05
   5321000   0.050501599   -0.28813604     0.035345871   -0.17704266     0.00071768478
   5322000   0.049418006   -0.28783808     0.035726538   -0.17798932    -9.7795549e-05
   5323000   0.049811385   -0.28767601     0.034901773   -0.17806198     9.11735e-05  
   5324000   0.049642178   -0.28809707     0.0357059     -0.1779327      2.3660064e-05
   5325000   0.04999952    -0.28800597     0.035774749   -0.17723678    -1.793234e-05 
   5326000   0.050129204   -0.28832853     0.035836173   -0.17730341     0.00019893941
   5327000   0.050140055   -0.28793193     0.035025173   -0.17770153     0.00041144324
   5328000   0.049649866   -0.28759372     0.035369915   -0.17775381     0.00022957345
   5329000   0.050662474   -0.28792557     0.035404589   -0.17653218     0.00044191011
   5330000   0.050269518   -0.28790271     0.035849145   -0.17665415    -9.0630874e-05
   5331000   0.050071521   -0.28798724     0.035555896   -0.17732891    -3.2427199e-05
   5332000   0.049915079   -0.28786191     0.035958552   -0.17703557    -0.0003301416 
   5333000   0.050133773   -0.28796681     0.035813501   -0.1769575     -0.00019881179
   5334000   0.049960691   -0.28744214     0.035076071   -0.17742987    -0.00020224022
   5335000   0.0502747     -0.28821198     0.035784845   -0.17701995     0.00015465181
   5336000   0.050441975   -0.28834048     0.03538737    -0.17729503     2.0841657e-05
   5337000   0.049660705   -0.2877189      0.036207846   -0.1770248     -0.00018705837
   5338000   0.049821111   -0.28785956     0.035596545   -0.17753617     0.00032519242
   5339000   0.050219436   -0.28762697     0.035750367   -0.17655231     0.00029629008
   5340000   0.050195238   -0.28804901     0.035671912   -0.1770891     -0.00037926322
   5341000   0.050149856   -0.28775647     0.035776788   -0.17675975    -0.00027952412
   5342000   0.050483895   -0.28809161     0.03559979    -0.17677086    -2.5867498e-05
   5343000   0.050103493   -0.28768504     0.035659257   -0.17687539    -0.00039900981
   5344000   0.050004865   -0.28825922     0.035527216   -0.17772954    -6.7017492e-05
   5345000   0.050278334   -0.28794473     0.035207548   -0.17732455     0.00030919233
   5346000   0.049682424   -0.28774315     0.036130772   -0.17709355     0.00010502679
   5347000   0.050138602   -0.28835469     0.03584055    -0.17731109     0.00033674388
   5348000   0.050139785   -0.28799087     0.035813847   -0.1769722      0.00021670989
   5349000   0.050075617   -0.28818773     0.035005132   -0.17807402     0.00016604629
   5350000   0.050726476   -0.28803203     0.035616875   -0.17633035    -1.3431259e-05
   5351000   0.050018788   -0.28807565     0.034946967   -0.17810534     6.9583792e-05
   5352000   0.050675419   -0.28798        0.035427537   -0.17654424     0.00031890405
   5353000   0.049837432   -0.28795738     0.035514618   -0.17769143    -0.00043601143
   5354000   0.050176242   -0.28801461     0.035599956   -0.17715515    -0.00010157244
   5355000   0.049863918   -0.28801004     0.035949558   -0.17726943    -0.00021134286
   5356000   0.050071876   -0.28800365     0.035881824   -0.17701886     0.00012940449
   5357000   0.050187789   -0.28776957     0.035420183   -0.17707256    -0.00011995319
   5358000   0.049024974   -0.28816373     0.035055633   -0.17957538    -6.7730647e-05
   5359000   0.049183019   -0.28827344     0.035610197   -0.17889348     0.00012398729
   5360000   0.049319052   -0.28820968     0.035796225   -0.17843965     0.00015375417
   5361000   0.050494134   -0.28841833     0.035409189   -0.17727283     0.00010971387
   5362000   0.050042126   -0.28795807     0.035821269   -0.17707845     6.9427017e-05
   5363000   0.050371612   -0.28824744     0.035358414   -0.17733649    -0.00018089526
   5364000   0.050093394   -0.28791849     0.035690618   -0.17709262     0.00011536713
   5365000   0.050445345   -0.28778973     0.034888434   -0.17723816    -4.3510873e-05
   5366000   0.05078854    -0.28784892     0.035094689   -0.17657634     0.00025451695
   5367000   0.05024346    -0.2884867      0.035828207   -0.17729816     0.00033912079
   5368000   0.049993712   -0.28842679     0.035106203   -0.17833485     0.00023035979
   5369000   0.050725747   -0.28828106     0.035603532   -0.17659382    -0.00028225562
   5370000   0.050554183   -0.28843802     0.03627587    -0.17633577     7.49686e-05  
   5371000   0.050364838   -0.28813226     0.035704274   -0.1768856     -6.3113525e-05
   5372000   0.049800243   -0.28819914     0.035703153   -0.17780044     5.882976e-05 
   5373000   0.049692938   -0.28829108     0.035332655   -0.17842382     0.00033024691
   5374000   0.049797706   -0.28883197     0.035424284   -0.17871595    -2.1743316e-05
   5375000   0.04985329    -0.28827562     0.035401139   -0.17809937    -5.2840175e-05
   5376000   0.049822869   -0.28800841     0.035889773   -0.17738916     0.00035332509
   5377000   0.049893442   -0.28815097     0.035924091   -0.17739155     0.00029988145
   5378000   0.049820718   -0.28801878     0.035265264   -0.17802726     0.00036546066
   5379000   0.049328429   -0.28809465     0.035965005   -0.17814177    -8.7614542e-05
   5380000   0.050419067   -0.28822969     0.036241901   -0.17636407    -0.00016070573
   5381000   0.050400913   -0.28836491     0.03614993    -0.17661848    -0.00025948799
   5382000   0.050155776   -0.28824099     0.035723353   -0.17728882     7.7297733e-05
   5383000   0.050199349   -0.28862962     0.03546475    -0.17787071    -7.4493193e-05
   5384000   0.049492266   -0.28847167     0.035702248   -0.17853581    -0.00029907811
   5385000   0.050102539   -0.28844409     0.03489036    -0.17840477    -0.00019709505
   5386000   0.050498373   -0.28841514     0.035677219   -0.17699525     0.00025798747
   5387000   0.050585983   -0.28811366     0.03570546    -0.17653412    -0.00052802386
   5388000   0.050018247   -0.28853788     0.035340767   -0.17817458     0.0007448692 
   5389000   0.049944867   -0.28855795     0.034977987   -0.17866749    -0.00016111953
   5390000   0.050500685   -0.28847012     0.034371571   -0.17835241     0.00062469434
   5391000   0.049840579   -0.28850201     0.035057779   -0.17868819    -0.00049985291
   5392000   0.050067625   -0.28861615     0.035409948   -0.17810961     2.8727806e-05
   5393000   0.050263489   -0.28882171     0.035724307   -0.17770703    -2.7358702e-05
   5394000   0.050332482   -0.2886211      0.035704212   -0.17742303     0.00026940382
   5395000   0.050063794   -0.28846079     0.035808682   -0.17756127     0.00011968916
   5396000   0.050413477   -0.28852719     0.035320474   -0.17759138     0.00014344956
   5397000   0.049909795   -0.2885119      0.03619826    -0.17745378     0.00017361863
   5398000   0.050119891   -0.2883464      0.0358177     -0.17735371     9.6808979e-05
   5399000   0.049620593   -0.28851119     0.035942801   -0.1781423      0.00013546468
   5400000   0.050468924   -0.28847668     0.035699686   -0.17707849     0.00011271921
   5401000   0.050570362   -0.28841347     0.035548079   -0.17701474    -0.00012526257
   5402000   0.050162624   -0.28834039     0.035371919   -0.17772939     0.00039929562
   5403000   0.050500549   -0.28835356     0.035587455   -0.17702017     0.00030888664
   5404000   0.049765263   -0.28898136     0.036054624   -0.17828365    -0.00010082554
   5405000   0.050683992   -0.28882675     0.035581534   -0.17722414     9.2099462e-05
   5406000   0.050379447   -0.28845141     0.035705904   -0.17718121     0.0003240635 
   5407000   0.050586398   -0.28838781     0.035458738   -0.17705438     0.00010657704
   5408000   0.050638161   -0.28865044     0.035670141   -0.17702796     0.0002149779 
   5409000   0.050486263   -0.2888875      0.036033125   -0.17712986    -0.00045394021
   5410000   0.049807934   -0.28838326     0.034796637   -0.17887954     0.00045127739
   5411000   0.049517274   -0.28891028     0.035731689   -0.17890747    -9.8324499e-05
   5412000   0.049688346   -0.2886769      0.03499392    -0.17915527     0.00030547471
   5413000   0.049888541   -0.28871301     0.035465805   -0.17841923    -3.0670795e-05
   5414000   0.050540772   -0.28833119     0.035725768   -0.17679916    -1.8508654e-05
   5415000   0.050592404   -0.28884729     0.036329701   -0.17663388    -9.7387075e-05
   5416000   0.049966335   -0.28914584     0.035577125   -0.17862405    -5.4022768e-05
   5417000   0.04960644    -0.28869398     0.036138646   -0.17815047    -0.0005951588 
   5418000   0.049665652   -0.28878667     0.035924604   -0.17836839    -7.9689372e-05
   5419000   0.04986209    -0.28880279     0.035158913   -0.17885557    -0.00028361246
   5420000   0.049938786   -0.28917956     0.035295861   -0.17898035    -0.00028503234
   5421000   0.049948267   -0.28888051     0.035150118   -0.17881282     2.8489954e-05
   5422000   0.049656209   -0.28943208     0.035973182   -0.17897939    -0.00033566574
   5423000   0.050521084   -0.28901803     0.035630878   -0.17761041     0.00031020901
   5424000   0.05006827    -0.2887491      0.035612419   -0.17803912    -0.00019288423
   5425000   0.050307906   -0.28914332     0.03529698    -0.17838935    -0.00016080415
   5426000   0.05011072    -0.28905194     0.035617304   -0.17827341     3.7846007e-05
   5427000   0.050363231   -0.28860459     0.035582706   -0.17748192     0.0004206361 
   5428000   0.050478083   -0.28867378     0.035115115   -0.17784643     0.00016194325
   5429000   0.050299068   -0.28881896     0.035817246   -0.17755798     3.6628354e-05
   5430000   0.049935173   -0.28852368     0.036209869   -0.17741589     7.4113021e-05
   5431000   0.050658961   -0.28914499     0.035174761   -0.17798669     3.0023891e-05
   5432000   0.049908264   -0.28880886     0.035887985   -0.17806331    -6.2229337e-05
   5433000   0.050334122   -0.28882294     0.03578099    -0.17754564     0.00012171695
   5434000   0.050311163   -0.28914194     0.035177808   -0.17850225    -5.3409406e-05
   5435000   0.050057255   -0.2892201      0.035244374   -0.17889469    -0.00010940072
   5436000   0.049710434   -0.2887756      0.035138318   -0.17907645     0.00012825754
   5437000   0.049930349   -0.28892841     0.03555903    -0.17847869     0.00010053144
   5438000   0.050358961   -0.28892202     0.03600548    -0.17738297     0.00041553011
   5439000   0.049740678   -0.28910729     0.035736028   -0.17876506    -6.443849e-05 
   5440000   0.049024265   -0.28887981     0.035654546   -0.17969361    -0.00033379849
   5441000   0.049437374   -0.28913562     0.03530729    -0.17967705    -8.5421119e-05
   5442000   0.050158741   -0.28906782     0.035884644   -0.17794992    -0.00018982305
   5443000   0.049867945   -0.28870336     0.035189777   -0.17871649     0.00026135405
   5444000   0.049536876   -0.28895133     0.035301925   -0.17934888     0.00062809504
   5445000   0.04971432    -0.28867794     0.035417781   -0.17869349     0.00045329754
   5446000   0.050029953   -0.28942789     0.035911565   -0.17847623     0.00018223273
   5447000   0.049683155   -0.28915514     0.035683367   -0.17895184    -0.00022633478
   5448000   0.05032153    -0.28889223     0.035504423   -0.17791038    -0.00026350744
   5449000   0.05024306    -0.28933486     0.036174577   -0.17780056     0.00021867383
   5450000   0.050114184   -0.28914248     0.035741505   -0.17823455    -5.1392455e-06
   5451000   0.050035991   -0.28951175     0.036070514   -0.1783921      1.1528992e-05
   5452000   0.049909519   -0.28910596     0.035987202   -0.17825931     0.00074263025
   5453000   0.049869263   -0.28917817     0.03516974    -0.17920936     5.2065019e-05
   5454000   0.05000313    -0.28889854     0.035808316   -0.17809037     0.00037524563
   5455000   0.050674849   -0.28932666     0.035861521   -0.17745777     0.00017197635
   5456000   0.050559038   -0.28939259     0.035645423   -0.1779135      0.00036433838
   5457000   0.050779732   -0.28929224     0.035681713   -0.17744585     0.00011642832
   5458000   0.050028221   -0.28927638     0.035827097   -0.1784118      0.00030887794
   5459000   0.050116513   -0.28934073     0.036022163   -0.17814865     0.00019765258
   5460000   0.050387868   -0.28900663     0.035422492   -0.17800721     0.00017873596
   5461000   0.049782699   -0.28928979     0.035762217   -0.17885835    -0.00037313754
   5462000   0.0500573     -0.28907139     0.035859962   -0.17813032    -0.00029292147
   5463000   0.050371209   -0.28949346     0.035896228   -0.17804529     0.00025464089
   5464000   0.05072508    -0.28948078     0.035658129   -0.17773994     0.00030431126
   5465000   0.050511073   -0.28947521     0.036249555   -0.17746394     0.00010091993
   5466000   0.049987794   -0.28917629     0.034949595   -0.17924984    -2.682158e-05 
   5467000   0.050139353   -0.28947827     0.035418809   -0.17885529    -0.00034520836
   5468000   0.050203506   -0.28918233     0.03558726    -0.17829467     0.00046358675
   5469000   0.0501999     -0.28964109     0.035483757   -0.17886234     0.00034141746
   5470000   0.04975532    -0.28921091     0.035430786   -0.17915196    -0.00012203243
   5471000   0.049784653   -0.28944449     0.034897959   -0.17987437    -4.9435329e-05
   5472000   0.05007947    -0.28940779     0.035351212   -0.17894222     0.00011072063
   5473000   0.049992212   -0.28952327     0.035541436   -0.17899836     0.00025825328
   5474000   0.050078305   -0.28937792     0.035449718   -0.17881559     0.00029042846
   5475000   0.049469453   -0.28945837     0.036281357   -0.17897762     0.00018385405
   5476000   0.049991936   -0.28967192     0.03513239    -0.17955646     0.00049572159
   5477000   0.049580882   -0.2894678      0.036431363   -0.17866991    -0.00024721518
   5478000   0.050084665   -0.28949062     0.03602791    -0.17834056     0.00021936221
   5479000   0.050201333   -0.28948828     0.035544757   -0.17864638     0.00056579783
   5480000   0.049979199   -0.28928227     0.035273387   -0.17904492    -2.2623986e-06
   5481000   0.050580505   -0.28960355     0.035419195   -0.17831849     6.8564001e-05
   5482000   0.049821967   -0.28937951     0.03532548    -0.1793259      0.0001855289 
   5483000   0.049494283   -0.2895         0.036096053   -0.17916732    -0.0002102105 
   5484000   0.050110761   -0.28979592     0.035985055   -0.17864957    -0.00028720275
   5485000   0.050153498   -0.28947333     0.035908232   -0.17833971     0.00047408991
   5486000   0.0497152     -0.2895897      0.035375342   -0.17964637     0.00048189953
   5487000   0.050070385   -0.28955238     0.035713171   -0.17873848     0.00017384342
   5488000   0.049352482   -0.28936364     0.035092487   -0.18024721    -0.00033925596
   5489000   0.049503122   -0.28944246     0.035826874   -0.17936569    -0.00024249806
   5490000   0.049744644   -0.28953096     0.035055825   -0.17986299     0.00035993135
   5491000   0.050015493   -0.28944851     0.036025951   -0.17840416    -0.00010703368
   5492000   0.050101985   -0.28933463     0.035349368   -0.17883713     0.00029386554
   5493000   0.049720035   -0.28939381     0.036097041   -0.17872153     0.00022884089
   5494000   0.049464822   -0.28959926     0.035916408   -0.17949041     0.00020784372
   5495000   0.050301943   -0.28978846     0.035437957   -0.17890246    -0.00024064301
   5496000   0.050346947   -0.28940361     0.035294453   -0.17859361     0.00036882084
   5497000   0.050085499   -0.28926556     0.035468287   -0.17867387     0.00021509515
   5498000   0.049872251   -0.28960628     0.035410222   -0.17939251     0.0001591496 
   5499000   0.049828767   -0.28963997     0.035452762   -0.17944888     9.729974e-05 
   5500000   0.049984445   -0.2892178      0.035559555   -0.17868641    -5.9626042e-05
   5501000   0.050410289   -0.28935551     0.035622001   -0.17812295    -0.00013337435
   5502000   0.050246004   -0.28957398     0.035305187   -0.17890465     0.00027657199
   5503000   0.050349743   -0.28938243     0.035444054   -0.17841863     0.0004821275 
   5504000   0.049507755   -0.28957281     0.035317196   -0.17999878     0.00018713419
   5505000   0.049980128   -0.29001793     0.035639364   -0.17941321    -7.5620231e-05
   5506000   0.050230781   -0.28959285     0.035972214   -0.17827933    -6.1120017e-05
   5507000   0.050502187   -0.28976838     0.035663493   -0.1783565      1.0622638e-05
   5508000   0.050703047   -0.28980833     0.035293204   -0.17846546    -0.00056501493
   5509000   0.050398497   -0.28964945     0.035738762   -0.17831782     0.00036063272
   5510000   0.050049495   -0.28988648     0.035720021   -0.17909706     0.0004056972 
   5511000   0.0501188     -0.28970592     0.036400317   -0.17813225    -0.00023542518
   5512000   0.049733938   -0.28905404     0.035370382   -0.17908757     0.00040702229
   5513000   0.049593562   -0.29002773     0.03530202    -0.18034017     5.0798663e-05
   5514000   0.049509681   -0.28941502     0.035649147   -0.17950614     0.00030711259
   5515000   0.050050353   -0.28976991     0.036092798   -0.17860642    -0.00020500553
   5516000   0.049911088   -0.28925885     0.035828611   -0.17856844     0.00043753273
   5517000   0.050664115   -0.28950254     0.035772693   -0.17773858     0.00048134178
   5518000   0.050527735   -0.2892356      0.03531156    -0.17813733     0.00017773089
   5519000   0.05001232    -0.28964479     0.036504789   -0.17812637    -0.00027794535
   5520000   0.050666036   -0.2894332      0.035814981   -0.17762407     0.00026226456
   5521000   0.049623574   -0.28964102     0.035922354   -0.17928811     3.8374598e-05
   5522000   0.050393237   -0.28979194     0.035850201   -0.17835676    -0.00021358882
   5523000   0.049910183   -0.28928048     0.035067929   -0.17935211     0.00023582921
   5524000   0.050026596   -0.2896617      0.035940859   -0.17868578     8.7720693e-05
   5525000   0.04994735    -0.28987407     0.035998933   -0.17895894    -0.00022149196
   5526000   0.050154493   -0.28937222     0.035535831   -0.1786095      0.00028518567
   5527000   0.049436257   -0.28942245     0.035545617   -0.17972723    -0.00019083162
   5528000   0.049587718   -0.28976971     0.034756978   -0.18063596     0.00038008205
   5529000   0.049730553   -0.28960606     0.035145966   -0.17986908    -0.00044451423
   5530000   0.049952677   -0.28959617     0.03576047    -0.17891151     0.00036624146
   5531000   0.049493279   -0.28955835     0.035624776   -0.17969844    -0.00030985939
   5532000   0.050266816   -0.28937639     0.035561335   -0.17841969    -0.0001698743 
   5533000   0.049969334   -0.28972921     0.035212744   -0.1795673     -0.0001366948 
   5534000   0.049747005   -0.28997769     0.035324725   -0.18003727    -0.0003283271 
   5535000   0.050044884   -0.28969758     0.035867506   -0.17876759     0.00013465949
   5536000   0.049958979   -0.28954885     0.035707529   -0.17890769    -1.6857823e-06
   5537000   0.050222811   -0.28989522     0.035707743   -0.17885813    -0.00014825595
   5538000   0.04944235    -0.28988601     0.035319709   -0.18040756    -0.00013800544
   5539000   0.049694933   -0.28993509     0.035618852   -0.17977865     0.00038759138
   5540000   0.049676696   -0.28947825     0.035205509   -0.17976251     0.00026191014
   5541000   0.050208929   -0.28950085     0.035830274   -0.17836204     0.00045944604
   5542000   0.050733311   -0.28994548     0.035498921   -0.1783515      0.00019036892
   5543000   0.050369508   -0.28959874     0.035959829   -0.17808953    -0.00012384814
   5544000   0.050105121   -0.28937769     0.03608286    -0.178142       0.00045604415
   5545000   0.049650856   -0.28998412     0.03567038    -0.17984226     0.00070179389
   5546000   0.049861215   -0.2898694      0.034933225   -0.18014918     7.0659779e-05
   5547000   0.049842362   -0.28981217     0.03517706    -0.17987639     0.0003605286 
   5548000   0.049993014   -0.28996495     0.036044872   -0.17893539    -9.8912633e-05
   5549000   0.049377669   -0.28941673     0.035441961   -0.17991304     0.00020451778
   5550000   0.050213778   -0.28984533     0.036251136   -0.17827839     0.00018953239
   5551000   0.050532117   -0.28979778     0.035078149   -0.17892634     0.0006046233 
   5552000   0.050358648   -0.2895787      0.036131035   -0.17791457     9.3650134e-05
   5553000   0.050029113   -0.28971155     0.036112407   -0.17856031    -0.00015428852
   5554000   0.050518737   -0.28941652     0.035907761   -0.17773554     0.00034634769
   5555000   0.050076169   -0.28979627     0.035254464   -0.1794324     -2.7669083e-05
   5556000   0.050193354   -0.28978848     0.035572027   -0.17893128     0.00030055459
   5557000   0.049600889   -0.28928417     0.035603705   -0.17928394     4.941598e-05 
   5558000   0.050244194   -0.28965411     0.035106914   -0.17918577     0.00037184716
   5559000   0.0500265     -0.28984383     0.035266738   -0.17954218     0.00016876163
   5560000   0.050038497   -0.28957787     0.035204216   -0.17932075     0.00039093504
   5561000   0.050068193   -0.28959093     0.035720117   -0.17877337     0.00063609158
   5562000   0.050314011   -0.29005963     0.035703629   -0.17888986     0.0001689894 
   5563000   0.049832439   -0.28965149     0.035361115   -0.17954654     5.8061129e-05
   5564000   0.049592858   -0.28973249     0.035068064   -0.18027994     0.00043612513
   5565000   0.050259562   -0.29011782     0.035992683   -0.17874066    -6.4517158e-05
   5566000   0.049782566   -0.28944791     0.035949605   -0.17882927     0.00021213771
   5567000   0.050008594   -0.28993064     0.035230031   -0.17969256     0.00022731817
   5568000   0.050317906   -0.2895374      0.035896831   -0.17816858    -0.00026095224
   5569000   0.050167959   -0.29006923     0.035770029   -0.17905212    -1.9446372e-05
   5570000   0.050260573   -0.28961017     0.035133667   -0.1790905      9.6653243e-05
   5571000   0.049833464   -0.28991942     0.035868804   -0.17930524     0.00013778468
   5572000   0.049604042   -0.28995967     0.035388752   -0.18016965     0.00020646015
   5573000   0.049968417   -0.28943764     0.035487088   -0.17900276     0.00021677375
   5574000   0.049993616   -0.28959754     0.03542454    -0.17918741     0.00041393204
   5575000   0.049988797   -0.28974185     0.035761392   -0.1790021     -0.000164502  
   5576000   0.050315519   -0.28972482     0.035688798   -0.17856762     0.00012100549
   5577000   0.049924002   -0.28982274     0.03622176    -0.17871981     3.6478808e-05
   5578000   0.050510803   -0.28972614     0.035921587   -0.17804324    -2.3411053e-05
   5579000   0.050532932   -0.28963585     0.035704081   -0.17813727     0.0001086693 
   5580000   0.049992548   -0.28967571     0.035487702   -0.17920403     0.00010146993
   5581000   0.049817285   -0.28975386     0.035910468   -0.17912229     0.00026897693
   5582000   0.050386194   -0.29008992     0.035993461   -0.17852204     0.00022280716
   5583000   0.050088628   -0.28991443     0.035283805   -0.17950253     0.00011526222
   5584000   0.049888142   -0.29013057     0.035715571   -0.17958761     4.6985137e-06
   5585000   0.050071291   -0.29014206     0.035216721   -0.17982325     0.00013698533
   5586000   0.050035091   -0.29006727     0.035475797   -0.17954368     0.00022452974
   5587000   0.050797231   -0.29006993     0.035925439   -0.17795356     0.00014261876
   5588000   0.050258194   -0.29002319     0.036050548   -0.17859021     2.6174106e-05
   5589000   0.050262292   -0.29005729     0.035807146   -0.17886157     0.00015301194
   5590000   0.050551976   -0.29000222     0.035417959   -0.17876119     0.00010372971
   5591000   0.049963861   -0.28980167     0.035119451   -0.17974126     0.00080227128
   5592000   0.049567369   -0.29009516     0.03542737    -0.18032153    -5.1965914e-06
   5593000   0.049538041   -0.28988588     0.035821728   -0.17976189     7.0007622e-05
   5594000   0.050457859   -0.29023656     0.03561225    -0.17894241     0.00022310769
   5595000   0.050466135   -0.29010282     0.034919847   -0.17948866     0.00012763456
   5596000   0.050134333   -0.29008452     0.035742381   -0.17914549    -0.00020029513
   5597000   0.049897663   -0.29001098     0.035739905   -0.17942941     0.0003292788 
   5598000   0.049873758   -0.29013752     0.034921646   -0.18041006     0.00015475202
   5599000   0.050023999   -0.29008738     0.036154947   -0.17890127     7.0788804e-05
   5600000   0.050249664   -0.28970579     0.034849235   -0.17948693     0.00010826604
   5601000   0.05035779    -0.29008376     0.035192386   -0.17935956     0.00021903364
   5602000   0.049941201   -0.29029257     0.035559755   -0.17982584     0.00020488888
   5603000   0.050460252   -0.29011046     0.035708766   -0.17871619    -2.466801e-05 
   5604000   0.04982274    -0.29008586     0.035812017   -0.17954455     8.3663329e-06
   5605000   0.050265196   -0.29017104     0.03600691    -0.1787712     -0.00014899674
   5606000   0.049658289   -0.29027143     0.036352352   -0.17943645     5.5355124e-05
   5607000   0.050008772   -0.29001969     0.036106371   -0.178905      -0.0001201784 
   5608000   0.049505815   -0.29005303     0.035182137   -0.18061696     0.00013981191
   5609000   0.049965592   -0.29066231     0.035467357   -0.1802514     -0.00023789907
   5610000   0.049602841   -0.29002765     0.035435987   -0.1801922      6.0906074e-05
   5611000   0.049867926   -0.29023727     0.035591353   -0.17984885     0.00018805188
   5612000   0.049587033   -0.29000498     0.035134152   -0.18049508     0.00041692541
   5613000   0.050072263   -0.29028811     0.03509969    -0.18008487     0.00012901461
   5614000   0.049469611   -0.29022251     0.035571794   -0.18045109    -6.06686e-05  
   5615000   0.049845596   -0.29052757     0.035842457   -0.17992154    -0.00012206753
   5616000   0.049766334   -0.29022427     0.035899243   -0.17968034     0.00022490227
   5617000   0.049805027   -0.29044639     0.035541676   -0.18020199    -0.00026716722
   5618000   0.049804304   -0.29003343     0.035536256   -0.17979554     0.00026901109
   5619000   0.050435251   -0.28968227     0.03568874    -0.17834553     9.5022853e-06
   5620000   0.050197919   -0.29000611     0.035913604   -0.17880048    -0.00029822605
   5621000   0.050446214   -0.29006598     0.035326343   -0.1790752      0.00079436595
   5622000   0.050050969   -0.29005359     0.034952742   -0.18002924     0.00052312721
   5623000   0.049769595   -0.29033028     0.035658045   -0.18002266     1.7392048e-05
   5624000   0.050325713   -0.29023351     0.034969865   -0.17977994    -0.00017915875
   5625000   0.049429968   -0.29018177     0.035962382   -0.18007922     0.00025777271
   5626000   0.050661512   -0.29075124     0.035438765   -0.17932511    -0.00013371908
   5627000   0.049723518   -0.29033053     0.035721088   -0.18002897     0.00014675481
   5628000   0.050065524   -0.29042636     0.036066726   -0.17926619    -0.00031642354
   5629000   0.050007581   -0.29009117     0.035309345   -0.17977529     0.00027303024
   5630000   0.049857755   -0.29045169     0.036336952   -0.17933293     6.4043656e-05
   5631000   0.050114378   -0.29053219     0.035880531   -0.17948495    -4.7721452e-05
   5632000   0.04986223    -0.29093877     0.035941443   -0.1802088     -0.0003639296 
   5633000   0.050147766   -0.29040511     0.03573895    -0.17944937     0.0001691576 
   5634000   0.049723634   -0.2907066      0.03579597    -0.18032999     0.00052049617
   5635000   0.049997647   -0.29044029     0.036157409   -0.17929124    -2.5364988e-06
   5636000   0.049992274   -0.29021534     0.035220777   -0.18001099     0.00041281543
   5637000   0.04997337    -0.29046087     0.036368786   -0.17913687    -0.00029059364
   5638000   0.049610532   -0.29051441     0.035559682   -0.18054373     0.00017008696
   5639000   0.0506825     -0.29058814     0.035463598   -0.1791057     -9.0135075e-06
   5640000   0.050152447   -0.2905588      0.03620541    -0.17912958     0.00056441666
   5641000   0.050177677   -0.29058544     0.035487007   -0.17983677    -0.00017892031
   5642000   0.050086558   -0.2906428      0.035782701   -0.17973511    -0.00046346704
   5643000   0.049866377   -0.2906979      0.035990935   -0.17991223     0.00013086818
   5644000   0.049570941   -0.29064742     0.036212683   -0.18008312     3.5181392e-06
   5645000   0.050112793   -0.2904017      0.035227019   -0.18001034     0.00038159946
   5646000   0.049506021   -0.29075745     0.035751287   -0.18075192     0.00017469784
   5647000   0.049393564   -0.29043495     0.036255307   -0.18009408     5.1375908e-06
   5648000   0.050617238   -0.2909311      0.035481566   -0.17952858    -3.9607972e-06
   5649000   0.050080929   -0.29093966     0.035330803   -0.18049231    -0.0001343748 
   5650000   0.049939234   -0.29078451     0.035729456   -0.18015103     0.00013952125
   5651000   0.050582941   -0.29105548     0.035502391   -0.17968357     0.0002865433 
   5652000   0.049659973   -0.29041793     0.035472092   -0.18046069    -0.00020367605
   5653000   0.050360758   -0.29079346     0.035554193   -0.17970301    -0.00012648714
   5654000   0.050346702   -0.29084927     0.035998664   -0.17933542     3.4226342e-05
   5655000   0.050129742   -0.29087283     0.035439851   -0.18024322     0.00022137557
   5656000   0.050303885   -0.29062524     0.035934823   -0.17923946     0.00031032062
   5657000   0.049447797   -0.29075344     0.035539915   -0.18104662     0.00030717972
   5658000   0.050376916   -0.29043427     0.03514034    -0.17973343     0.00061089594
   5659000   0.049513853   -0.29082292     0.035709521   -0.18084741    -0.00026415918
   5660000   0.049495873   -0.29083515     0.035790588   -0.18080554    -0.00024966218
   5661000   0.049633535   -0.29123443     0.035040648   -0.18174828     0.00024234881
   5662000   0.049499879   -0.29114571     0.035536486   -0.1813642     -9.3124237e-05
   5663000   0.049887144   -0.29074637     0.035537735   -0.18038274     0.00015307057
   5664000   0.050087565   -0.29098171     0.035796246   -0.18005896    -0.00020435202
   5665000   0.049414939   -0.29080269     0.036166904   -0.18051816    -0.00021653741
   5666000   0.049524171   -0.29101233     0.03592824    -0.18080262     0.00016969505
   5667000   0.049326251   -0.29079203     0.03596702    -0.18084041     0.00016083432
   5668000   0.050567717   -0.29079388     0.035269306   -0.1796779      0.00038181309
   5669000   0.049923194   -0.29044657     0.036160582   -0.17940603    -0.00019096003
   5670000   0.049599085   -0.29081327     0.035461435   -0.18095801    -8.2854456e-05
   5671000   0.049605633   -0.29091781     0.035817866   -0.18069629    -0.00018371794
   5672000   0.049326655   -0.29066254     0.035699747   -0.18097759    -0.00033392518
   5673000   0.050077001   -0.29094944     0.03504831    -0.18079047     0.00022714726
   5674000   0.049831288   -0.29069019     0.035482664   -0.18046541     0.0004832219 
   5675000   0.049295046   -0.29088844     0.035537655   -0.18141298     3.1606036e-05
   5676000   0.049559616   -0.29090576     0.035581789   -0.18098934    -0.00012707576
   5677000   0.049862537   -0.29105089     0.0354481     -0.18081381     0.00015877519
   5678000   0.049929096   -0.29084618     0.035215681   -0.18074169    -0.00021480229
   5679000   0.050103897   -0.291184       0.035749774   -0.18028323     0.00015006219
   5680000   0.050052238   -0.29105364     0.035842979   -0.18013715     0.00015067987
   5681000   0.04979109    -0.29066126     0.035380954   -0.18059849    -0.00010716292
   5682000   0.049443956   -0.29098779     0.035678895   -0.18114775    -0.00014022999
   5683000   0.050087421   -0.2905868      0.034885549   -0.18057497     1.2060451e-05
   5684000   0.049787985   -0.29101799     0.035553337   -0.1807875      6.8100716e-05
   5685000   0.049498538   -0.29073878     0.035006367   -0.18148939     0.00045108553
   5686000   0.050323484   -0.29116615     0.035511289   -0.18017451    -0.00073619228
   5687000   0.050138065   -0.29081779     0.035899629   -0.17971592    -1.7299434e-05
   5688000   0.050177779   -0.29093718     0.035945227   -0.17973014    -1.6861697e-05
   5689000   0.050293976   -0.2907982      0.035769236   -0.17959286     5.999788e-05 
   5690000   0.049746007   -0.29025858     0.035265519   -0.18037887     8.6346329e-05
   5691000   0.049577199   -0.29098762     0.034924013   -0.18170261     0.000228124  
   5692000   0.04998277    -0.29101261     0.035237954   -0.18080533    -0.0001004953 
   5693000   0.049851621   -0.2908399      0.035378326   -0.18068897     8.1117722e-05
   5694000   0.050505615   -0.29074349     0.035258805   -0.17973115     0.00063190229
   5695000   0.049879237   -0.29100469     0.03584217    -0.18034849    -0.00021018289
   5696000   0.049559609   -0.29057838     0.035789071   -0.1804547      0.00036715639
   5697000   0.050167428   -0.29087407     0.035548462   -0.18007932     0.00015348905
   5698000   0.049796668   -0.29080087     0.035568607   -0.18054208     0.00057317728
   5699000   0.049946089   -0.29067058     0.03507694    -0.18067934    -0.00021123564
   5700000   0.049643533   -0.29057503     0.034945237   -0.1811693     -0.00015237575
   5701000   0.049766184   -0.29064282     0.035384561   -0.1806138      0.00065050775
   5702000   0.050130409   -0.29118184     0.0357072     -0.18028388    -0.00013063684
   5703000   0.049926186   -0.290556       0.035831182   -0.17984037     0.00021999207
   5704000   0.050402001   -0.29098989     0.035632871   -0.17975889     0.00020264611
   5705000   0.050290076   -0.29106959     0.036162688   -0.17947665     0.0002153416 
   5706000   0.050161864   -0.29124373     0.035392132   -0.18061366     0.00045861678
   5707000   0.049470749   -0.29098046     0.035781152   -0.18099797    -0.00015545681
   5708000   0.049811081   -0.29089496     0.035241451   -0.18094171     0.00031641946
   5709000   0.05000057    -0.29111893     0.03550208    -0.18062084     3.6341349e-06
   5710000   0.050119926   -0.2910727      0.035592954   -0.1803047      0.00017280371
   5711000   0.049829217   -0.29071746     0.036146832   -0.17983162    -0.0003759918 
   5712000   0.050613831   -0.29078202     0.035917219   -0.17894895    -0.00019057778
   5713000   0.050423405   -0.29073867     0.036182017   -0.17892642    -2.2310832e-05
   5714000   0.049999613   -0.29085862     0.035275369   -0.18058867     0.0003174484 
   5715000   0.050270845   -0.29145332     0.035269662   -0.18078226     6.2527626e-05
   5716000   0.050200357   -0.29130016     0.035134354   -0.18087013     0.00033429178
   5717000   0.049887627   -0.29112567     0.035302144   -0.18099692     0.00014107259
   5718000   0.049528423   -0.29119212     0.035237038   -0.18166724    -0.00016983694
   5719000   0.050125787   -0.29087815     0.035548165   -0.18014616    -6.0539274e-05
   5720000   0.049747556   -0.2908752      0.035639155   -0.18061953    -1.4008911e-05
   5721000   0.050921519   -0.2910853      0.035460493   -0.17924746     0.0002072062 
   5722000   0.050883931   -0.29070042     0.035194562   -0.17918488     0.00048323685
   5723000   0.049470696   -0.29124107     0.036306348   -0.18073346    -0.00037362133
   5724000   0.049977647   -0.29120456     0.035759499   -0.18048343     0.00026656046
   5725000   0.050441475   -0.29135144     0.035392452   -0.18030165     0.00044157743
   5726000   0.049851843   -0.29104512     0.036376595   -0.17989558     1.1541907e-05
   5727000   0.049566545   -0.29122866     0.035494168   -0.18138948    -0.00017459719
   5728000   0.050359922   -0.29067321     0.035451469   -0.17968673     0.00012847348
   5729000   0.050345749   -0.29101429     0.035310815   -0.18018973     0.00072397252
   5730000   0.050449208   -0.29101326     0.035165753   -0.18017858     0.00016412916
   5731000   0.049547913   -0.29143394     0.036157693   -0.18095917     0.00012436915
   5732000   0.049532388   -0.29138473     0.035678597   -0.18141234    -0.00035998989
   5733000   0.050048749   -0.2911476      0.035650819   -0.1804285     -0.00014921063
   5734000   0.050123018   -0.29102496     0.035277574   -0.18056771     0.00019395677
   5735000   0.05017293    -0.29131877     0.035272038   -0.18079219    -4.4701218e-05
   5736000   0.050001044   -0.29132657     0.035174695   -0.18115515     0.00030620128
   5737000   0.04992007    -0.29131881     0.036188961   -0.18025458    -0.00095164338
   5738000   0.0499581     -0.29119577     0.035528631   -0.18073482     0.00085423752
   5739000   0.05004109    -0.29113724     0.035537349   -0.1805431     -0.00038697966
   5740000   0.049973393   -0.29109029     0.035745955   -0.18038908    -7.8319745e-05
   5741000   0.050380265   -0.29144155     0.035792321   -0.18008371    -0.00028723272
   5742000   0.05005077    -0.2911691      0.035929594   -0.1801682     -0.00012501854
   5743000   0.050421633   -0.29129226     0.035818881   -0.17984581    -0.00011190278
   5744000   0.050086398   -0.291097       0.035852244   -0.18012        0.00028731427
   5745000   0.050052449   -0.29112969     0.035252006   -0.18080385     0.00015821381
   5746000   0.050539277   -0.29124177     0.035948891   -0.17948886    -0.00027505214
   5747000   0.050023718   -0.29125381     0.035537114   -0.18068596    -1.7366628e-05
   5748000   0.050226709   -0.29132409     0.036008764   -0.17998012     0.00021704798
   5749000   0.050021687   -0.29085738     0.035049637   -0.18078005     0.00029270979
   5750000   0.049670945   -0.29128359     0.035568076   -0.18121391    -0.00035588058
   5751000   0.049896422   -0.29163085     0.035786466   -0.18100458     4.1145706e-05
   5752000   0.049828581   -0.29157943     0.034863272   -0.18197811     0.00028289028
   5753000   0.050038302   -0.2913782      0.035720587   -0.180605       6.1193274e-05
   5754000   0.049686054   -0.29133399     0.035751236   -0.18105848    -3.5713062e-05
   5755000   0.050621921   -0.29139726     0.03534009    -0.18012919     0.00010778348
   5756000   0.050032522   -0.29129717     0.035401612   -0.18085162     0.00040241804
   5757000   0.049822839   -0.29135945     0.03526478    -0.18136524     0.00020657311
   5758000   0.050398834   -0.29158727     0.035228906   -0.18076499     0.00010122242
   5759000   0.049862076   -0.29128186     0.035402299   -0.18109127     0.00033815695
   5760000   0.050219319   -0.29131623     0.035808998   -0.18018311     0.00013053742
   5761000   0.050139211   -0.29143981     0.035174955   -0.18106089    -9.0831636e-06
   5762000   0.04915043    -0.29148508     0.036213185   -0.181551       4.3738123e-05
   5763000   0.049658252   -0.29129826     0.035825003   -0.18099068    -0.000197146  
   5764000   0.049605391   -0.29109041     0.035382392   -0.18130473     0.00010417353
   5765000   0.050250426   -0.29116853     0.035228627   -0.18056913     0.00033355382
   5766000   0.050497026   -0.29152853     0.035739406   -0.18004847     0.00012002112
   5767000   0.049984248   -0.29105633     0.035248828   -0.18083597    -0.00015176047
   5768000   0.050172044   -0.29120044     0.035593397   -0.18035384     0.00022850748
   5769000   0.050380532   -0.29125695     0.035748147   -0.17994288     0.00010821992
   5770000   0.049742749   -0.29132783     0.035993866   -0.18072465     0.00012677917
   5771000   0.050150903   -0.29142496     0.035616183   -0.18058728     0.00018445307
   5772000   0.050067134   -0.29140736     0.03593144    -0.18038006     8.1520564e-06
   5773000   0.049667108   -0.29120934     0.035083031   -0.18163045     0.0003436977 
   5774000   0.049878193   -0.29168108     0.035801144   -0.18106747     2.2999933e-05
   5775000   0.049712805   -0.29110212     0.035243889   -0.18129383     0.00040099694
   5776000   0.04992089    -0.29126517     0.034932437   -0.18145623     0.00013619564
   5777000   0.050215965   -0.29150153     0.035855454   -0.18032699    -0.00034183239
   5778000   0.04992752    -0.29136252     0.035108372   -0.1813677     -0.00022240068
   5779000   0.05038359    -0.2916185      0.03552807    -0.18051992     0.00026970057
   5780000   0.050198939   -0.29159246     0.035370205   -0.18092871    -2.2457009e-05
   5781000   0.049835648   -0.29159091     0.035440825   -0.18140144    -1.2408114e-05
   5782000   0.049546555   -0.29135283     0.035137667   -0.18190013     0.00039465227
   5783000   0.050271173   -0.29150173     0.035162895   -0.18093694     0.00090649811
   5784000   0.050390443   -0.2918756      0.035139081   -0.18115573     3.0823177e-05
   5785000   0.050234719   -0.29124186     0.035108001   -0.18078664     6.8937328e-05
   5786000   0.049620075   -0.29152939     0.035606548   -0.18149753    -0.000203353  
   5787000   0.050016532   -0.29162315     0.036035411   -0.18056779     0.00032095453
   5788000   0.049846437   -0.29178143     0.035738847   -0.18127775    -1.4751382e-05
   5789000   0.050093133   -0.29159866     0.036373974   -0.18008983    -0.00018794988
   5790000   0.049964328   -0.29164198     0.035964231   -0.18073609    -0.00031461891
   5791000   0.050388924   -0.29142161     0.035841836   -0.18000127    -8.9413709e-05
   5792000   0.049779813   -0.29121664     0.035021561   -0.18153017     0.00019211964
   5793000   0.050677643   -0.29144707     0.035421194   -0.18001431     0.00039403712
   5794000   0.049666981   -0.29156247     0.035565966   -0.18150084     0.00012196462
   5795000   0.049971416   -0.29190136     0.035527131   -0.18142194     0.00012261755
   5796000   0.050347267   -0.29190526     0.035492986   -0.18089625     0.00055761154
   5797000   0.049827587   -0.29176449     0.035523196   -0.18150473     0.00027799102
   5798000   0.049609129   -0.29194057     0.035766715   -0.18176496    -0.00024311386
   5799000   0.050573141   -0.29181368     0.036052804   -0.17990606    -0.00018601758
   5800000   0.05035745    -0.29177343     0.035601281   -0.18064084     0.00034115763
   5801000   0.04988838    -0.29142025     0.035632245   -0.18096026     0.0001851367 
   5802000   0.050350265   -0.29228263     0.035724999   -0.18103711     6.718031e-05 
   5803000   0.049908765   -0.29150377     0.035353038   -0.18129242     0.00076724458
   5804000   0.050276219   -0.29139243     0.035538004   -0.18044496    -0.00022912782
   5805000   0.050043722   -0.29186633     0.0359947     -0.18081089     0.00018810999
   5806000   0.050029374   -0.29213199     0.036326759   -0.18076602    -7.9525158e-05
   5807000   0.049990655   -0.2920588      0.03536578    -0.18171187    -0.00019904945
   5808000   0.049893686   -0.29212872     0.035657451   -0.18163557    -4.0426014e-06
   5809000   0.050221656   -0.29190342     0.035620243   -0.18095555     0.00033315908
   5810000   0.050457021   -0.29189428     0.035899792   -0.18031384     6.2915934e-05
   5811000   0.049535345   -0.29152664     0.035793011   -0.18143541    -0.0002860401 
   5812000   0.050916506   -0.29234023     0.036018145   -0.17995226     0.00029608556
   5813000   0.049410234   -0.29192796     0.035820374   -0.18199701     4.7595393e-07
   5814000   0.04986646    -0.29207672     0.035769395   -0.18151246     0.00013735194
   5815000   0.050091094   -0.29207655     0.034936217   -0.18200854     0.00021865031
   5816000   0.049757517   -0.29145728     0.035184383   -0.18164143    -0.00014462121
   5817000   0.050432037   -0.29186457     0.035078821   -0.18114258     0.00061230583
   5818000   0.049018814   -0.29187841     0.035692121   -0.18266281     0.00048630315
   5819000   0.050123063   -0.29221351     0.035948456   -0.18108531    -0.00021650813
   5820000   0.050668671   -0.29190446     0.035918163   -0.1799882      0.00012381766
   5821000   0.0504242     -0.2917757      0.036316991   -0.17982729    -0.00020995   
   5822000   0.050369243   -0.29183545     0.035614708   -0.18067175     0.00020984628
   5823000   0.049622919   -0.29204189     0.035809345   -0.18180297    -7.5462224e-05
   5824000   0.049683863   -0.29229561     0.035910864   -0.18186376    -0.00024296174
   5825000   0.050432478   -0.29204162     0.035651365   -0.18074642     0.00015683234
   5826000   0.049937794   -0.29185041     0.035583214   -0.18136533     5.3167581e-06
   5827000   0.049931659   -0.29185343     0.035303676   -0.18165709     0.00015231934
   5828000   0.0496728     -0.29155204     0.035467133   -0.18158052    -2.3329328e-05
   5829000   0.049858133   -0.29199925     0.035808922   -0.18140795     0.00015485966
   5830000   0.049629187   -0.29223282     0.03512807    -0.18266577    -0.00025231704
   5831000   0.049735037   -0.29213503     0.035376832   -0.18216045     0.00026327555
   5832000   0.049801525   -0.29179692     0.035848436   -0.18125102    -0.00019536101
   5833000   0.050197466   -0.29191784     0.036064648   -0.18056185     9.5343999e-05
   5834000   0.049727865   -0.29221146     0.035671816   -0.18195266    -0.00019042694
   5835000   0.050273695   -0.29242544     0.03567936    -0.1813404      0.0001419292 
   5836000   0.050055166   -0.29185915     0.035511668   -0.18126958     2.9935039e-05
   5837000   0.050150359   -0.29172215     0.035509012   -0.18099245     2.5743043e-05
   5838000   0.050509103   -0.29149021     0.03485575    -0.1808757      0.00046250897
   5839000   0.049850282   -0.29197137     0.035525453   -0.18167532     0.00031601686
   5840000   0.049848528   -0.29213653     0.034984442   -0.18238412    -0.00010963662
   5841000   0.050102947   -0.29222059     0.035642309   -0.18142871    -0.00022660732
   5842000   0.049546394   -0.29212489     0.035563958   -0.18224613    -1.6500253e-05
   5843000   0.050400627   -0.29210033     0.036092276   -0.18041199     0.00012089996
   5844000   0.050176804   -0.29175074     0.035701821   -0.18078857     0.00029648137
   5845000   0.049650162   -0.29177989     0.035968756   -0.1813407      0.00020704218
   5846000   0.049978992   -0.2919174      0.035771915   -0.18118183     0.00020915849
   5847000   0.049928583   -0.29221158     0.035587067   -0.18173647    -0.0002152232 
   5848000   0.050096925   -0.29215679     0.035248539   -0.18176771     0.00036528436
   5849000   0.049804241   -0.29218104     0.035549074   -0.18193042     0.00024872885
   5850000   0.049692446   -0.29223819     0.035681691   -0.18202264     0.0004790567 
   5851000   0.050185454   -0.29235713     0.034718193   -0.18236561     0.0001139751 
   5852000   0.049512744   -0.29241694     0.034879701   -0.18327292     8.4807087e-05
   5853000   0.049792373   -0.2921933      0.034529437   -0.18298012     0.0005474162 
   5854000   0.04959862    -0.2919463      0.035308973   -0.1822442     -7.23968e-05  
   5855000   0.049728308   -0.29237008     0.035603179   -0.18217925     6.8830372e-05
   5856000   0.049783961   -0.29261057     0.034946889   -0.18299256    -0.00024907903
   5857000   0.049872471   -0.29187108     0.034814375   -0.18225282     0.00026920699
   5858000   0.049852843   -0.29228356     0.035809247   -0.18169987     1.6102702e-05
   5859000   0.050115283   -0.29209801     0.036215042   -0.18071489     0.00019392981
   5860000   0.050117577   -0.29193244     0.035845506   -0.18091542    -0.00021850151
   5861000   0.049755349   -0.29222673     0.035109998   -0.18248852     0.00043034624
   5862000   0.049598481   -0.2921216      0.035949923   -0.18177876     0.00026552146
   5863000   0.04984802    -0.29208004     0.035172818   -0.18214002     6.6860935e-06
   5864000   0.049869548   -0.2920526      0.035606709   -0.18164639     0.00014464955
   5865000   0.049895232   -0.29210554     0.035460741   -0.18180678     1.2079447e-05
   5866000   0.049263124   -0.29180876     0.035416312   -0.18250253     0.00031321576
   5867000   0.049483273   -0.29173424     0.035947152   -0.18156696    -1.8959233e-05
   5868000   0.049676661   -0.29237684     0.035753243   -0.18211342    -3.2686318e-06
   5869000   0.050188958   -0.29212274     0.035962537   -0.18088162     0.00027675242
   5870000   0.0500592     -0.29183827     0.035384646   -0.18136967     3.0324173e-05
   5871000   0.049853204   -0.29182581     0.035154059   -0.18189677     0.0003944271 
   5872000   0.050654681   -0.29205719     0.03565345    -0.18042662     0.00045213881
   5873000   0.050285125   -0.29239734     0.035854837   -0.18111968    -0.00014065265
   5874000   0.050132141   -0.29207017     0.035231894   -0.18164492    -8.1995988e-05
   5875000   0.049823286   -0.29223585     0.035232858   -0.18227289    -0.00014242546
   5876000   0.050207412   -0.2920951      0.035965117   -0.18082373     0.00013719978
   5877000   0.049904419   -0.29220502     0.034786163   -0.18256705     0.00016340932
   5878000   0.049281119   -0.29224081     0.035453175   -0.18287073    -2.2820108e-05
   5879000   0.050045629   -0.29193185     0.035714768   -0.18115349     0.00049061022
   5880000   0.050735644   -0.2921946      0.035951829   -0.18014421    -0.00026551251
   5881000   0.050558755   -0.29226342     0.036233965   -0.18019622     0.00039579848
   5882000   0.050007931   -0.2919715      0.035707875   -0.18125656     0.00013578107
   5883000   0.050154835   -0.29219149     0.035720832   -0.18124326    -0.00014309721
   5884000   0.050340808   -0.29204459     0.035102408   -0.18143584     0.00039062067
   5885000   0.050415624   -0.29191673     0.036061276   -0.18023689    -6.3396432e-05
   5886000   0.050317385   -0.29232684     0.035457007   -0.18139862     6.0635512e-05
   5887000   0.049998672   -0.29201679     0.035279057   -0.18174456     0.00019045318
   5888000   0.0499466     -0.29201883     0.034847577   -0.18225619     0.00071027337
   5889000   0.049607473   -0.29214385     0.03520174    -0.1825357      0.00018100509
   5890000   0.04996753    -0.29222645     0.03580555    -0.18147444    -0.00052403261
   5891000   0.049664213   -0.29194063     0.035586963   -0.18186215    -0.0001662324 
   5892000   0.050177499   -0.2921029      0.035294809   -0.1815467     -0.00010772558
   5893000   0.050179503   -0.29214615     0.035928196   -0.18095356    -1.8952625e-05
   5894000   0.049610835   -0.29175899     0.036431516   -0.18091602     0.00018613974
   5895000   0.05042511    -0.29205797     0.036085496   -0.18033969     0.00017163213
   5896000   0.049727073   -0.2917297      0.03496187    -0.18218203     3.4808605e-05
   5897000   0.049560029   -0.29232374     0.035798898   -0.18218959    -0.00017907202
   5898000   0.049664119   -0.29252355     0.035148993   -0.18288319    -0.00012246683
   5899000   0.049674679   -0.29225609     0.035632958   -0.18211592     0.00033104372
   5900000   0.049826308   -0.29216609     0.035400604   -0.18203085     0.00029089581
   5901000   0.050209129   -0.29237204     0.035376388   -0.18168682    -7.6676153e-05
   5902000   0.049892412   -0.2920415      0.035063453   -0.18214425     4.5479411e-05
   5903000   0.049533569   -0.29223019     0.035403019   -0.18253161     0.00012406596
   5904000   0.049662292   -0.29237823     0.035584076   -0.18230552     0.00015091816
   5905000   0.049973127   -0.29237439     0.035599817   -0.18181972     8.5382679e-05
   5906000   0.049856797   -0.29220915     0.035145518   -0.18228326    -3.8527762e-05
   5907000   0.050472415   -0.29234621     0.035807117   -0.18083536     5.8302244e-05
   5908000   0.049975887   -0.29241582     0.036479657   -0.18097717     6.3223822e-05
   5909000   0.050056257   -0.29223765     0.035794897   -0.18136321     0.00021308607
   5910000   0.049604371   -0.29203387     0.035475203   -0.18215691     7.9120711e-05
   5911000   0.049464662   -0.2917715      0.035020192   -0.1825591      0.00018843758
   5912000   0.050192445   -0.2924993      0.035797034   -0.18141846    -4.9076325e-05
   5913000   0.049655728   -0.29197971     0.036089416   -0.18141151     0.00020978904
   5914000   0.050129717   -0.29180622     0.035412653   -0.18120384     0.0003896609 
   5915000   0.050079604   -0.29233912     0.035280769   -0.18194379     0.00020174197
   5916000   0.049441662   -0.29242817     0.035659556   -0.18261091    -0.00029058799
   5917000   0.049609955   -0.29222419     0.036137365   -0.18167669    -1.3956756e-05
   5918000   0.049883524   -0.29228345     0.036740129   -0.18072286     0.00021258242
   5919000   0.049857914   -0.29245947     0.03556281    -0.18211461     0.00014741096
   5920000   0.050605734   -0.29202752     0.035797016   -0.1803268      2.1835919e-05
   5921000   0.050457642   -0.2922854      0.035206771   -0.18139705     0.00039643473
   5922000   0.050420137   -0.29214025     0.035508273   -0.18100665    -8.8068434e-05
   5923000   0.050299335   -0.29232173     0.03605329    -0.18082431     7.8081883e-05
   5924000   0.050412164   -0.29231137     0.035138094   -0.18155991     0.00031801314
   5925000   0.049579445   -0.29210542     0.035244239   -0.18249681     9.4707242e-05
   5926000   0.049809173   -0.29226625     0.035101163   -0.18245614     0.00065306807
   5927000   0.049603284   -0.29216614     0.035550566   -0.18221545     0.00033660365
   5928000   0.049977257   -0.29222033     0.035215478   -0.18204381    -0.00046865245
   5929000   0.050217345   -0.29247026     0.035648415   -0.18150068    -0.0001402822 
   5930000   0.050044583   -0.29228868     0.036117995   -0.18110865    -0.00020862179
   5931000   0.049618444   -0.29216548     0.035572899   -0.18216972    -0.00018942008
   5932000   0.049837792   -0.29242986     0.035431285   -0.18224671     0.00015433956
   5933000   0.049959124   -0.29234497     0.035076462   -0.18233465    -0.0001683683 
   5934000   0.050219817   -0.29232681     0.035286403   -0.18171554     0.0001316264 
   5935000   0.050200501   -0.29217918     0.035355395   -0.18152789    -0.00021018682
   5936000   0.050642459   -0.2927249      0.035912488   -0.18085362    -3.2558304e-05
   5937000   0.049965314   -0.29236821     0.035761305   -0.18166377     0.0001926914 
   5938000   0.049851295   -0.29244587     0.035635956   -0.1820378      0.00015125889
   5939000   0.04960409    -0.29234356     0.035872242   -0.18206998     0.00038327565
   5940000   0.049939313   -0.29202494     0.035792171   -0.18132863    -0.00021966873
   5941000   0.050250942   -0.29261221     0.035536355   -0.1817043      0.0002293565 
   5942000   0.050291369   -0.29237186     0.035456605   -0.18148306    -2.0581763e-05
   5943000   0.050036214   -0.29250475     0.035321703   -0.18213357     0.00050976287
   5944000   0.049717363   -0.29249669     0.035645609   -0.18227985    -8.2021488e-05
   5945000   0.049691568   -0.29250606     0.035011688   -0.18296183     5.277223e-05 
   5946000   0.049914519   -0.29196435     0.035782999   -0.1813144      0.00015428362
   5947000   0.050004593   -0.29249857     0.035574456   -0.18192206     0.00052179356
   5948000   0.049678236   -0.29252195     0.035837369   -0.18217204     0.00013090008
   5949000   0.049714491   -0.29259304     0.035518314   -0.1825078      0.00022952007
   5950000   0.050365239   -0.29249406     0.035656216   -0.18129486     0.00017568927
   5951000   0.049809739   -0.2923578      0.035821552   -0.18182646     4.6149267e-05
   5952000   0.049644318   -0.29242431     0.034867295   -0.18309535     0.00029117127
   5953000   0.049536623   -0.29267413     0.035193392   -0.1831806      0.00019615993
   5954000   0.049045551   -0.29218438     0.035440893   -0.18317991     0.00043707477
   5955000   0.049808385   -0.29250296     0.03523711    -0.18255809     0.00042274042
   5956000   0.050010397   -0.29260591     0.035003182   -0.18259197     0.00048920259
   5957000   0.049817452   -0.29240874     0.035710209   -0.18197718     0.00013231248
   5958000   0.05047174    -0.29288453     0.035085523   -0.18209628     0.0004371357 
   5959000   0.050140914   -0.29260506     0.035470108   -0.18192843    -6.6075077e-05
   5960000   0.049804228   -0.29253322     0.035617949   -0.18221375     0.00013834204
   5961000   0.049577375   -0.29245737     0.03598397    -0.18211213     0.00023114754
   5962000   0.04974222    -0.29235445     0.035326842   -0.18241909     0.00038528422
   5963000   0.050048345   -0.29310475     0.03574504    -0.18229204    -0.00012811171
   5964000   0.04978387    -0.2925528      0.035599753   -0.18228206     2.9257478e-05
   5965000   0.049644985   -0.2925318      0.035841477   -0.18222765     0.00024587511
   5966000   0.050389298   -0.29227185     0.035100598   -0.18159218     0.00029136408
   5967000   0.049364644   -0.29276311     0.035516687   -0.18320424     3.1122909e-05
   5968000   0.049721346   -0.29317436     0.034986654   -0.1836105      0.00040455902
   5969000   0.049893321   -0.29259059     0.035746137   -0.1820093      0.0001231554 
   5970000   0.049938041   -0.29283215     0.035353084   -0.18257684     7.4276e-05   
   5971000   0.050141206   -0.29247382     0.035504041   -0.18176283     0.00021734005
   5972000   0.049662301   -0.29213539     0.036056715   -0.18159003     6.5762022e-05
   5973000   0.049617876   -0.29247052     0.035971298   -0.18207721     0.00013704809
   5974000   0.049903919   -0.29239314     0.035345889   -0.1821962     -2.3964722e-05
   5975000   0.050370951   -0.2925349      0.035131155   -0.1818522      4.1289007e-06
   5976000   0.049445491   -0.29218015     0.035931679   -0.18208502     0.00022127773
   5977000   0.04983945    -0.29257397     0.035754116   -0.1820655      0.00012551113
   5978000   0.050029223   -0.29293619     0.036015705   -0.18188149    -0.00027071369
   5979000   0.049776763   -0.2927877      0.035241474   -0.1828859      0.00058686902
   5980000   0.049596374   -0.29238206     0.035309834   -0.18268247     9.4475823e-06
   5981000   0.049957198   -0.29255782     0.035546697   -0.18208015     5.7363045e-05
   5982000   0.049529584   -0.29243843     0.035650911   -0.18249794    -0.00013856717
   5983000   0.050367961   -0.29272312     0.035119589   -0.18205646     0.00034182605
   5984000   0.05014572    -0.29279316     0.03573102    -0.18184842     0.00014596293
   5985000   0.050611385   -0.29273408     0.035691488   -0.18113042     1.5216841e-05
   5986000   0.050185905   -0.29281502     0.035688102   -0.18185292    -1.0384731e-05
   5987000   0.050266179   -0.29281127     0.036134067   -0.1812828     -0.00031663479
   5988000   0.049873791   -0.29316068     0.035558668   -0.18279615     0.00035886473
   5989000   0.050217032   -0.2926881      0.035944476   -0.18142294     6.1403046e-05
   5990000   0.049928698   -0.29271533     0.035569464   -0.18225765     0.0001499817 
   5991000   0.050022781   -0.29268594     0.035619937   -0.18203667    -0.00010159909
   5992000   0.050280757   -0.29278777     0.03583199    -0.18153951    -0.00037381949
   5993000   0.049806222   -0.29262494     0.035489592   -0.18243083    -0.00014585413
   5994000   0.050360105   -0.2927899      0.03594044    -0.18131418     3.2673709e-05
   5995000   0.050491592   -0.29228828     0.035404545   -0.18115123     0.00031245231
   5996000   0.050054512   -0.29265316     0.03596334    -0.18161289     0.00066525257
   5997000   0.049956765   -0.29278921     0.035641767   -0.18221713     5.5959917e-05
   5998000   0.050141039   -0.29229376     0.035159946   -0.18192711    -0.00015985655
   5999000   0.04993577    -0.29283027     0.036041172   -0.18189027     0.00016339449
   6000000   0.050392622   -0.29279952     0.035516351   -0.18169911     0.00017614246
   6001000   0.050050638   -0.29321046     0.035920721   -0.18221863    -0.00019791869
   6002000   0.049855175   -0.29253344     0.035673754   -0.18208175     0.00020916161
   6003000   0.049924738   -0.29269056     0.035102021   -0.18270626     0.00061963492
   6004000   0.049647649   -0.29320008     0.035658387   -0.18307503    -4.0386879e-05
   6005000   0.049418596   -0.29275213     0.035414251   -0.18321477    -0.00011622108
   6006000   0.04975251    -0.29302598     0.03488813    -0.1835139      0.00033274464
   6007000   0.049635576   -0.2931998      0.035378923   -0.18337231    -4.5930741e-05
   6008000   0.049527879   -0.29294589     0.035386038   -0.18327283     0.00034302341
   6009000   0.050663185   -0.29300784     0.035014134   -0.18200383     0.00057958747
   6010000   0.050592406   -0.29279545     0.035804263   -0.18110748     0.00023084727
   6011000   0.050780879   -0.29273187     0.035290022   -0.18127544     0.00018604105
   6012000   0.050323318   -0.29295695     0.035927583   -0.18154926    -1.1175259e-05
   6013000   0.050099489   -0.29280608     0.035927112   -0.18173459     0.00021505339
   6014000   0.050171074   -0.29313251     0.035509116   -0.18237163     0.00011618932
   6015000   0.049921366   -0.29260935     0.036317447   -0.18141469    -0.00036372294
   6016000   0.050084692   -0.29285545     0.036028967   -0.1817043     -0.0003642261 
   6017000   0.050301882   -0.29337193     0.036120639   -0.18180333    -0.00016866366
   6018000   0.049919389   -0.29290373     0.036129992   -0.18189949    -0.00011889988
   6019000   0.049930449   -0.29303639     0.03588319    -0.18226235     2.8249236e-05
   6020000   0.049807512   -0.29312256     0.035925917   -0.18249019     6.8689669e-05
   6021000   0.049880728   -0.29313775     0.035588132   -0.18273335     9.7658656e-05
   6022000   0.050637403   -0.29296432     0.036004221   -0.18100889    -0.00013266583
   6023000   0.050457668   -0.29290121     0.036103669   -0.18111592     2.5998432e-06
   6024000   0.049836021   -0.29266529     0.03574323    -0.18217286     0.00011932173
   6025000   0.049902984   -0.29272304     0.03561603    -0.18225737     0.0001137206 
   6026000   0.050176164   -0.29344212     0.035719764   -0.18246296     4.7484761e-06
   6027000   0.050427195   -0.29317773     0.035863824   -0.18167799     0.00030043377
   6028000   0.049928413   -0.29302497     0.03511945    -0.18301774     0.00019962511
   6029000   0.050425757   -0.29277428     0.036044532   -0.18109599     0.00016800906
   6030000   0.050428911   -0.29308512     0.035867936   -0.1815787      0.00039561405
   6031000   0.050003609   -0.29306664     0.036230006   -0.18183606     0.00026073259
   6032000   0.050121767   -0.29282963     0.035097227   -0.1825546      0.00017471317
   6033000   0.049332643   -0.2928829      0.035325559   -0.18356315     8.9611261e-05
   6034000   0.050483916   -0.29347625     0.034895346   -0.18285991     0.00014738145
   6035000   0.050359572   -0.29295307     0.035657655   -0.18176093     0.00067935448
   6036000   0.05015782    -0.29303566     0.035405012   -0.18239878     3.4432409e-05
   6037000   0.04961734    -0.2929799      0.034709689   -0.183849       4.3445603e-06
   6038000   0.049558792   -0.29335303     0.035819776   -0.18319986     5.1848246e-05
   6039000   0.049838996   -0.29323312     0.036569161   -0.18191028     4.7121295e-05
   6040000   0.049634967   -0.29328664     0.035462484   -0.18337651    -3.1423373e-05
   6041000   0.049825491   -0.29333375     0.03485573    -0.1837446      0.00039525502
   6042000   0.049614234   -0.29281061     0.035368272   -0.18302579     0.00034086605
   6043000   0.05046846    -0.29310368     0.035659069   -0.1817468      0.0002440481 
   6044000   0.049535834   -0.29301399     0.035338286   -0.18337675     0.00018997685
   6045000   0.050268868   -0.29303832     0.035553551   -0.18208633    -4.4255042e-06
   6046000   0.049803237   -0.2933069      0.035791894   -0.18281497    -5.7921076e-05
   6047000   0.050101502   -0.29364098     0.034815488   -0.18367809    -7.4892487e-05
   6048000   0.049789805   -0.29343638     0.035588068   -0.18316842    -0.00018539645
   6049000   0.049622458   -0.29347184     0.035528706   -0.18351425     0.00030917133
   6050000   0.050051151   -0.29363843     0.035672926   -0.18289362     0.00020526628
   6051000   0.049447708   -0.29309166     0.036008677   -0.18291621     0.00024419433
   6052000   0.049947196   -0.2930559      0.035494191   -0.18264575     0.00037294373
   6053000   0.049509645   -0.2933494      0.035654751   -0.18343497     0.00010787265
   6054000   0.050260642   -0.29304999     0.035936761   -0.18172713     0.00045367863
   6055000   0.049925963   -0.29297695     0.035523363   -0.18256947    -4.4265295e-06
   6056000   0.049564921   -0.29323755     0.035830695   -0.18306427    -0.00029322701
   6057000   0.049578477   -0.29322953     0.03562948    -0.18323714    -0.00025983097
   6058000   0.04980513    -0.29327193     0.03485048    -0.18371857     0.00054616214
   6059000   0.049415767   -0.29303878     0.035244742   -0.18367517    -4.0510391e-05
   6060000   0.049552164   -0.29325007     0.035358732   -0.18356789    -0.00012935197
   6061000   0.049812444   -0.29327817     0.035161377   -0.18340295     0.00041719998
   6062000   0.049929394   -0.29344499     0.035416873   -0.18313886     0.00035773967
   6063000   0.049662392   -0.29336111     0.035736821   -0.18313551    -0.00033912131
   6064000   0.050378479   -0.29337888     0.035341409   -0.18247463    -9.8659079e-05
   6065000   0.050367563   -0.29363174     0.035852664   -0.18223261    -0.00016991723
   6066000   0.04989821    -0.29294524     0.036275749   -0.18182701    -9.378153e-05 
   6067000   0.049806645   -0.29321771     0.036306823   -0.18220574     0.00020411475
   6068000   0.049848807   -0.29330939     0.03588267    -0.18265833     0.00016742218
   6069000   0.049911273   -0.29315361     0.035589906   -0.18270162     0.00015611707
   6070000   0.049714951   -0.2933174      0.035490868   -0.18325892     0.00015505618
   6071000   0.049502772   -0.29343564     0.036206357   -0.18297991     0.00012015866
   6072000   0.049736911   -0.29355524     0.036024762   -0.18292992     0.00017686657
   6073000   0.050204746   -0.29333723     0.035611565   -0.1824234      0.0001065427 
   6074000   0.050755822   -0.29325858     0.035697673   -0.18143209     0.00049538892
   6075000   0.049742931   -0.29359416     0.036149012   -0.18283556     8.0378691e-06
   6076000   0.049492837   -0.29350469     0.035605652   -0.18366457    -0.00049058978
   6077000   0.050143652   -0.29368099     0.035454245   -0.18301612     3.6969508e-05
   6078000   0.049752278   -0.29385744     0.035813898   -0.18341994     9.7586106e-05
   6079000   0.050058694   -0.29378084     0.035441022   -0.18325662    -1.4724728e-05
   6080000   0.050332529   -0.29312703     0.035171033   -0.18246208     0.00017816081
   6081000   0.049985815   -0.29349027     0.03578752    -0.18272886     0.00030464675
   6082000   0.049732836   -0.2936592      0.035429204   -0.18363556    -5.8396497e-05
   6083000   0.050110762   -0.29350677     0.035814589   -0.18253088     0.00019216892
   6084000   0.050225925   -0.29310992     0.035641716   -0.18213418     0.000259094  
   6085000   0.050278689   -0.29303979     0.036290653   -0.18133597     0.00020174776
   6086000   0.049690725   -0.29343183     0.036064621   -0.18283593     0.00029784409
   6087000   0.049844545   -0.29347786     0.035723057   -0.18299281     0.00027895653
   6088000   0.049510761   -0.29303728     0.036201377   -0.18257455    -1.9536467e-06
   6089000   0.049906221   -0.29321263     0.035641963   -0.18271616     0.00034378318
   6090000   0.050459123   -0.29362885     0.035448954   -0.1824961     -0.00027496465
   6091000   0.0500111     -0.29334633     0.035857482   -0.18247704    -0.00018299376
   6092000   0.050475028   -0.29340817     0.035627574   -0.18207294    -5.9860939e-05
   6093000   0.049503662   -0.29359338     0.035385345   -0.18395733     5.6239664e-05
   6094000   0.050504132   -0.29350382     0.035910811   -0.1818417     -4.4849986e-05
   6095000   0.050306585   -0.29332004     0.035058163   -0.18280687     0.00010322498
   6096000   0.04990764    -0.2932556      0.035262826   -0.18313614     0.0002463727 
   6097000   0.049692074   -0.29373616     0.035444253   -0.1837586      0.0001219005 
   6098000   0.050073832   -0.29316597     0.035214847   -0.18284522     3.5268406e-05
   6099000   0.049497487   -0.2934904      0.036253011   -0.18299595     0.00029184823
   6100000   0.049813621   -0.29384916     0.035414702   -0.18371884    -0.00010819328
   6101000   0.050107469   -0.29341406     0.035174303   -0.1830834      0.00018823711
   6102000   0.049719707   -0.29334825     0.035810462   -0.18296304     0.00013084044
   6103000   0.049729771   -0.2936977      0.035676953   -0.1834309      6.2720123e-05
   6104000   0.049581341   -0.29362301     0.035212151   -0.18404365     6.8378835e-05
   6105000   0.049734189   -0.2936451      0.035457415   -0.18359122     5.2082941e-05
   6106000   0.049629465   -0.29320191     0.035009907   -0.18375261     0.00013028309
   6107000   0.050197656   -0.29360425     0.035827309   -0.18248532     0.00025599094
   6108000   0.050191315   -0.29377597     0.036198941   -0.18229491    -0.00028887761
   6109000   0.049932722   -0.29354622     0.036381552   -0.18227041    -1.5075742e-07
   6110000   0.049788885   -0.29342535     0.035474763   -0.18327208    -0.00023123287
   6111000   0.050121865   -0.29381677     0.035269097   -0.18336972     0.00013511901
   6112000   0.050047968   -0.29310652     0.03547476    -0.18256465     2.280153e-05 
   6113000   0.050208401   -0.29344958     0.035633784   -0.18250805    -3.1892792e-05
   6114000   0.050489065   -0.29382104     0.035896872   -0.18219545     0.00036041725
   6115000   0.050045727   -0.29373785     0.035631833   -0.18304227    -0.00021065242
   6116000   0.050216488   -0.29378784     0.035795199   -0.18267277    -9.4075833e-05
   6117000   0.050444792   -0.29377449     0.035729324   -0.18238286     2.4526557e-05
   6118000   0.049983991   -0.29376656     0.035677442   -0.18311797    -4.5367562e-05
   6119000   0.05023899    -0.29370668     0.036038612   -0.18231444     0.00061378227
   6120000   0.050512657   -0.29338085     0.036417627   -0.18119912     0.00024374796
   6121000   0.049958419   -0.29341816     0.035612611   -0.18287275     0.00067029339
   6122000   0.049355211   -0.29359428     0.035403903   -0.18416234     0.00015430538
   6123000   0.049432564   -0.29359985     0.03582204    -0.18363375     0.00013968173
   6124000   0.050131916   -0.29368494     0.035291113   -0.1832008     -0.00030504064
   6125000   0.05000634    -0.29355324     0.035738482   -0.18281008    -0.0001482751 
   6126000   0.049634605   -0.29341757     0.035588317   -0.18338215    -0.00014181034
   6127000   0.050186545   -0.29347787     0.035342545   -0.18286036     0.00026696375
   6128000   0.049738792   -0.29348455     0.034895985   -0.18398519     0.00013843367
   6129000   0.04989995    -0.29346413     0.034884846   -0.18373419    -0.00018883263
   6130000   0.050144734   -0.29371882     0.035705572   -0.182801      -0.00027482773
   6131000   0.050297411   -0.29370584     0.035440536   -0.18282405     6.2777263e-05
   6132000   0.050044618   -0.29368788     0.035255814   -0.18336998    -9.5970521e-05
   6133000   0.049626944   -0.29379295     0.035542056   -0.18381528    -9.8433036e-05
   6134000   0.049967672   -0.29423333     0.035557579   -0.18372908     0.00018483098
   6135000   0.049793975   -0.29384966     0.034994552   -0.18416897     4.5418682e-05
   6136000   0.050379718   -0.29361876     0.035418497   -0.18263556     2.6061096e-05
   6137000   0.050022857   -0.2936207      0.035965204   -0.18262605     0.00024696694
   6138000   0.050807586   -0.29394749     0.036368655   -0.18137237     0.0006260342 
   6139000   0.049842137   -0.29405723     0.036087227   -0.18321162     0.00016214871
   6140000   0.050452118   -0.29412035     0.035431658   -0.1830154      0.00027309688
   6141000   0.05052286    -0.29359946     0.035585284   -0.18223478     0.00014799737
   6142000   0.049913338   -0.29387113     0.036043326   -0.18296263    -0.00021034774
   6143000   0.049852482   -0.29372427     0.035836937   -0.18311344     0.00015575202
   6144000   0.049997274   -0.2941915      0.035465831   -0.1837346     -0.00018778548
   6145000   0.050031574   -0.29426438     0.035530629   -0.18369123    -1.9536022e-05
   6146000   0.049486503   -0.29351214     0.035188688   -0.18409849     0.00041832553
   6147000   0.050489156   -0.29399902     0.035433832   -0.18283634    -0.00015265789
   6148000   0.049821362   -0.29402085     0.035299624   -0.18399401     6.87494e-05  
   6149000   0.049842868   -0.29397429     0.035444278   -0.18377053     0.00028731055
   6150000   0.04998597    -0.29366107     0.035708224   -0.18297873     8.3586582e-05
   6151000   0.050162989   -0.29371612     0.0354965     -0.18297999     0.00039794643
   6152000   0.050191578   -0.29334536     0.035750997   -0.18231186    -4.0451699e-05
   6153000   0.050044672   -0.29329465     0.035512589   -0.1827199      0.0004337591 
   6154000   0.049544948   -0.29372065     0.035569256   -0.18383876     9.5043371e-05
   6155000   0.050512071   -0.29370726     0.035065333   -0.18287871     0.00089731422
   6156000   0.050069098   -0.29415396     0.035944543   -0.18311062    -0.00016982031
   6157000   0.04992883    -0.2939369      0.035252806   -0.18379568     0.0005351756 
   6158000   0.049839648   -0.29370338     0.035302706   -0.18364603    -1.9929982e-05
   6159000   0.049621021   -0.29404776     0.035811687   -0.18380934    -0.00021803276
   6160000   0.049387961   -0.29389368     0.035686577   -0.18412994     0.00017803673
   6161000   0.050532217   -0.29403741     0.035548386   -0.18269559     0.00028069784
   6162000   0.049877456   -0.29380885     0.03555574    -0.18344175     0.00022139735
   6163000   0.050241781   -0.29371095     0.035609356   -0.18274379     7.8052417e-05
   6164000   0.04961116    -0.29408923     0.035210647   -0.18446665    -7.4649109e-05
   6165000   0.04980405    -0.29379781     0.035183782   -0.18391277     0.00029232621
   6166000   0.050221037   -0.29376222     0.035472519   -0.182963      -0.00018919391
   6167000   0.050645704   -0.29380838     0.035380606   -0.18246412     0.00047008871
   6168000   0.050213038   -0.29382017     0.035245423   -0.18326005     0.00020226438
   6169000   0.05005179    -0.29380869     0.035254779   -0.18348106     1.0124313e-05
   6170000   0.050452964   -0.2939077      0.035674811   -0.18255832     0.00040827182
   6171000   0.050036156   -0.29435136     0.035435609   -0.18386636     7.6762275e-06
   6172000   0.050219782   -0.29414319     0.035717436   -0.18310094    -0.0002795348 
   6173000   0.04982407    -0.2939235      0.035747095   -0.18344512     9.3569206e-05
   6174000   0.050424805   -0.29377394     0.035641111   -0.1825005      0.00014804529
   6175000   0.050618329   -0.29384266     0.035867588   -0.18205248     0.00026058069
   6176000   0.050931521   -0.29419999     0.035830747   -0.18197689    -3.0095129e-05
   6177000   0.050376966   -0.29409757     0.036064386   -0.18247261    -0.00026573745
   6178000   0.049943151   -0.29423975     0.035598809   -0.18373105    -7.365892e-05 
   6179000   0.050002118   -0.29424803     0.035595859   -0.18365383     0.00019895982
   6180000   0.05007394    -0.29408816     0.035868788   -0.18311331    -0.0001097898 
   6181000   0.050012562   -0.29398623     0.036066655   -0.18290557    -5.1413649e-05
   6182000   0.050680509   -0.29377168     0.035853632   -0.18190219     0.00015648245
   6183000   0.050260934   -0.29405333     0.03581802    -0.18284877     6.0418101e-05
   6184000   0.050491502   -0.29412285     0.036007608   -0.18238287     1.5217029e-05
   6185000   0.050095584   -0.29422389     0.035612839   -0.18347253     0.00050878928
   6186000   0.049661272   -0.29417494     0.035869232   -0.18381861     1.0618645e-05
   6187000   0.05032731    -0.29368006     0.036059282   -0.18213468     0.00027518444
   6188000   0.050200083   -0.29367578     0.035537123   -0.1828434      0.00051816881
   6189000   0.049720817   -0.2941785      0.036099863   -0.18350222     0.00023343956
   6190000   0.049574739   -0.29436688     0.035660328   -0.18434925    -8.0628666e-05
   6191000   0.050255291   -0.29417454     0.035486951   -0.18330951     2.6855548e-05
   6192000   0.050229315   -0.29427067     0.035237754   -0.1836938     -0.00023852451
   6193000   0.050362347   -0.29428443     0.036026529   -0.18271925     0.0001529941 
   6194000   0.050621871   -0.29359732     0.035883561   -0.18178585     0.00024261176
   6195000   0.050070742   -0.29419935     0.035832181   -0.1832659      0.0001276224 
   6196000   0.050097759   -0.29410962     0.035843232   -0.18312459    -7.2766486e-05
   6197000   0.050441586   -0.29411486     0.03529807    -0.18315929     0.0001598141 
   6198000   0.050629678   -0.29384702     0.03560044    -0.18230696     7.6754343e-05
   6199000   0.049818557   -0.29434267     0.035641387   -0.18397827    -8.9073763e-05
   6200000   0.049477496   -0.29349332     0.035916791   -0.18336508     8.9518658e-05
   6201000   0.050345319   -0.29414425     0.035612731   -0.18301841     0.00020282906
   6202000   0.049996149   -0.29384193     0.035777303   -0.18307524     0.0003899918 
   6203000   0.050006279   -0.2944606      0.035727917   -0.1837281      0.00053732643
   6204000   0.050373275   -0.29458385     0.035027453   -0.18400136     5.5693924e-05
   6205000   0.049647712   -0.29450302     0.035933288   -0.18410297    -0.00043790746
   6206000   0.050009458   -0.29430478     0.035931991   -0.18336345    -4.3590496e-06
   6207000   0.049979298   -0.29411614     0.035829265   -0.18332276     1.8693158e-06
   6208000   0.049957118   -0.29413601     0.035881126   -0.18332404     6.8080498e-06
   6209000   0.049990743   -0.29433724     0.035953425   -0.18340254     8.7255458e-05
   6210000   0.050027042   -0.29409069     0.035601509   -0.18345346    -0.00022710012
   6211000   0.050076227   -0.29438043     0.035430593   -0.18384035    -0.00020273897
   6212000   0.049940447   -0.2941989      0.03517505    -0.18411801     0.00053142286
   6213000   0.049880338   -0.29414188     0.03584612    -0.18348008    -0.00016181287
   6214000   0.049959827   -0.29418625     0.03482854    -0.1844228     -5.4365663e-05
   6215000   0.050062303   -0.29429298     0.034914951   -0.18428942     0.00045040498
   6216000   0.049843832   -0.29491638     0.035374134   -0.18478132    -5.3587753e-05
   6217000   0.050409167   -0.294464       0.035291947   -0.18356318     0.00047151721
   6218000   0.049996371   -0.29405611     0.035308744   -0.18375765    -3.6312752e-05
   6219000   0.049403312   -0.29429577     0.035748146   -0.18444744     0.00023870595
   6220000   0.049908481   -0.2940136      0.035303702   -0.18385201     0.0005344808 
   6221000   0.050371762   -0.29409419     0.035450795   -0.18309062     2.9697203e-05
   6222000   0.050131363   -0.29469837     0.035843454   -0.18366272     2.7101029e-06
   6223000   0.049988978   -0.29455182     0.035420432   -0.18415276    -6.7647796e-05
   6224000   0.049694304   -0.29423437     0.035768051   -0.18392968     0.00057628544
   6225000   0.049809539   -0.29446776     0.035431708   -0.18432656    -7.6154906e-06
   6226000   0.050003473   -0.29422785     0.035787268   -0.18344022    -0.00023633665
   6227000   0.050051489   -0.29443339     0.035798247   -0.18356275     0.00070682677
   6228000   0.049820892   -0.29481149     0.035950829   -0.18413415     0.00021688723
   6229000   0.049826807   -0.2942404      0.035316535   -0.18418847    -0.00016400736
   6230000   0.049087813   -0.29440995     0.035658949   -0.18512403     0.0004186006 
   6231000   0.050213261   -0.29438099     0.035349165   -0.18371679     0.0001156703 
   6232000   0.05066373    -0.29442483     0.035907703   -0.18252643     0.0001556994 
   6233000   0.049713046   -0.29400204     0.035488044   -0.18394924     0.00040197168
   6234000   0.050014387   -0.29437452     0.034966778   -0.184391       0.00017132777
   6235000   0.04975834    -0.29452516     0.035340035   -0.18455243     0.00053405742
   6236000   0.05008767    -0.29443735     0.035687869   -0.18362283     0.00043710344
   6237000   0.049678212   -0.29459688     0.036075908   -0.18400846    -6.2545634e-05
   6238000   0.050012812   -0.29430776     0.0355717     -0.18372168     0.00030649418
   6239000   0.050109348   -0.29432515     0.035737779   -0.1834282     -0.0001659787 
   6240000   0.050190504   -0.29441413     0.03579002    -0.18334321    -0.00027752736
   6241000   0.050405433   -0.29440039     0.03614434    -0.18265277    -1.9897107e-05
   6242000   0.050193088   -0.29453023     0.03581654    -0.18342891     0.0001254409 
   6243000   0.050038755   -0.29407928     0.03558289    -0.1834431      0.00011431249
   6244000   0.050554886   -0.29471645     0.035165897   -0.18372311     0.00010211788
   6245000   0.049650495   -0.29472101     0.035612408   -0.18463767    -2.0852754e-05
   6246000   0.049754078   -0.29481081     0.035049328   -0.18513517     0.00068238381
   6247000   0.050072454   -0.29449552     0.03580749    -0.1835842     -4.7257303e-05
   6248000   0.050337983   -0.29460491     0.035561238   -0.18354156    -0.00023345425
   6249000   0.049823581   -0.29474475     0.035361873   -0.18465233     9.7218581e-05
   6250000   0.050269396   -0.29447268     0.036230613   -0.18284283     0.00013723873
   6251000   0.050139821   -0.29469299     0.035428551   -0.18405956    -0.00010540943
   6252000   0.04987057    -0.29452799     0.034892507   -0.18483445     5.6851665e-05
   6253000   0.049707845   -0.29480999     0.035352727   -0.18490031     0.00027085008
   6254000   0.049450663   -0.29443201     0.035688191   -0.18457261     0.00043239232
   6255000   0.049928572   -0.2947959      0.035677816   -0.18423006    -0.00017316532
   6256000   0.050049219   -0.29452912     0.035933928   -0.18352621    -0.00031792527
   6257000   0.050087398   -0.29495771     0.035376395   -0.18445506    -0.00017656895
   6258000   0.050079507   -0.29424499     0.035353066   -0.18377751     4.7559005e-05
   6259000   0.050024763   -0.29426091     0.036032414   -0.18319619    -0.00032562146
   6260000   0.049714018   -0.2945908      0.035890611   -0.18413397    -0.00011793596
   6261000   0.049794319   -0.29455759     0.035856141   -0.18401479    -0.00031578256
   6262000   0.050151353   -0.29459356     0.035594231   -0.18377715    -7.0900891e-05
   6263000   0.049985944   -0.29442279     0.035405656   -0.18404305     0.00036990902
   6264000   0.050321841   -0.29465288     0.035377497   -0.18379749     3.6610416e-05
   6265000   0.049770605   -0.29463964     0.035258112   -0.18473044    -0.00016303957
   6266000   0.049416815   -0.29443945     0.035494127   -0.18482488     0.00030340496
   6267000   0.050210425   -0.29477395     0.035218162   -0.18424501    -0.00019490278
   6268000   0.050025948   -0.29462004     0.035842901   -0.18374306     0.00026300973
   6269000   0.050493149   -0.29475733     0.036046253   -0.18297624    -4.4831044e-05
   6270000   0.049639656   -0.29460837     0.035981893   -0.1841718      0.00019901731
   6271000   0.049581156   -0.29487129     0.035238416   -0.18526594     0.00047953264
   6272000   0.050303273   -0.29462672     0.035725093   -0.18345159    -0.0001852341 
   6273000   0.049800409   -0.29502511     0.035784287   -0.18454503    -0.00011268394
   6274000   0.049500352   -0.29474711     0.035829399   -0.18467197     3.2762338e-05
   6275000   0.049727495   -0.29511328     0.035359963   -0.18516689     0.00036701544
   6276000   0.049965767   -0.2948891      0.035047362   -0.18489792     5.2433257e-05
   6277000   0.049649693   -0.29473521     0.035705114   -0.18456037     0.00016686696
   6278000   0.050178166   -0.29523541     0.035732593   -0.18424043     0.00046437067
   6279000   0.049918691   -0.2948898      0.036349484   -0.18366711    -0.00029572086
   6280000   0.050005567   -0.29498148     0.035412786   -0.18456518    -0.0003982355 
   6281000   0.049840826   -0.29533917     0.035245885   -0.18533687    -7.3291984e-05
   6282000   0.050125022   -0.29563652     0.035114257   -0.18533958    -1.931228e-05 
   6283000   0.049729031   -0.29542277     0.035544572   -0.18528946    -0.00024149816
   6284000   0.049746796   -0.29487802     0.035805732   -0.18445691    -0.00015735965
   6285000   0.049511842   -0.29534041     0.036006518   -0.18507092    -0.00018665553
   6286000   0.049988036   -0.29551596     0.035236387   -0.18530235    -1.7236971e-05
   6287000   0.050132962   -0.29500282     0.035219254   -0.18458898     0.00064901053
   6288000   0.050113161   -0.29540241     0.035658007   -0.18457952    -0.00019554211
   6289000   0.049694411   -0.29484974     0.035158713   -0.18515422     0.00013788649
   6290000   0.050035056   -0.29534904     0.035467762   -0.18483354    -4.0498064e-05
   6291000   0.050038038   -0.29471114     0.035921563   -0.18373736     4.8600212e-05
   6292000   0.050440329   -0.29549665     0.035357011   -0.18448403    -7.8141938e-05
   6293000   0.04911399    -0.29516402     0.036326524   -0.18517126    -3.4444591e-05
   6294000   0.04976525    -0.29503815     0.035433741   -0.18496135     6.6396432e-05
   6295000   0.050122295   -0.29511998     0.035532089   -0.1844093      3.3194228e-05
   6296000   0.050331609   -0.29562277     0.036165282   -0.18396494    -9.5728189e-05
   6297000   0.049938148   -0.29517296     0.035249397   -0.18502117     0.00065502288
   6298000   0.049543757   -0.29472851     0.035869968   -0.1845477      5.5045304e-05
   6299000   0.05005144    -0.29542324     0.035835197   -0.18451572    -9.7485752e-05
   6300000   0.04981918    -0.29496642     0.035424229   -0.18481824     0.00035251838
   6301000   0.049598332   -0.29533352     0.036605149   -0.18433568    -0.00055402656
   6302000   0.050292257   -0.29521918     0.036233639   -0.18355202     7.5377022e-05
   6303000   0.050602195   -0.29463843     0.036321783   -0.18241825     9.8226001e-06
   6304000   0.049671207   -0.29524397     0.035805371   -0.18493659     4.7892233e-05
   6305000   0.050239066   -0.2957235      0.035145035   -0.18522472     0.00035038134
   6306000   0.050089571   -0.29561795     0.035860899   -0.18462754    -4.1756706e-06
   6307000   0.05001808    -0.2955454      0.035861476   -0.18466165     0.00035287106
   6308000   0.050626853   -0.29571853     0.035604573   -0.18417857     0.0002168465 
   6309000   0.049913418   -0.295546       0.035861335   -0.18481937    -3.9357871e-05
   6310000   0.049479181   -0.29550682     0.035261581   -0.18603125     0.00015896173
   6311000   0.049855353   -0.29526291     0.035064096   -0.18542061     0.00035847199
   6312000   0.050081835   -0.29530587     0.035477089   -0.18471087     0.00041173124
   6313000   0.050522396   -0.29501021     0.035429743   -0.18380176     1.0479144e-05
   6314000   0.049539528   -0.29502063     0.035432413   -0.18528372     1.0364275e-06
   6315000   0.049832583   -0.29541338     0.035979164   -0.18469016    -0.00032764288
   6316000   0.050038775   -0.29538897     0.035355814   -0.18497984     0.00013629802
   6317000   0.05028983    -0.29551563     0.035759704   -0.18432605    -0.0002708246 
   6318000   0.049834823   -0.29513411     0.035695353   -0.18469134     0.00016743878
   6319000   0.050022707   -0.2951699      0.035322174   -0.18481851     0.00028934249
   6320000   0.049811498   -0.29545426     0.035871514   -0.18487032     7.4788701e-05
   6321000   0.049789737   -0.29553265     0.035664189   -0.18518867     0.00012794306
   6322000   0.049880708   -0.29510018     0.035012724   -0.18527122    -0.00048875641
   6323000   0.050039668   -0.29500648     0.035556404   -0.18439542    -0.00020479194
   6324000   0.050159724   -0.29514473     0.03529891    -0.18461109     0.00026470139
   6325000   0.049779265   -0.29548719     0.035547004   -0.18527611    -8.685594e-05 
   6326000   0.050540919   -0.29563611     0.035553313   -0.18427631     5.0139751e-05
   6327000   0.049819056   -0.29536018     0.035784096   -0.18485232    -0.00012420108
   6328000   0.050706532   -0.29515113     0.035437896   -0.18365834    -3.5161376e-05
   6329000   0.050237      -0.29565938     0.036005659   -0.18430309    -0.00016874797
   6330000   0.050767467   -0.29543992     0.035337692   -0.18395594     0.00025951229
   6331000   0.050452826   -0.29566667     0.034761441   -0.18523088    -0.00010589675
   6332000   0.050057337   -0.29516632     0.035293522   -0.18479164     7.3587657e-05
   6333000   0.049687662   -0.29541459     0.03583808    -0.18504982     0.00035144487
   6334000   0.049856225   -0.295459       0.035404657   -0.18527483     9.6009062e-05
   6335000   0.050044606   -0.29535483     0.035302099   -0.18499066    -0.00039197844
   6336000   0.050162466   -0.29582742     0.036360317   -0.18422826     0.00018828811
   6337000   0.049862922   -0.29523252     0.036018577   -0.18442439    -0.00022962014
   6338000   0.050060412   -0.29560793     0.03566708    -0.18485508    -0.00033394179
   6339000   0.050344631   -0.29519408     0.035478678   -0.18420332     8.4839912e-05
   6340000   0.050113843   -0.29562659     0.035683771   -0.1847769      0.00031405429
   6341000   0.050407486   -0.29534038     0.034958587   -0.18477544     0.00016938403
   6342000   0.049774366   -0.29543672     0.035444511   -0.18533548     9.2478479e-05
   6343000   0.049978944   -0.29528915     0.035338393   -0.18498718     9.4584496e-05
   6344000   0.049977549   -0.29555575     0.035494345   -0.18509992    -0.00021331992
   6345000   0.050307389   -0.29582585     0.035865757   -0.18450388    -0.00022255836
   6346000   0.049888092   -0.29542047     0.035100156   -0.185493       0.00087957154
   6347000   0.049987864   -0.29524293     0.035553021   -0.18471295     0.0005466126 
   6348000   0.04967404    -0.29569173     0.035412429   -0.18577305     6.9601236e-05
   6349000   0.049887088   -0.2954092      0.035381857   -0.18520154    -4.8599317e-05
   6350000   0.049956183   -0.2953148      0.035410392   -0.18497497     0.0001641224 
   6351000   0.049596792   -0.29505205     0.035989691   -0.18467198    -5.9404438e-05
   6352000   0.049913133   -0.29518446     0.035663351   -0.18465624     2.2914107e-05
   6353000   0.050190891   -0.29539472     0.035726284   -0.18438696     0.00032577048
   6354000   0.049645073   -0.29516137     0.035317255   -0.18538131    -0.00013217792
   6355000   0.049707426   -0.29546166     0.035089194   -0.18581613     0.00014681722
   6356000   0.049605402   -0.29566485     0.035278794   -0.18598276     0.00038402239
   6357000   0.050199739   -0.29550485     0.035716663   -0.18449343     0.00079620034
   6358000   0.050022936   -0.29561019     0.035796192   -0.18478444    -0.00055449179
   6359000   0.050850389   -0.29553369     0.035746936   -0.18351609     2.1913092e-05
   6360000   0.050549772   -0.29532983     0.036041593   -0.18346847     0.00026598119
   6361000   0.050160591   -0.29553467     0.036111138   -0.1841875      3.8308895e-05
   6362000   0.04985865    -0.29525133     0.0351424     -0.18532578     0.00023081403
   6363000   0.049347981   -0.29569533     0.036211554   -0.18546658     0.00013676531
   6364000   0.049796928   -0.29522518     0.036178846   -0.18435576    -0.00025051988
   6365000   0.049973852   -0.29532745     0.036386323   -0.18398518    -8.9695782e-05
   6366000   0.049772559   -0.29549787     0.035364236   -0.18547961    -0.00013604475
   6367000   0.049500394   -0.29522123     0.035932376   -0.18504306     0.00026002305
   6368000   0.050214092   -0.29538933     0.035894605   -0.18417845     0.00025861484
   6369000   0.050865579   -0.29544656     0.036101855   -0.18305126    -8.5280504e-05
   6370000   0.049403849   -0.29513132     0.035225086   -0.18580525    -2.7840096e-05
   6371000   0.049806998   -0.29556255     0.035033847   -0.18582303     5.9225008e-05
   6372000   0.049701854   -0.29539774     0.03603674    -0.18481303    -0.0003600371 
   6373000   0.050573364   -0.29547301     0.035807987   -0.18380987     2.6647605e-06
   6374000   0.049873501   -0.2956625      0.036118368   -0.1847387      2.9136624e-05
   6375000   0.050299737   -0.29575074     0.035739481   -0.18456652    -6.8981871e-05
   6376000   0.049464127   -0.29571408     0.035981096   -0.18554159     0.0001767071 
   6377000   0.050038277   -0.29578886     0.035182265   -0.18555402     0.00027961271
   6378000   0.050592909   -0.29525747     0.035439356   -0.18393365     0.00032306558
   6379000   0.050183556   -0.29563314     0.035733631   -0.18462903     0.0002424608 
   6380000   0.049702486   -0.29500291     0.036244383   -0.1842096      0.0002544852 
   6381000   0.04987143    -0.29595688     0.035541311   -0.18561325    -0.00012904255
   6382000   0.050744705   -0.29564411     0.034825913   -0.18470605     0.00030191733
   6383000   0.049948158   -0.29566126     0.035716238   -0.18502762     0.00012442195
   6384000   0.050042754   -0.29517429     0.035228577   -0.18488643    -0.00026112773
   6385000   0.049876251   -0.2955639      0.035885004   -0.18486935     7.0404438e-06
   6386000   0.049200112   -0.29574087     0.035933033   -0.18601243    -0.00019818241
   6387000   0.049848126   -0.29519561     0.035513875   -0.18491437     0.00039318434
   6388000   0.049944524   -0.29554308     0.035217285   -0.18541384    -9.8978231e-05
   6389000   0.049924864   -0.29561802     0.036013703   -0.18472185     6.6317801e-05
   6390000   0.049717606   -0.29589657     0.035683425   -0.18564155    -0.00022612207
   6391000   0.0498983     -0.29560083     0.035255997   -0.18550221    -8.164418e-05 
   6392000   0.049934534   -0.29520459     0.035707355   -0.18460026    -0.0001411034 
   6393000   0.050308055   -0.296          0.035206345   -0.18533644     0.00019580509
   6394000   0.050151546   -0.29588168     0.035570513   -0.18508871    -1.0553198e-05
   6395000   0.050383304   -0.29541208     0.035628422   -0.18421358    -0.00029231957
   6396000   0.049809663   -0.29544069     0.035320226   -0.18541079    -0.00012220013
   6397000   0.049493748   -0.295673       0.035406363   -0.18603081     0.00014230007
   6398000   0.049516535   -0.29577916     0.035857852   -0.18565129     0.0001375583 
   6399000   0.049604814   -0.29545404     0.035767751   -0.18528387     1.7146626e-05
   6400000   0.050019521   -0.29561674     0.035340308   -0.18525199     0.0001786839 
   6401000   0.050245453   -0.29587077     0.035257079   -0.18525037     0.00036550178
   6402000   0.049887942   -0.29530158     0.036144103   -0.18433039     0.00021915833
   6403000   0.050035923   -0.29563187     0.035429213   -0.18515361     0.00016761538
   6404000   0.049857344   -0.29539203     0.035471154   -0.18513969     0.00016987001
   6405000   0.050257043   -0.29599952     0.035274295   -0.18534453     0.00040236676
   6406000   0.050119783   -0.29587256     0.036030384   -0.18466735     0.00014446476
   6407000   0.050289587   -0.29549541     0.035490711   -0.18457519     0.00010562376
   6408000   0.049822383   -0.29620668     0.036194218   -0.18528371     0.0002075856 
   6409000   0.049742181   -0.29565682     0.03591822    -0.18513014    -0.00048851826
   6410000   0.049501653   -0.29558158     0.035443716   -0.18589018     0.00059576374
   6411000   0.049839139   -0.29567603     0.035456826   -0.18546532     0.00016492954
   6412000   0.049567849   -0.29565038     0.035866526   -0.18543688    -0.00027624141
   6413000   0.050281848   -0.29579328     0.035838093   -0.18453728     0.00023382859
   6414000   0.050000763   -0.29565662     0.035843048   -0.18481726    -0.00011417903
   6415000   0.05002732    -0.29553883     0.036110837   -0.18439186     0.00031231742
   6416000   0.050387297   -0.29546863     0.035881467   -0.18401109     0.00039038543
   6417000   0.049820604   -0.29553587     0.035501077   -0.18530871    -6.4390795e-05
   6418000   0.050176721   -0.29552892     0.035869697   -0.184399      -7.2749767e-05
   6419000   0.049978779   -0.29621779     0.035957073   -0.18529738    -6.9159792e-06
   6420000   0.050379307   -0.2957782      0.0358465     -0.18436762     1.963179e-05 
   6421000   0.04980051    -0.29596354     0.035884014   -0.18538358     0.00036388286
   6422000   0.050368614   -0.29569824     0.035836291   -0.1843139     -5.5447379e-05
   6423000   0.050408291   -0.29602022     0.036056941   -0.18435572     0.00016609768
   6424000   0.050486128   -0.29575753     0.035323802   -0.18470943    -1.7830456e-05
   6425000   0.050471515   -0.29587008     0.036539358   -0.18362833     0.00033696836
   6426000   0.050912446   -0.29613207     0.035729869   -0.18403846     0.00023248403
   6427000   0.050198112   -0.29590808     0.035890295   -0.18472548    -0.00029732237
   6428000   0.049963048   -0.29570839     0.035385032   -0.18538362     0.00017764127
   6429000   0.050396798   -0.29615225     0.036036354   -0.18452557     0.00059370915
   6430000   0.049543748   -0.29571281     0.036123001   -0.18527898    -2.997323e-05 
   6431000   0.050120362   -0.29580858     0.035451598   -0.18518129     0.00049839916
   6432000   0.049904488   -0.296677       0.035868121   -0.18595697     0.00048510949
   6433000   0.04931055    -0.29605585     0.035689353   -0.18640544    -4.3521716e-05
   6434000   0.049851498   -0.29629318     0.035960093   -0.18556066     5.4096833e-05
   6435000   0.04947619    -0.29560082     0.035844982   -0.18554635    -0.00016114523
   6436000   0.050310633   -0.29561412     0.036098935   -0.18405411     1.3363832e-06
   6437000   0.050113313   -0.29568003     0.03586338    -0.18465153     0.00054433703
   6438000   0.050307789   -0.2959948      0.036265803   -0.18427219    -0.00014404817
   6439000   0.050138311   -0.29612923     0.035985999   -0.18494061     0.00043245519
   6440000   0.049616984   -0.29586444     0.035898483   -0.18554528    -6.3725622e-05
   6441000   0.050062915   -0.29602122     0.036056357   -0.18487534    -0.00040176375
   6442000   0.049958488   -0.29587583     0.035763922   -0.18517901     0.00013779509
   6443000   0.050000789   -0.29603573     0.035978992   -0.18506039    -0.00013604747
   6444000   0.050283587   -0.2965168      0.03536324    -0.18573305     4.949425e-05 
   6445000   0.049485919   -0.29634952     0.034583056   -0.18754237     0.00026356223
   6446000   0.049680738   -0.29632722     0.035427976   -0.18638295     0.00042317278
   6447000   0.04992351    -0.296273       0.036192325   -0.18520024     0.00016210347
   6448000   0.050439451   -0.29616165     0.035434687   -0.18507267     5.7301298e-05
   6449000   0.050430315   -0.29618054     0.035742391   -0.18479756     0.000517803  
   6450000   0.04991815    -0.29602897     0.035981279   -0.1851753     -0.00013012831
   6451000   0.050181048   -0.29581247     0.035472694   -0.18507306     0.00050179764
   6452000   0.050597663   -0.29601774     0.035234085   -0.18489206     0.00054985576
   6453000   0.049823267   -0.29555157     0.036026941   -0.18479455     0.00019974561
   6454000   0.049924012   -0.29643022     0.035895552   -0.18565348     0.00011163035
   6455000   0.050649934   -0.29618728     0.035870342   -0.18434694     4.640009e-05 
   6456000   0.049932477   -0.29611051     0.035373406   -0.18584322     0.00028856468
   6457000   0.050189763   -0.29635091     0.035083424   -0.1859877     -6.1734607e-05
   6458000   0.050055339   -0.29588892     0.035751488   -0.18505927     0.00042633179
   6459000   0.05044995    -0.2964792      0.03492882    -0.18588034    -0.00020702439
   6460000   0.049774817   -0.29622996     0.035519633   -0.18605292    -0.00022801766
   6461000   0.049953833   -0.29627561     0.035527164   -0.18582253     7.5397843e-05
   6462000   0.050311531   -0.29619243     0.035386452   -0.18534355     0.00034237116
   6463000   0.049846721   -0.29600772     0.035767562   -0.1854749      0.00040633673
   6464000   0.049664762   -0.29629364     0.035402444   -0.18639886    -9.9838398e-05
   6465000   0.050254787   -0.29677398     0.035555751   -0.18584091     0.00056545741
   6466000   0.050449657   -0.29589723     0.035319185   -0.18490844    -1.1475414e-05
   6467000   0.050002711   -0.29612831     0.035480553   -0.18564853     0.00039509234
   6468000   0.050243258   -0.29622314     0.035794557   -0.18506856     0.00045147767
   6469000   0.049852288   -0.29632591     0.035266545   -0.18628575     0.0007193877 
   6470000   0.050434535   -0.29644514     0.035876558   -0.18492166    -0.00038661322
   6471000   0.050486965   -0.29637423     0.035907301   -0.18474137    -8.9530229e-05
   6472000   0.050134934   -0.29632313     0.035902658   -0.18522293     0.00030538303
   6473000   0.049934284   -0.29617184     0.0352901     -0.18598514    -9.3609315e-05
   6474000   0.050336693   -0.29636624     0.035430316   -0.18543576    -0.00011642305
   6475000   0.050481813   -0.29644675     0.036143059   -0.18458586    -0.00051048518
   6476000   0.050175644   -0.29644364     0.035859217   -0.18532581     0.00035351589
   6477000   0.050033186   -0.29634602     0.03602361    -0.18527748    -4.0019148e-05
   6478000   0.05001239    -0.29640007     0.035558493   -0.18582783    -0.00010306971
   6479000   0.049909511   -0.29623017     0.035552061   -0.18581867     0.00032990189
   6480000   0.050480293   -0.29637358     0.03525508    -0.18540295    -0.00021185883
   6481000   0.049906706   -0.29621548     0.035512559   -0.18584769     0.00013331352
   6482000   0.049913058   -0.29643236     0.035261167   -0.18630644     0.0008854394 
   6483000   0.050145544   -0.29609937     0.035473145   -0.18541276    -4.8588097e-05
   6484000   0.049943743   -0.2965411      0.035273148   -0.18635717     0.00056248534
   6485000   0.050037459   -0.29651782     0.035704504   -0.18576197     9.0879585e-05
   6486000   0.049780618   -0.29679393     0.035984934   -0.18614289    -0.00024771995
   6487000   0.050394922   -0.29600724     0.034902933   -0.1855168      0.00027591121
   6488000   0.049798106   -0.29628317     0.035513932   -0.18607689     0.0005187625 
   6489000   0.049722631   -0.29601975     0.035791169   -0.18564944     0.00034064377
   6490000   0.050219122   -0.2964809      0.034865376   -0.1862917      0.0001393527 
   6491000   0.04942763    -0.2963865      0.035548367   -0.18670147     9.1327333e-05
   6492000   0.049598561   -0.29653091     0.035720264   -0.1864176     -0.00023126258
   6493000   0.049626207   -0.29676004     0.035484472   -0.18684106    -4.1906292e-05
   6494000   0.049536023   -0.29647479     0.036138551   -0.186037       3.8779856e-05
   6495000   0.050340272   -0.29640539     0.035939827   -0.18496003    -0.00039232391
   6496000   0.049855099   -0.29628977     0.035299116   -0.18621283    -2.9870633e-05
   6497000   0.049199963   -0.29614724     0.036284659   -0.1860674     -0.00062660922
   6498000   0.049830413   -0.29638467     0.035644128   -0.18599975     0.00031829131
   6499000   0.049508735   -0.2960733      0.034626019   -0.18718897     0.0002332007 
   6500000   0.049637738   -0.29665576     0.035728631   -0.18647533    -0.00010415379
   6501000   0.050048139   -0.29641939     0.035630902   -0.18572113    -1.3221905e-05
   6502000   0.049544938   -0.29642453     0.03582836    -0.18628356     0.00054361236
   6503000   0.049529234   -0.29656757     0.035646747   -0.18663177     9.2846314e-05
   6504000   0.04960257    -0.29634023     0.035537076   -0.1864041      5.5945259e-05
   6505000   0.049515096   -0.29656946     0.035864751   -0.18643686    -8.7196745e-05
   6506000   0.049580281   -0.29621055     0.035872105   -0.18597282    -1.3273899e-06
   6507000   0.050032642   -0.29669135     0.035512117   -0.18613511     0.00028323479
   6508000   0.04994957    -0.29639557     0.035938245   -0.1855378      0.00042565362
   6509000   0.04963625    -0.29647797     0.035470804   -0.1865576     -0.00026304889
   6510000   0.050397029   -0.29618329     0.036017333   -0.18457529     0.00024370334
   6511000   0.050252288   -0.29628323     0.035446137   -0.18546353     0.00028058434
   6512000   0.050023439   -0.29635495     0.035759756   -0.18556488    -2.0796596e-05
   6513000   0.049926556   -0.2964456      0.036118389   -0.1854422     -0.00018805462
   6514000   0.049880286   -0.29646563     0.035345615   -0.18630442    -1.4379334e-05
   6515000   0.049682941   -0.29643934     0.035905243   -0.1860145      0.00024897934
   6516000   0.04986688    -0.29635537     0.035794746   -0.18576513    -0.00022329071
   6517000   0.050269207   -0.29653481     0.035741087   -0.18539478    -0.00021912202
   6518000   0.04959503    -0.29612207     0.0359836     -0.18575072     5.9647333e-05
   6519000   0.050431501   -0.29650049     0.035583392   -0.18527472    -2.50397e-05  
   6520000   0.049969651   -0.29668039     0.035951591   -0.18577916     0.00019136573
   6521000   0.050067141   -0.29632941     0.036010837   -0.18522271     0.00026927984
   6522000   0.050166596   -0.29653446     0.035712507   -0.18557691     0.00019220676
   6523000   0.049535477   -0.2960465      0.034742399   -0.18700568     0.00053638054
   6524000   0.049919424   -0.29680552     0.035769842   -0.18616137     0.00027611662
   6525000   0.050427833   -0.2964959      0.03526043    -0.1855986      3.6859602e-05
   6526000   0.049647757   -0.29656472     0.035568996   -0.1865289      0.000309799  
   6527000   0.050490255   -0.29679173     0.035470092   -0.18559114    -0.0001538335 
   6528000   0.050152037   -0.29672538     0.035344318   -0.18615786     0.00048512226
   6529000   0.049853565   -0.29679806     0.035343995   -0.18667854     0.00024719456
   6530000   0.049869572   -0.29641897     0.035662487   -0.18595695    -4.9265886e-05
   6531000   0.05001342    -0.29648437     0.035933286   -0.1855358      7.3432665e-05
   6532000   0.049647095   -0.29628851     0.035815052   -0.18600762     0.00029943193
   6533000   0.049647542   -0.29637275     0.035737823   -0.18616842     8.239872e-05 
   6534000   0.050222868   -0.29617865     0.035752015   -0.18509719     0.00017268551
   6535000   0.049220311   -0.29617668     0.036599023   -0.18575196    -1.3795151e-05
   6536000   0.050430522   -0.29615747     0.036435036   -0.18408153     0.00041737133
   6537000   0.04983458    -0.29649543     0.035481847   -0.18626654     4.7039512e-05
   6538000   0.05039426    -0.29623938     0.035646154   -0.18500671     0.00026863365
   6539000   0.050349528   -0.29627815     0.035944149   -0.18481459     5.2146657e-05
   6540000   0.050146237   -0.29628589     0.035676546   -0.18539484     0.00026084225
   6541000   0.050085355   -0.29678322     0.035501013   -0.18615902     0.00029263452
   6542000   0.050478819   -0.29679727     0.035282133   -0.18580179    -0.00032528458
   6543000   0.050158452   -0.29688784     0.035850849   -0.18580417     8.6350294e-05
   6544000   0.050112138   -0.29663931     0.035726832   -0.18574912    -0.00017950371
   6545000   0.049749275   -0.2965855      0.035185381   -0.18678103     0.00012301666
   6546000   0.049832586   -0.29659037     0.035304865   -0.18654145     0.00010773748
   6547000   0.049917677   -0.29652607     0.035425159   -0.18622923     0.00011073129
   6548000   0.05015904    -0.29636148     0.036234627   -0.18489314     1.8015758e-05
   6549000   0.050144872   -0.29635812     0.035359742   -0.18578592     9.9087136e-05
   6550000   0.050101129   -0.29662459     0.035893482   -0.18558426     2.6311971e-06
   6551000   0.050227148   -0.29635061     0.035585227   -0.18542952     0.00023190983
   6552000   0.050487308   -0.29653324     0.036019398   -0.18478776     0.00026099044
   6553000   0.049868896   -0.29648449     0.035784503   -0.18590147    -0.0001286498 
   6554000   0.050124335   -0.29668518     0.035630909   -0.18587262     5.7956103e-05
   6555000   0.050012174   -0.29644474     0.036117295   -0.18531403    -2.2938613e-05
   6556000   0.049806597   -0.29629001     0.035617683   -0.18596726    -0.00021905664
   6557000   0.050044764   -0.29647812     0.036006324   -0.18540949    -0.00012776769
   6558000   0.050468051   -0.29651484     0.035361395   -0.18545625     8.2557321e-05
   6559000   0.050021642   -0.29659819     0.036107569   -0.185463      -0.00010111422
   6560000   0.049754403   -0.29630399     0.035922984   -0.18575422    -7.8537534e-05
   6561000   0.05015926    -0.2962865      0.035086513   -0.18596596     0.00033532735
   6562000   0.049598363   -0.29666842     0.035563218   -0.18671246    -0.00018443725
   6563000   0.050278005   -0.29675995     0.035602789   -0.18574502    -0.0002918936 
   6564000   0.049696539   -0.29645018     0.035755631   -0.18615455     0.00016462725
   6565000   0.050381498   -0.29666532     0.035871152   -0.1852268      4.9288758e-05
   6566000   0.049743322   -0.29685827     0.036096675   -0.18615142    -0.0002738614 
   6567000   0.049915072   -0.29645401     0.035617907   -0.18596833     3.3285145e-05
   6568000   0.05000558    -0.29664401     0.03543917    -0.1862013      0.00027401131
   6569000   0.049648526   -0.29679327     0.035667213   -0.18665807     0.00029685109
   6570000   0.050261737   -0.29662044     0.035473239   -0.18575946    -0.00046429928
   6571000   0.049647378   -0.2963938      0.035751921   -0.18617561     0.00057100803
   6572000   0.050496533   -0.29684761     0.035579269   -0.18552843     0.00030108838
   6573000   0.049828156   -0.29629902     0.035971424   -0.18559018     0.00029628626
   6574000   0.05004142    -0.29660873     0.03555044    -0.186001       1.2929732e-05
   6575000   0.049871271   -0.29690301     0.035325054   -0.18677587     0.00021321842
   6576000   0.050053736   -0.29683304     0.035543457   -0.18621382    -0.00033895695
   6577000   0.049915299   -0.29693667     0.035718767   -0.18634979    -3.8501698e-07
   6578000   0.050040572   -0.2966517      0.035973131   -0.18562256     0.00025640183
   6579000   0.049690707   -0.29673599     0.036017137   -0.1861876      1.8434046e-05
   6580000   0.050046253   -0.29653573     0.035703617   -0.18576758    -1.7483451e-06
   6581000   0.050075717   -0.29694478     0.035458523   -0.18637752     0.00026781211
   6582000   0.050000496   -0.29652088     0.035994087   -0.18553088     0.00012108439
   6583000   0.049450942   -0.29630502     0.035478909   -0.18665448     0.00031852293
   6584000   0.049997813   -0.29663484     0.035431474   -0.18621149     0.00037286622
   6585000   0.049902303   -0.29679391     0.035899677   -0.18604561    -0.00014609132
   6586000   0.049812308   -0.29661313     0.035207782   -0.1866917      0.00034704521
   6587000   0.050303189   -0.29657609     0.035429327   -0.18569685     0.00023351997
   6588000   0.050220118   -0.29677008     0.035921635   -0.18552313    -0.00027112609
   6589000   0.049580181   -0.29667347     0.036669477   -0.18563852    -8.9150389e-05
   6590000   0.050192677   -0.29666186     0.035789573   -0.18558812     0.00014576716
   6591000   0.050138582   -0.29666011     0.035624772   -0.18583232     0.00047517529
   6592000   0.049808562   -0.2964529      0.036382846   -0.18536203    -0.00025214326
   6593000   0.049378      -0.29675711     0.036396869   -0.18629802    -0.0004194351 
   6594000   0.050104462   -0.29643467     0.035907078   -0.18537575     0.00041976878
   6595000   0.050431767   -0.2968908      0.035998365   -0.18524966     7.3887578e-05
   6596000   0.050033029   -0.29722862     0.035299383   -0.18688454     0.00018344654
   6597000   0.049587903   -0.29694983     0.035635424   -0.18693735    -0.00045002928
   6598000   0.050564486   -0.29686206     0.035308659   -0.18571156    -0.00010882909
   6599000   0.049564836   -0.29647031     0.035612868   -0.18651498     0.00014042373
   6600000   0.050010693   -0.29674459     0.034748461   -0.18698493     0.0006490924 
   6601000   0.050075064   -0.296984       0.035993297   -0.18588295    -0.0001099973 
   6602000   0.050044644   -0.29660541     0.036234596   -0.18530869     0.0004416546 
   6603000   0.05015012    -0.29677523     0.035903513   -0.18565139     0.00029777219
   6604000   0.049890957   -0.29694271     0.03541818    -0.18669292    -0.00016956792
   6605000   0.050133272   -0.2968979      0.035150351   -0.18655249     7.1685859e-05
   6606000   0.049748807   -0.2977078      0.035870961   -0.18721844     0.00014824711
   6607000   0.050142647   -0.29747395     0.035622206   -0.18664262    -0.00040179154
   6608000   0.050315693   -0.29715504     0.035598912   -0.18608746     9.336765e-05 
   6609000   0.049736845   -0.29686673     0.035571278   -0.186695       0.00013917755
   6610000   0.050030944   -0.29739748     0.036055554   -0.18630035     0.00016066626
   6611000   0.049793054   -0.29727258     0.035754692   -0.18683312    -0.00043909882
   6612000   0.04980129    -0.29703503     0.035346094   -0.18699183    -0.00016599929
   6613000   0.049781941   -0.29684108     0.034862122   -0.18731086     0.00065308399
   6614000   0.049673887   -0.29725167     0.034757791   -0.18798786     0.00016706305
   6615000   0.04941149    -0.29744544     0.035909072   -0.18742391    -1.5363276e-05
   6616000   0.050195269   -0.29732229     0.035641863   -0.18639238    -8.5918071e-05
   6617000   0.050072729   -0.29726965     0.035190307   -0.1869751     -0.00018292795
   6618000   0.050023914   -0.29729727     0.035601861   -0.18666438     7.2299682e-05
   6619000   0.050020053   -0.29709901     0.036099148   -0.18597463     0.00039762619
   6620000   0.049664752   -0.2970824      0.036003368   -0.18658671     0.00014788033
   6621000   0.050020992   -0.29705079     0.035886211   -0.18613793     0.00039915822
   6622000   0.049710345   -0.29698307     0.035894214   -0.18652815    -7.0405587e-06
   6623000   0.049801445   -0.29731566     0.036099917   -0.18651839    -0.00027629178
   6624000   0.050443146   -0.29720214     0.036046143   -0.18549616     0.00028062158
   6625000   0.050671893   -0.29730744     0.03560077    -0.18570373     0.00056621476
   6626000   0.050809266   -0.29717392     0.035518864   -0.18544608     0.00038326709
   6627000   0.050200319   -0.29681029     0.035616445   -0.18589822     0.00018703568
   6628000   0.050606506   -0.29719173     0.036025704   -0.18526116     2.6220624e-07
   6629000   0.049843783   -0.29708603     0.03496654    -0.18735864     0.000241228  
   6630000   0.049896055   -0.29741492     0.035643075   -0.18693259     0.00039379531
   6631000   0.049644505   -0.29721705     0.035423135   -0.18733196     0.00010703188
   6632000   0.049544053   -0.29791818     0.03545085    -0.18815605    -3.3277855e-05
   6633000   0.049689872   -0.29780208     0.035781684   -0.1874904     -1.7002649e-05
   6634000   0.050126443   -0.29771694     0.035544519   -0.18698761     0.00035413551
   6635000   0.049821703   -0.29765595     0.035392732   -0.18753549     0.00041913672
   6636000   0.049403544   -0.29745901     0.035154927   -0.18820355     0.00015547684
   6637000   0.049629428   -0.29739387     0.035447331   -0.1875072      5.1088408e-05
   6638000   0.05004463    -0.29727233     0.036385205   -0.18582502    -0.00032747814
   6639000   0.050586289   -0.29776566     0.036214814   -0.18567631    -8.6668268e-05
   6640000   0.049748754   -0.29790991     0.035896914   -0.18739468    -5.6331004e-06
   6641000   0.049954356   -0.29769238     0.035480552   -0.18728513     0.00044810985
   6642000   0.049997249   -0.29745951     0.03581831    -0.18665016    -3.7051375e-05
   6643000   0.050220415   -0.29761234     0.035329868   -0.18695672     0.00014544666
   6644000   0.050381286   -0.29767524     0.035678054   -0.18643013    -0.0002720419 
   6645000   0.050168693   -0.29748727     0.035188339   -0.18705075    -0.00023706998
   6646000   0.049854111   -0.29748434     0.035956419   -0.18675158    -7.2056671e-05
   6647000   0.049757526   -0.29762686     0.035614726   -0.18738066     0.00048975963
   6648000   0.050411034   -0.29745434     0.035471636   -0.18637104     0.00043408028
   6649000   0.049836527   -0.29740528     0.03600642    -0.18664889    -0.0001444323 
   6650000   0.049882327   -0.29751804     0.036572434   -0.18612695    -0.00044801047
   6651000   0.050197134   -0.29737057     0.03504211    -0.18703762     0.00055888368
   6652000   0.050200675   -0.29702692     0.035431809   -0.18629896    -0.00011176053
   6653000   0.04931384    -0.29721652     0.035771551   -0.18747898    -0.00056984128
   6654000   0.049865952   -0.29724804     0.035502809   -0.18695113     0.00043169194
   6655000   0.049698149   -0.29753682     0.035596739   -0.18739767     0.00010411904
   6656000   0.049402202   -0.29733913     0.035602235   -0.18763837    -0.00027583193
   6657000   0.049852741   -0.29752874     0.035343813   -0.18741064    -3.1178893e-06
   6658000   0.049974024   -0.29796463     0.035475476   -0.18753295     0.0005495583 
   6659000   0.049494398   -0.29738089     0.035863274   -0.18728081    -0.00019133135
   6660000   0.050031953   -0.29776959     0.035209791   -0.18751671     0.00024932466
   6661000   0.049720453   -0.29748094     0.036240815   -0.18666426     0.00019124056
   6662000   0.049532158   -0.29741051     0.035767771   -0.1873493     -9.2005907e-07
   6663000   0.049679593   -0.29755349     0.036156773   -0.18688213     4.8185747e-06
   6664000   0.050355696   -0.29783728     0.036019043   -0.18628956    -0.0002079389 
   6665000   0.049830587   -0.29743027     0.035317709   -0.1873715      0.00026729333
   6666000   0.05028691    -0.29753137     0.035878246   -0.18622762     0.0002104554 
   6667000   0.049658342   -0.29753089     0.035466376   -0.18758181    -5.7226375e-05
   6668000   0.049834919   -0.29750053     0.035785867   -0.18696711     8.7557906e-05
   6669000   0.05042728    -0.29740773     0.035756829   -0.18601486    -0.00014005825
   6670000   0.050140063   -0.29723067     0.03608292    -0.1859425     -0.00040118009
   6671000   0.050220521   -0.29781588     0.035413631   -0.18707633     5.606591e-05 
   6672000   0.049824555   -0.29765582     0.03571212    -0.18721169    -0.00022352164
   6673000   0.050291598   -0.29725245     0.035445531   -0.18637439     0.00022021474
   6674000   0.049782262   -0.29768984     0.035133257   -0.187888       0.00060903091
   6675000   0.049483155   -0.2979495      0.03560125    -0.18812831    -0.00042677783
   6676000   0.050090424   -0.29779669     0.035633315   -0.18703258     0.00034858989
   6677000   0.050248474   -0.29775977     0.035598252   -0.18679367     0.00015837963
   6678000   0.049866837   -0.2974128      0.035845481   -0.18677189     0.00015211867
   6679000   0.049933302   -0.29725566     0.035343087   -0.18701745    -4.8997535e-05
   6680000   0.049435334   -0.29756851     0.035262941   -0.18815735     0.00011123428
   6681000   0.049708744   -0.29803125     0.035962496   -0.18751045    -0.00024553391
   6682000   0.049883012   -0.29785669     0.035533092   -0.18750391    -0.0002421312 
   6683000   0.049931512   -0.29765458     0.035870957   -0.18689119    -0.00035277774
   6684000   0.050335057   -0.29753474     0.035294427   -0.1867426      1.2262324e-05
   6685000   0.049834009   -0.29760688     0.036125597   -0.18673509     0.00016105623
   6686000   0.049979863   -0.29795424     0.035563796   -0.18742549     9.767444e-05 
   6687000   0.05005803    -0.2980595      0.035613431   -0.18736386     4.8222568e-05
   6688000   0.050343721   -0.29766388     0.035997395   -0.18615577    -0.00022918884
   6689000   0.050211859   -0.29805763     0.035826282   -0.18691841     1.543664e-05 
   6690000   0.049568914   -0.29761389     0.035963611   -0.1873017      2.3623374e-05
   6691000   0.050518958   -0.29749736     0.034757269   -0.18696655    -5.2028431e-05
   6692000   0.049964139   -0.29784861     0.035542146   -0.18736509    -0.00013015524
   6693000   0.05010038    -0.29766282     0.036035507   -0.18648159    -0.00020804148
   6694000   0.050140742   -0.29742845     0.03515249    -0.1870697      0.00010482925
   6695000   0.05032392    -0.29778693     0.036389693   -0.18591622     8.1671897e-05
   6696000   0.050327301   -0.2979985      0.035959233   -0.18655319    -0.00012740071
   6697000   0.049502118   -0.29788561     0.035769647   -0.18786758    -2.6234624e-05
   6698000   0.050244496   -0.29813368     0.035926784   -0.18684501    -0.0002363255 
   6699000   0.049683101   -0.29805179     0.035491564   -0.18804038    -5.4382829e-05
   6700000   0.049694133   -0.29747021     0.035608768   -0.18732506     0.00037322358
   6701000   0.049141532   -0.29799925     0.03528933    -0.18900238    -0.00028198005
   6702000   0.050451709   -0.29789902     0.035611491   -0.18661484     0.00016460018
   6703000   0.050459447   -0.2977138      0.035654511   -0.186375       8.8284698e-05
   6704000   0.049623466   -0.29789651     0.035801584   -0.18766453     0.00017963695
   6705000   0.04975369    -0.29773633     0.035641089   -0.18746952     9.3006315e-06
   6706000   0.050062454   -0.29768675     0.035464624   -0.18713329     0.00032688192
   6707000   0.050036421   -0.29781609     0.036383754   -0.18638255    -0.00011286577
   6708000   0.050568512   -0.29779984     0.036472488   -0.18547948    -0.00042787207
   6709000   0.050252819   -0.29797735     0.035708884   -0.1868941      0.00025865148
   6710000   0.050157423   -0.29779955     0.035883506   -0.18668477     0.00025243247
   6711000   0.049890326   -0.29788605     0.035758434   -0.18729695     0.00018214693
   6712000   0.050134121   -0.29769982     0.035887307   -0.18661618     7.2796165e-05
   6713000   0.049766628   -0.29801502     0.035195619   -0.18817428     0.00033072458
   6714000   0.049664888   -0.2978904      0.035063879   -0.18833399     0.00032251675
   6715000   0.049275344   -0.2979921      0.035630322   -0.18845353     6.0374787e-05
   6716000   0.049984377   -0.29800633     0.035108075   -0.18792653     2.9288297e-05
   6717000   0.050061443   -0.29823894     0.03518291    -0.18796871     0.00043889554
   6718000   0.049702332   -0.2977297      0.035666154   -0.18751485    -0.00013009287
   6719000   0.049674367   -0.29772038     0.035084702   -0.18812893    -0.00016489606
   6720000   0.049880575   -0.29825556     0.036237372   -0.18720216    -0.00015730114
   6721000   0.049783862   -0.29824643     0.035683189   -0.18789226     0.00020964177
   6722000   0.049883308   -0.29814806     0.03583395    -0.18749397    -0.00027441129
   6723000   0.049556737   -0.29807122     0.035641495   -0.18809941     0.00012823769
   6724000   0.050151847   -0.29836079     0.035678413   -0.18745946     0.00021748005
   6725000   0.050055167   -0.29779051     0.0357655     -0.1869471     -1.2384324e-05
   6726000   0.05021084    -0.29783522     0.035410936   -0.18711288     0.00037327237
   6727000   0.049928374   -0.29757914     0.035600999   -0.18709041     0.00027177634
   6728000   0.050657984   -0.29788023     0.035914172   -0.18598399     0.0003530869 
   6729000   0.050102466   -0.29812801     0.035916927   -0.18706223     0.00012520288
   6730000   0.050177544   -0.29814261     0.035868717   -0.18701243     7.3539136e-05
   6731000   0.049768041   -0.29801955     0.035812408   -0.18755989     5.5467874e-05
   6732000   0.050150603   -0.29769654     0.035384123   -0.18709136     0.00056184337
   6733000   0.050302325   -0.29826181     0.035769105   -0.18704409     0.00013283661
   6734000   0.050107584   -0.29803113     0.036307152   -0.18656746    -5.4783231e-06
   6735000   0.05044656    -0.29786433     0.035540736   -0.18665864     0.00049618161
   6736000   0.049685196   -0.29854021     0.035350111   -0.18866711    -9.2107882e-05
   6737000   0.049892607   -0.29821404     0.036016777   -0.18736318     0.00034997247
   6738000   0.050220816   -0.29825164     0.034894642   -0.18803063     4.4664499e-05
   6739000   0.049586994   -0.2979905      0.035506547   -0.18810826    -0.00039226918
   6740000   0.05009431    -0.29848069     0.035234717   -0.18810935     1.0598613e-07
   6741000   0.050093155   -0.29848901     0.036503829   -0.18685029     0.00026853619
   6742000   0.050562666   -0.29793982     0.0351017     -0.18699902     0.00023869462
   6743000   0.050067766   -0.29800042     0.035133507   -0.18777011     0.00017929691
   6744000   0.049863276   -0.29795505     0.03546455    -0.18770041     0.00011678465
   6745000   0.050333361   -0.29820009     0.035293085   -0.18741183    -8.495438e-05 
   6746000   0.049907586   -0.29803552     0.03543415    -0.18774482    -0.00014204507
   6747000   0.049659451   -0.29815152     0.035542014   -0.18812514     0.00013098229
   6748000   0.049593018   -0.2983494      0.035770068   -0.1881946      0.00033652514
   6749000   0.049426247   -0.298762       0.035831517   -0.18879589     0.0001398848 
   6750000   0.050071944   -0.29807527     0.034515178   -0.18845702     0.00019245949
   6751000   0.050004784   -0.29805465     0.035812974   -0.18723934     0.00015667751
   6752000   0.050238502   -0.29867765     0.03611731    -0.18720745    -0.00036269821
   6753000   0.049771856   -0.29859555     0.036018509   -0.18792408    -0.00011638364
   6754000   0.050082231   -0.29799195     0.035496534   -0.18737692     0.00024587479
   6755000   0.049812228   -0.29794989     0.035753398   -0.18748297     0.00045647435
   6756000   0.04969574    -0.29861845     0.03540495    -0.1886747      0.00018614589
   6757000   0.049836514   -0.29859791     0.035458893   -0.18838907    -0.00014134885
   6758000   0.049642031   -0.29864555     0.036310062   -0.18787725    -0.00021415843
   6759000   0.049687685   -0.29848855     0.036011017   -0.18795082    -0.00039103168
   6760000   0.049939139   -0.29831078     0.035297449   -0.18810946    -1.3271745e-05
   6761000   0.05017909    -0.29855864     0.035265281   -0.18802958    -0.00015707795
   6762000   0.050166474   -0.29845441     0.03590044    -0.18730912     0.00022926892
   6763000   0.049709139   -0.29840578     0.035895345   -0.18795154    -0.000302198  
   6764000   0.049484982   -0.29843337     0.035831284   -0.18837941    -9.1640747e-05
   6765000   0.049720095   -0.29832951     0.03532815    -0.18842602     0.00034073312
   6766000   0.05060138    -0.2987141      0.035164747   -0.18765218    -0.00011914155
   6767000   0.050767579   -0.29879121     0.036494521   -0.18615023     0.00043807095
   6768000   0.05000745    -0.29804959     0.035518629   -0.18752463     0.00026326333
   6769000   0.049453134   -0.29848994     0.03622257    -0.18809245    -0.00011614281
   6770000   0.049951687   -0.29884913     0.035919885   -0.18800655    -0.00018127068
   6771000   0.049795162   -0.2983876      0.035835918   -0.18786376    -9.7948074e-05
   6772000   0.050194836   -0.29846767     0.035411692   -0.18776859    -0.00011902945
   6773000   0.050127443   -0.29847925     0.035742779   -0.18755016    -2.2893277e-05
   6774000   0.049439145   -0.29835491     0.035554407   -0.18864657     4.9068582e-05
   6775000   0.049935042   -0.2992407      0.035385427   -0.18895754     0.00029067385
   6776000   0.04964059    -0.29887417     0.035320267   -0.18909782    -8.4700118e-05
   6777000   0.049791779   -0.2982791      0.035525017   -0.18807123    -0.00017419585
   6778000   0.050447518   -0.2987875      0.03606214    -0.18705897    -3.4712438e-05
   6779000   0.050717991   -0.29852947     0.035545827   -0.18691156     3.7175192e-05
   6780000   0.049888809   -0.29845752     0.035814864   -0.18781427     0.00017911374
   6781000   0.049943414   -0.2988324      0.035591049   -0.18833106     0.00011088433
   6782000   0.04971593    -0.29848768     0.035266837   -0.18865176     0.00026563161
   6783000   0.049865849   -0.29875207     0.035651658   -0.18830646    -8.8738612e-05
   6784000   0.048908327   -0.29860972     0.035326301   -0.18992566    -0.00018479874
   6785000   0.050090686   -0.29886668     0.035701514   -0.18803399    -2.5118687e-05
   6786000   0.049995627   -0.29826769     0.03578095    -0.18749814     0.0001735397 
   6787000   0.049931638   -0.29897611     0.035727081   -0.1883564      0.00017039717
   6788000   0.049675626   -0.29848347     0.035903678   -0.18807116     0.0001420086 
   6789000   0.050403796   -0.298669       0.035603781   -0.1874644      0.00018526816
   6790000   0.049754464   -0.29872371     0.036405128   -0.18769171     0.00024002977
   6791000   0.050788821   -0.29903229     0.035785676   -0.18706829     0.00040376047
   6792000   0.050323892   -0.29861879     0.035937265   -0.18720056    -0.00045203401
   6793000   0.050497874   -0.29853443     0.035626951   -0.18716556    -5.4743876e-06
   6794000   0.049751162   -0.29905492     0.035576476   -0.18885651    -0.00018370048
   6795000   0.049945493   -0.2986852      0.035233647   -0.18853815     0.00025921468
   6796000   0.050255614   -0.29876074     0.035305708   -0.18807647     0.00033654365
   6797000   0.050006572   -0.29895834     0.035489776   -0.18846355    -5.5505473e-05
   6798000   0.050076608   -0.29867962     0.036226225   -0.18734333    -0.00031077448
   6799000   0.050524356   -0.299015       0.035274006   -0.18795935    -5.0520738e-05
   6800000   0.049937966   -0.29905348     0.035696661   -0.18845471     0.00011799339
   6801000   0.050109285   -0.29870783     0.035978491   -0.18757026     0.00021434263
   6802000   0.050343753   -0.29876031     0.036164309   -0.18708524     0.00058086557
   6803000   0.050173678   -0.29842105     0.035782667   -0.18738272     0.00013900393
   6804000   0.049633686   -0.2987779      0.036324463   -0.18800772    -9.4123276e-05
   6805000   0.049851435   -0.29858195     0.035698966   -0.18811066     5.135699e-05 
   6806000   0.050106062   -0.29885296     0.035185248   -0.18851346     0.00027791095
   6807000   0.050510892   -0.29856583     0.035231294   -0.18757309     0.00018953821
   6808000   0.050237403   -0.29897106     0.035323122   -0.1882967      3.1843742e-05
   6809000   0.050059784   -0.2988088      0.0361408     -0.18758317     6.7057002e-05
   6810000   0.049945998   -0.29888382     0.03587124    -0.18809841    -5.6701218e-05
   6811000   0.049403093   -0.29871756     0.035924042   -0.18869366     2.172073e-05 
   6812000   0.050335911   -0.29870228     0.035643539   -0.18755975     0.00014064247
   6813000   0.05002596    -0.2990992      0.035969807   -0.18809529     0.00010309195
   6814000   0.04985453    -0.29892884     0.03457545    -0.18957642     0.00053995404
   6815000   0.04999344    -0.29874681     0.03575666    -0.18800483    -0.00022457862
   6816000   0.050115864   -0.29899399     0.035510873   -0.18831417     0.00012166897
   6817000   0.049300299   -0.29873793     0.035906354   -0.18888589    -0.00019419134
   6818000   0.049665422   -0.29865618     0.036219405   -0.18794345    -0.00010392509
   6819000   0.050313412   -0.29909372     0.035090586   -0.18853789    -8.6505399e-05
   6820000   0.050256295   -0.2991493      0.035836154   -0.18793357    -9.8748446e-05
   6821000   0.049790226   -0.29910606     0.03550621    -0.18891933    -6.014173e-05 
   6822000   0.050652889   -0.29922086     0.036012199   -0.18723423    -0.00027622567
   6823000   0.050524126   -0.29901821     0.036498051   -0.18673886    -9.043623e-05 
   6824000   0.049826225   -0.29894228     0.036121138   -0.18808663    -0.00022165368
   6825000   0.050350245   -0.29893018     0.035728555   -0.18768113     0.0001641041 
   6826000   0.049812463   -0.29858673     0.035847765   -0.18802509    -0.00012325064
   6827000   0.050514363   -0.29909033     0.0353416     -0.18798207     0.00026726987
   6828000   0.049468046   -0.29922003     0.035231473   -0.18979127    -0.00035909334
   6829000   0.049686983   -0.29906179     0.035541829   -0.18899429     0.00028093677
   6830000   0.049571128   -0.29940579     0.035699306   -0.18935459     0.00017056329
   6831000   0.049400344   -0.29895807     0.035996086   -0.18886625     0.00019607272
   6832000   0.050447614   -0.29936585     0.036238822   -0.18746048     0.00017064212
   6833000   0.050043965   -0.29897509     0.035037364   -0.18887663     9.504315e-05 
   6834000   0.050341072   -0.29942607     0.035479536   -0.1884398     -7.3414298e-05
   6835000   0.050102713   -0.29896683     0.035731867   -0.18808575    -0.0001315666 
   6836000   0.050244588   -0.29899154     0.03584919    -0.18778033    -0.00019623309
   6837000   0.050356151   -0.29918289     0.035178517   -0.18847502     0.00048578323
   6838000   0.050389261   -0.29901005     0.035941373   -0.18748966     0.00010624924
   6839000   0.050154543   -0.29878084     0.035775612   -0.18777827     0.00066316987
   6840000   0.050255048   -0.29889744     0.035831504   -0.18768823     0.00023670156
   6841000   0.050345092   -0.29906185     0.036011895   -0.18753719     0.00025588712
   6842000   0.050303381   -0.29885751     0.035875968   -0.18753134    -0.00058302253
   6843000   0.050035679   -0.29885947     0.035707348   -0.18810344     0.00036448826
   6844000   0.050069544   -0.29920558     0.03537639    -0.18872972    -0.00010057181
   6845000   0.049521547   -0.29903422     0.036101681   -0.18865501     9.7720796e-05
   6846000   0.050155058   -0.29933456     0.035618049   -0.18848878    -0.00012169593
   6847000   0.049338126   -0.29923944     0.036157424   -0.18907961    -0.00068507591
   6848000   0.050256842   -0.29848663     0.036030871   -0.18707536     0.0002796582 
   6849000   0.050233273   -0.29878013     0.035098386   -0.1883367      0.00013869934
   6850000   0.050406768   -0.29922471     0.035453855   -0.18816558     0.00013954767
   6851000   0.049701953   -0.29901608     0.035265493   -0.18920246     0.0004458634 
   6852000   0.049893335   -0.29927712     0.035326197   -0.18911575     0.00055072258
   6853000   0.050124488   -0.29945953     0.035823886   -0.18845376     0.00051243606
   6854000   0.050390065   -0.29875757     0.03572966    -0.18744769     0.00025570395
   6855000   0.050453242   -0.29920676     0.035915853   -0.18761593    -3.6691116e-05
   6856000   0.050017797   -0.29897711     0.036308078   -0.18764717    -0.00038001911
   6857000   0.049603512   -0.29909041     0.035785591   -0.18890435     0.00016497743
   6858000   0.050407792   -0.29895523     0.035522112   -0.1878263     -0.0001074851 
   6859000   0.049600479   -0.29893842     0.036048106   -0.1884944      0.0003953521 
   6860000   0.050230138   -0.29883282     0.035958871   -0.18753361     0.00010080246
   6861000   0.050134186   -0.29855436     0.036322117   -0.18703582    -5.9699326e-05
   6862000   0.050524547   -0.29871029     0.035838918   -0.18708944     0.00043083179
   6863000   0.049843041   -0.29911305     0.036117415   -0.1882359     -0.00019825928
   6864000   0.05006556    -0.29894975     0.036219078   -0.18763718    -0.00012174286
   6865000   0.049703811   -0.29885367     0.035664237   -0.18863852    -2.8027255e-05
   6866000   0.050034158   -0.29961049     0.035473534   -0.18909056    -9.727236e-05 
   6867000   0.049368492   -0.29914365     0.036076045   -0.18901965     0.00031557247
   6868000   0.049857692   -0.2988492      0.035746289   -0.1883212     -0.00025609382
   6869000   0.05023507    -0.2992687      0.035449932   -0.18847102     0.00016010947
   6870000   0.050451174   -0.29895773     0.035070219   -0.18821563     0.00052126712
   6871000   0.050342216   -0.29915934     0.035486193   -0.18816469     0.00057401994
   6872000   0.050248381   -0.2990968      0.035301629   -0.18842746     0.00019301194
   6873000   0.049712301   -0.29895236     0.035585589   -0.18880313     0.00020341426
   6874000   0.050322088   -0.29904044     0.035237938   -0.18832424     0.00060243372
   6875000   0.049584429   -0.29917926     0.036026301   -0.18878112     7.6837139e-05
   6876000   0.049730621   -0.29888624     0.035588403   -0.18870672     9.8377229e-05
   6877000   0.050317796   -0.29897696     0.035563804   -0.18794133     0.00026385886
   6878000   0.05000243    -0.29897916     0.035948457   -0.1880319      0.00022291064
   6879000   0.050212542   -0.29880683     0.036170959   -0.18732192     0.00048346266
   6880000   0.050206414   -0.2993108      0.0351634     -0.18884263    -7.4849098e-05
   6881000   0.049821865   -0.29895695     0.035492775   -0.1887362     -0.00017338935
   6882000   0.049930794   -0.29977043     0.035967059   -0.18891201     0.00029788997
   6883000   0.049498782   -0.29937732     0.035945395   -0.18918854     0.00015510805
   6884000   0.050048636   -0.29926686     0.035360689   -0.18883806    -0.00033711239
   6885000   0.050150198   -0.29946741     0.035469591   -0.18877738     5.0045308e-05
   6886000   0.049766906   -0.29916092     0.035888098   -0.18862728    -0.00016136418
   6887000   0.05018871    -0.29899371     0.036324449   -0.18739105     0.00042772056
   6888000   0.049901331   -0.29905642     0.035616315   -0.18859294     0.00010931988
   6889000   0.049945884   -0.2988501      0.035687447   -0.18824866     0.00034236544
   6890000   0.05001192    -0.29916069     0.036187696   -0.18795995    -0.00019909229
   6891000   0.050048104   -0.29908854     0.035349993   -0.18867123     0.00018727178
   6892000   0.050081695   -0.29875562     0.035359871   -0.18827805    -9.5064231e-05
   6893000   0.050049396   -0.29943038     0.035799701   -0.18856143     0.00020602001
   6894000   0.050304536   -0.29920712     0.035644059   -0.18811112     0.00019532943
   6895000   0.050124299   -0.29891922     0.035315284   -0.18842234     0.0002857267 
   6896000   0.050360444   -0.29895236     0.035943436   -0.18747314     0.00030865571
   6897000   0.050148616   -0.29921953     0.035452274   -0.18854918     0.00032660004
   6898000   0.050280778   -0.29916135     0.036023089   -0.18772196    -0.00018036123
   6899000   0.049932161   -0.29937334     0.035515604   -0.18896433     0.00039860741
   6900000   0.049996423   -0.29937841     0.036072687   -0.18831593    -9.4630434e-05
   6901000   0.049744649   -0.29938938     0.035787931   -0.18898929    -0.00012328564
   6902000   0.050075045   -0.29909692     0.035415196   -0.188574       5.7393426e-05
   6903000   0.049832904   -0.29933184     0.036083193   -0.18850411     9.1157036e-05
   6904000   0.050058689   -0.2991546      0.0361768     -0.18789461     7.8799001e-05
   6905000   0.050116028   -0.29902047     0.035652881   -0.1881984      3.799916e-05 
   6906000   0.051067307   -0.29901538     0.035295377   -0.18712399     0.00012853625
   6907000   0.050201442   -0.29905385     0.035665897   -0.18809065    -0.00025788904
   6908000   0.050258124   -0.29895723     0.035082511   -0.1884924     -7.1370001e-05
   6909000   0.050368913   -0.29946072     0.035810573   -0.18810165    -3.6492875e-05
   6910000   0.049923833   -0.29934926     0.036009215   -0.18845913     0.00028382488
   6911000   0.04964823    -0.29908013     0.03601101    -0.18860158    -6.8348183e-05
   6912000   0.049501781   -0.29920746     0.035132838   -0.18982674    -4.1978255e-05
   6913000   0.049936823   -0.29940714     0.035412578   -0.18909416    -0.00028552361
   6914000   0.050403461   -0.29946447     0.035630785   -0.18823337     5.4152724e-06
   6915000   0.049647682   -0.29945564     0.036153067   -0.18883585     0.00024306248
   6916000   0.050032433   -0.2991371      0.035469886   -0.18862341    -7.5786549e-05
   6917000   0.049719087   -0.29940846     0.035336585   -0.18949806     0.00021504942
   6918000   0.049235785   -0.29961272     0.035984543   -0.18977927     0.00039563581
   6919000   0.049984708   -0.29918773     0.035831022   -0.18838448     0.00044638425
   6920000   0.050252234   -0.29897267     0.035925678   -0.18767351     0.00047569188
   6921000   0.050096207   -0.29931295     0.035964663   -0.18820882    -6.3580475e-05
   6922000   0.050345091   -0.29948542     0.036126333   -0.18784632     0.00010327675
   6923000   0.050221959   -0.29930643     0.035713047   -0.1882653      9.9517109e-05
   6924000   0.049954172   -0.29943662     0.03494385    -0.18956634     0.00032363268
   6925000   0.049508946   -0.29949361     0.03606915    -0.18916584     0.00011186762
   6926000   0.049926814   -0.29932567     0.035521218   -0.18891906    -5.1364155e-05
   6927000   0.050088117   -0.29933857     0.035484771   -0.18872647     0.00021887758
   6928000   0.049819084   -0.29939983     0.035561395   -0.18911463     0.00010487157
   6929000   0.049919879   -0.29956916     0.035635097   -0.18905907     0.00022499286
   6930000   0.049752301   -0.29965075     0.035405362   -0.18962176     0.00019947557
   6931000   0.05047732    -0.29952884     0.035483064   -0.18833469     6.429213e-05 
   6932000   0.049903086   -0.29957005     0.035797468   -0.18892279    -0.00030062958
   6933000   0.049989008   -0.29931294     0.035400833   -0.18893343     0.00011196077
   6934000   0.049662682   -0.29957723     0.036157725   -0.18893029     0.00018597728
   6935000   0.049771979   -0.29931165     0.035603583   -0.18905492     6.8468768e-05
   6936000   0.05052143    -0.29960981     0.035631219   -0.18820133    -9.9407608e-05
   6937000   0.050037784   -0.29940987     0.034896693   -0.18946134     0.00021283992
   6938000   0.049774474   -0.29977849     0.035273187   -0.18984841    -0.00016531492
   6939000   0.049425965   -0.2992126      0.035872159   -0.18920628    -0.00010616761
   6940000   0.049697161   -0.29929743     0.036241519   -0.18851498    -8.2413101e-05
   6941000   0.049882662   -0.29955047     0.035586214   -0.18914509    -4.8817612e-05
   6942000   0.049989648   -0.29978885     0.035467661   -0.18934156     6.8112633e-05
   6943000   0.049628014   -0.29935302     0.03494097    -0.18997483     7.4464009e-05
   6944000   0.049985912   -0.29961909     0.035780833   -0.18886423    -0.00022195653
   6945000   0.050219342   -0.29910433     0.035643389   -0.18813679     0.00025936292
   6946000   0.049879963   -0.29945973     0.035812681   -0.18883194    -0.00018922614
   6947000   0.049691314   -0.29969137     0.035730789   -0.18942842     0.00031366783
   6948000   0.049966607   -0.29932348     0.035517003   -0.1888614      0.00041473458
   6949000   0.050030227   -0.29925779     0.035263365   -0.18895392     0.00015737563
   6950000   0.050162672   -0.29933844     0.03548318    -0.1886161      0.00014106386
   6951000   0.049773617   -0.29936776     0.035863656   -0.18884849     0.00023703724
   6952000   0.05004295    -0.29948883     0.035574153   -0.1888551     -0.00058256631
   6953000   0.049593911   -0.29988729     0.036054      -0.18944722    -6.6850787e-05
   6954000   0.050313224   -0.2995618      0.035963617   -0.18813322     0.00064454246
   6955000   0.049757853   -0.29939215     0.0354074     -0.18935279     4.3024834e-05
   6956000   0.049956298   -0.2996249      0.034581284   -0.190114      -0.00013500224
   6957000   0.049687644   -0.29935295     0.034926498   -0.18989979     0.00022522458
   6958000   0.049604229   -0.2995961      0.036021925   -0.18917263    -0.00010357129
   6959000   0.050175704   -0.29975022     0.035742957   -0.18874857     0.00010570355
   6960000   0.050669997   -0.29967652     0.035563937   -0.1881125      0.00057483799
   6961000   0.050253881   -0.29941958     0.035761341   -0.18828228    -9.4828847e-05
   6962000   0.050357759   -0.29927678     0.035331535   -0.18841348     0.00027802366
   6963000   0.049630294   -0.29918199     0.03574421    -0.18899714     0.00040231098
   6964000   0.050322471   -0.29935057     0.035654502   -0.18821723     8.9264332e-05
   6965000   0.050026418   -0.29932225     0.035846868   -0.18844059    -0.00029727572
   6966000   0.049683619   -0.29954304     0.035347659   -0.18967476     0.00011222236
   6967000   0.049782593   -0.29982369     0.035679556   -0.18947506    -1.4274893e-05
   6968000   0.050005987   -0.29914091     0.035855929   -0.18828084     4.4083219e-05
   6969000   0.050107729   -0.2993982      0.035727411   -0.18851404     0.00039388532
   6970000   0.050534506   -0.29927581     0.035624011   -0.18785493     0.00012486081
   6971000   0.050234903   -0.29930515     0.035026706   -0.18893095     0.00050004337
   6972000   0.049372909   -0.29944612     0.035876062   -0.18951547     4.8058626e-05
   6973000   0.05034931    -0.29977797     0.035340407   -0.18891847    -4.1111153e-05
   6974000   0.050451422   -0.29955061     0.035306839   -0.18857152     0.00069354174
   6975000   0.050042579   -0.29927817     0.035199826   -0.18901932    -1.9933991e-05
   6976000   0.049950088   -0.29991022     0.035372452   -0.18961747    -0.00029413858
   6977000   0.049620589   -0.29928796     0.035625576   -0.1892363      0.00036937231
   6978000   0.049770304   -0.29907862     0.035914419   -0.18851356     0.00064063346
   6979000   0.050193128   -0.29946185     0.035493608   -0.1886834     -1.813191e-05 
   6980000   0.04996778    -0.29943477     0.035490278   -0.18899766    -0.00010582688
   6981000   0.049965278   -0.29897137     0.035670985   -0.18835731     0.00063482527
   6982000   0.050006352   -0.2993537      0.035537317   -0.1888117     -0.00028314279
   6983000   0.05012629    -0.29968175     0.035905584   -0.18859158    -0.00023076366
   6984000   0.049863428   -0.29990464     0.035466804   -0.18964752     0.00048160012
   6985000   0.049774452   -0.29972028     0.035689316   -0.18937411    -3.339164e-05 
   6986000   0.050019181   -0.29938484     0.035523744   -0.18883716     0.00013817387
   6987000   0.050017569   -0.29932531     0.035816025   -0.18848777     0.00022762308
   6988000   0.050087373   -0.2997615      0.036294723   -0.18834057     7.3964475e-05
   6989000   0.050395502   -0.299528       0.035701178   -0.18823845     0.00048326549
   6990000   0.049499112   -0.29992185     0.035424711   -0.19025326     0.00030884799
   6991000   0.049448026   -0.29959845     0.035117123   -0.19031407     0.00031894627
   6992000   0.049741638   -0.29985701     0.035558654   -0.18969072     0.00037135309
   6993000   0.049956362   -0.29945778     0.035160602   -0.18936747     0.00035857994
   6994000   0.049976391   -0.29991018     0.035582701   -0.18936772     8.4491082e-05
   6995000   0.05017334    -0.29980878     0.035821653   -0.18873197     0.0003800703 
   6996000   0.049979529   -0.29936633     0.035062355   -0.18933952    -5.3667682e-05
   6997000   0.049863676   -0.2994107      0.036166859   -0.18845315     8.7102882e-05
   6998000   0.049694184   -0.29955294     0.03563331    -0.18938316     0.00037696348
   6999000   0.049830327   -0.29925858     0.035798597   -0.18871931     0.00017578143
   7000000   0.049758262   -0.2995576      0.035581609   -0.18934342     0.00011021139
   7001000   0.050048427   -0.29936136     0.035925985   -0.18836758     0.00044132012
   7002000   0.050274588   -0.29948941     0.035596313   -0.18848608    -0.00021175258
   7003000   0.049764578   -0.29937486     0.035879943   -0.18885286     0.00015310794
   7004000   0.05023893    -0.29953873     0.035862369   -0.18832283     3.4718802e-05
   7005000   0.049870289   -0.29936624     0.036170345   -0.18839529     8.8540404e-05
   7006000   0.049971965   -0.29937098     0.036063299   -0.18835457    -5.3693671e-05
   7007000   0.050143042   -0.2991916      0.036121341   -0.18786055     0.00013962856
   7008000   0.049946648   -0.29985477     0.036051977   -0.18888765     0.00031910814
   7009000   0.050165995   -0.29952732     0.035390837   -0.18889235     0.0001579597 
   7010000   0.049623465   -0.29979578     0.035957271   -0.18940811    -0.0001523011 
   7011000   0.050218935   -0.29957326     0.036067143   -0.18818257    -0.00020048857
   7012000   0.050187358   -0.29956061     0.03461879    -0.18966564    -0.00032175425
   7013000   0.04992219    -0.29984202     0.035449069   -0.1895145     -0.00020622093
   7014000   0.049851955   -0.29976699     0.035817683   -0.18917619    -0.00012377573
   7015000   0.049872213   -0.29950964     0.035794821   -0.18891132     3.0728453e-05
   7016000   0.05081422    -0.29990677     0.035832011   -0.18785835    -1.3802676e-05
   7017000   0.0501114     -0.29933662     0.035795755   -0.18837861     4.4382096e-05
   7018000   0.04971174    -0.2995219      0.035734203   -0.1892249      0.00016680713
   7019000   0.049248829   -0.29932396     0.035649792   -0.18980569     0.00016903458
   7020000   0.049578499   -0.29993099     0.035970096   -0.18959794     0.00018851525
   7021000   0.050012482   -0.300037       0.035778921   -0.1892442     -0.00040313637
   7022000   0.050044476   -0.29996564     0.035508084   -0.18939568     0.00010871869
   7023000   0.049833748   -0.2997895      0.035380454   -0.18966324     0.00048214673
   7024000   0.050244391   -0.29979004     0.035953415   -0.1884749      0.00063157542
   7025000   0.050417382   -0.29968836     0.036478845   -0.18758832    -0.00010279593
   7026000   0.049818388   -0.29994621     0.036005712   -0.18921774    -0.00035750967
   7027000   0.049312819   -0.29980881     0.035485399   -0.19035896    -0.00034960242
   7028000   0.049242355   -0.2995293      0.035923655   -0.18974688     5.5136369e-05
   7029000   0.049431634   -0.29943422     0.035971114   -0.18932044     0.00023965875
   7030000   0.050000594   -0.30010048     0.036331599   -0.18877283     0.000221099  
   7031000   0.050387014   -0.2994032      0.036202246   -0.18762531    -4.1346574e-05
   7032000   0.05071961    -0.29973619     0.035544067   -0.18811762    -4.5903166e-05
   7033000   0.050468334   -0.29962046     0.035943342   -0.1879795      0.00020416673
   7034000   0.049256615   -0.29950978     0.035379829   -0.1902498      0.00028979888
   7035000   0.049977885   -0.29975603     0.03516269    -0.18963135    -0.00036349449
   7036000   0.049999242   -0.29971742     0.035405886   -0.18931751     7.5556118e-05
   7037000   0.049424824   -0.29966665     0.035881081   -0.18965312     0.00028301582
   7038000   0.049928192   -0.29991498     0.035606575   -0.18942095    -0.00016799272
   7039000   0.049881239   -0.29966656     0.034930809   -0.18991872     0.0001506445 
   7040000   0.049895207   -0.29989966     0.036133661   -0.18892802     7.1060503e-05
   7041000   0.049916577   -0.29981066     0.035244132   -0.1896965     -5.7874213e-05
   7042000   0.050035489   -0.30022434     0.035631672   -0.18954428    -0.00017765423
   7043000   0.049965409   -0.29986875     0.035004814   -0.18992066     0.00029751983
   7044000   0.050061084   -0.2999704      0.035557355   -0.18932627     0.00022836924
   7045000   0.050274733   -0.29988386     0.036041969   -0.18843465    -0.00018930489
   7046000   0.050027323   -0.29991158     0.034945909   -0.18992953     7.5253222e-05
   7047000   0.04982719    -0.29933101     0.035514659   -0.18908039     0.00063339601
   7048000   0.04985024    -0.29958864     0.035770193   -0.18904791     0.0001134884 
   7049000   0.050540903   -0.29960634     0.035575449   -0.18822443    -1.6351301e-05
   7050000   0.050122281   -0.2999372      0.03558446    -0.18917417     0.00019029738
   7051000   0.050180177   -0.29970392     0.035329947   -0.18910856     0.0002001886 
   7052000   0.050398436   -0.30004323     0.035793533   -0.18865692    -0.00038217897
   7053000   0.050424956   -0.29961253     0.035838232   -0.18814174    -1.3458101e-06
   7054000   0.049900754   -0.29996431     0.035780439   -0.18933757    -8.5612171e-05
   7055000   0.050135328   -0.29990499     0.035349887   -0.18935696    -0.00018067283
   7056000   0.050114008   -0.29989926     0.035856856   -0.18887624    -0.00012552797
   7057000   0.050809863   -0.30002423     0.035925355   -0.187889       0.00021652911
   7058000   0.050021918   -0.29990815     0.036259636   -0.18862048    -0.00062270459
   7059000   0.050556568   -0.30021457     0.036031457   -0.18835315     0.00024737791
   7060000   0.049994592   -0.29998345     0.035260992   -0.1897354      9.2152975e-05
   7061000   0.049864374   -0.29966012     0.035586238   -0.18928215     1.4203453e-05
   7062000   0.050331337   -0.29963993     0.036178531   -0.18796926     0.0001688848 
   7063000   0.050326689   -0.29926593     0.036058898   -0.18772187    -8.5591467e-05
   7064000   0.050455913   -0.29965211     0.035536903   -0.18843622     0.00031526345
   7065000   0.050169728   -0.29968147     0.035708516   -0.18872322    -0.00034934679
   7066000   0.050138609   -0.29939212     0.035464971   -0.18872408     0.00039711846
   7067000   0.050006587   -0.29935993     0.036212934   -0.18814196    -0.00017329868
   7068000   0.0499816     -0.29959426     0.036007777   -0.18861892     8.4303012e-05
   7069000   0.049551461   -0.30008995     0.035417974   -0.19034958    -0.00026625667
   7070000   0.049957079   -0.29999919     0.035249013   -0.18981939     0.00019907832
   7071000   0.049480332   -0.29968707     0.035265795   -0.19020557     5.1355314e-05
   7072000   0.049750957   -0.29994394     0.035448319   -0.189874      -0.0001897308 
   7073000   0.05039488    -0.29958473     0.035560724   -0.18843656     0.00012229742
   7074000   0.050071736   -0.29992752     0.035624351   -0.18920042    -0.00013930712
   7075000   0.049311768   -0.29997205     0.035795932   -0.19021324    -0.00030018137
   7076000   0.049242861   -0.29991601     0.03602187    -0.19003462    -0.00011865064
   7077000   0.04951595    -0.30019117     0.035537284   -0.19038475    -0.00010336539
   7078000   0.050117689   -0.29997976     0.035749234   -0.18905884    -0.00044691488
   7079000   0.049557666   -0.300228       0.035896554   -0.18999975    -0.0003414622 
   7080000   0.050299834   -0.2998191      0.035127421   -0.18924679     0.00071330805
   7081000   0.050011318   -0.29984515     0.03501402    -0.18981899     0.00018110491
   7082000   0.050181451   -0.29991182     0.035549151   -0.18909535    -0.00039707385
   7083000   0.050105358   -0.29954407     0.03604412    -0.18834676     4.0150763e-05
   7084000   0.049923875   -0.30006552     0.035607768   -0.18957677    -0.0001908588 
   7085000   0.05002822    -0.30013878     0.035609821   -0.18949147     0.00038025581
   7086000   0.050690348   -0.29998978     0.035481495   -0.18847767     0.00014974205
   7087000   0.050341058   -0.30003917     0.035463265   -0.18906919     0.00029861284
   7088000   0.050452372   -0.2999536      0.036324089   -0.18795583    -0.00010934246
   7089000   0.050107379   -0.29954924     0.036206068   -0.18818695     4.9600096e-05
   7090000   0.050229596   -0.29970662     0.035486656   -0.18888043     0.0001218165 
   7091000   0.049911473   -0.29972834     0.034993503   -0.18987246     0.00025307854
   7092000   0.050328186   -0.29948531     0.035480347   -0.18851755     0.00013191762
   7093000   0.050232534   -0.29960452     0.035196308   -0.18906427     0.00045125085
   7094000   0.050032504   -0.2994861      0.035702757   -0.18873942     0.00030653801
   7095000   0.050248088   -0.29997916     0.035374842   -0.18923705     0.00026597828
   7096000   0.0509059     -0.30020683     0.035794447   -0.18805846     0.00016115188
   7097000   0.049876881   -0.29977935     0.037206477   -0.18776238     0.000285432  
   7098000   0.050365073   -0.29954635     0.03565467    -0.18834895     6.4936961e-05
   7099000   0.05012904    -0.29996383     0.036295616   -0.1884795     -0.00014187861
   7100000   0.049994896   -0.29990767     0.036084517   -0.18883564     0.00022209912
   7101000   0.050011353   -0.30003562     0.036027882   -0.18899555     4.0361524e-05
   7102000   0.049679871   -0.29973019     0.036070925   -0.18914427    -0.00011955868
   7103000   0.050409856   -0.29985554     0.036115902   -0.18812974     0.00049532335
   7104000   0.049630205   -0.29988254     0.035644525   -0.18979751     0.00010828002
   7105000   0.050670925   -0.29971039     0.03518208    -0.18852682     0.00024872699
   7106000   0.050381258   -0.29967427     0.035293352   -0.18881391     4.774808e-05 
   7107000   0.05053974    -0.29989003     0.035287922   -0.18879739     0.00021745303
   7108000   0.050188561   -0.29980352     0.03566274    -0.1888628     -0.00014741677
   7109000   0.050108283   -0.30014062     0.0354343     -0.18954874    -0.00028906696
   7110000   0.049890781   -0.29971743     0.036105515   -0.18878057    -0.0002161681 
   7111000   0.050596052   -0.29973786     0.035283901   -0.18856478     0.00057089422
   7112000   0.04936031    -0.29996232     0.035749281   -0.19017735     0.0003330341 
   7113000   0.050410673   -0.30017597     0.035327755   -0.18923708     2.9498791e-05
   7114000   0.050456758   -0.300121       0.035535174   -0.18890557     0.00012347915
   7115000   0.0501847     -0.29972015     0.035797375   -0.18865059     0.00045852026
   7116000   0.05000983    -0.30055761     0.035613692   -0.18993402    -0.00031470731
   7117000   0.050212842   -0.30000607     0.035557685   -0.18913398     0.00031513571
   7118000   0.049923705   -0.29967523     0.035752451   -0.18904205    -0.00011537736
   7119000   0.050064475   -0.30028669     0.035344376   -0.18985044     0.00022646141
   7120000   0.050248405   -0.30047357     0.035600971   -0.18950485     0.00027149192
   7121000   0.0502299     -0.29995226     0.035994799   -0.18861747    -0.00013456931
   7122000   0.050348436   -0.30021207     0.035291831   -0.18940246     0.00043437063
   7123000   0.050038435   -0.30002912     0.035850891   -0.18912542    -1.4490761e-05
   7124000   0.05006131    -0.30010235     0.035584662   -0.18943057     7.749327e-05 
   7125000   0.050115905   -0.29997396     0.03535608    -0.18944887    -9.1425551e-05
   7126000   0.050037242   -0.29969172     0.035623011   -0.18901768     0.00027139091
   7127000   0.050041038   -0.29992118     0.03606007    -0.18880439    -0.0001055602 
   7128000   0.050180545   -0.3000315      0.035461421   -0.18930412     0.00023515762
   7129000   0.049647064   -0.30034181     0.035562281   -0.19031374    -0.00017704367
   7130000   0.049663687   -0.29989453     0.035684715   -0.18971909    -0.00038305931
   7131000   0.049987135   -0.30029224     0.035337191   -0.18997918     0.00034835894
   7132000   0.049724133   -0.30019124     0.035689398   -0.18992045     0.00020486485
   7133000   0.049920211   -0.30029745     0.035555112   -0.18986685     0.00026277377
   7134000   0.050483719   -0.29986659     0.034900598   -0.1892453      0.00039598998
   7135000   0.050866954   -0.30027012     0.036310012   -0.1876646     -0.00018210066
   7136000   0.050703912   -0.30043476     0.035265658   -0.18911814     0.00016505803
   7137000   0.049746031   -0.30001634     0.03619579    -0.18920632     6.077241e-06 
   7138000   0.050423907   -0.30040193     0.036339021   -0.18843193    -0.00037284887
   7139000   0.050458743   -0.29974722     0.035795325   -0.18826866     0.00054058901
   7140000   0.050502248   -0.30014686     0.035532062   -0.18886631     0.00032532936
   7141000   0.05029772    -0.29991293     0.035888576   -0.18858265     0.00017281079
   7142000   0.050375049   -0.29953407     0.035511045   -0.18846533     0.0001192038 
   7143000   0.050075117   -0.30021884     0.036553656   -0.18855735     2.2378714e-05
   7144000   0.049603163   -0.29990711     0.036199633   -0.18930754    -8.063821e-05 
   7145000   0.050287925   -0.30007421     0.034911203   -0.18973599     0.00018656834
   7146000   0.049611906   -0.2996808      0.035649487   -0.18961825     0.00012539201
   7147000   0.050155796   -0.29987458     0.03565267    -0.18899307     0.00022802628
   7148000   0.050151679   -0.29996344     0.03542225    -0.18931852     0.00085823071
   7149000   0.050272732   -0.29996857     0.036128078   -0.18843626    -0.00024073071
   7150000   0.050031237   -0.30044133     0.035597006   -0.18980231    -5.1772668e-05
   7151000   0.049822942   -0.3000842      0.035860216   -0.18949439     7.2903048e-05
   7152000   0.049559763   -0.30043852     0.03581935    -0.19028432     0.00037246539
   7153000   0.049845013   -0.30020883     0.035777321   -0.18966881     0.00014176707
   7154000   0.04989213    -0.30029757     0.036106322   -0.18935788    -3.6634709e-06
   7155000   0.050193714   -0.30001205     0.035679397   -0.18904694     0.00045602694
   7156000   0.050112031   -0.30015928     0.035503437   -0.18949265    -0.00026283821
   7157000   0.050046763   -0.29998432     0.035713684   -0.18920534     6.4472428e-05
   7158000   0.049673228   -0.30015161     0.035449363   -0.19019721    -2.6700636e-05
   7159000   0.049970911   -0.29990174     0.035462855   -0.18948736     4.0865305e-05
   7160000   0.050327383   -0.29954247     0.036240824   -0.18781545     0.00014296571
   7161000   0.050176797   -0.30005754     0.035570613   -0.18922659    -0.00033918204
   7162000   0.050256464   -0.29990186     0.03608376    -0.18843827     0.00013102123
   7163000   0.050272356   -0.29985106     0.035641528   -0.18880587     0.00024801163
   7164000   0.050315835   -0.30015749     0.035950632   -0.18873798    -4.2701803e-05
   7165000   0.049502214   -0.30031288     0.035913845   -0.19015051     0.0002264208 
   7166000   0.0501805     -0.30025864     0.035482435   -0.18951031     4.095081e-05 
   7167000   0.049883627   -0.29986073     0.03623934    -0.18880077     0.00014980025
   7168000   0.050554533   -0.29999264     0.035854151   -0.18831158     0.00018164231
   7169000   0.049535279   -0.3002324      0.035323629   -0.19061065    -0.00047015261
   7170000   0.050048909   -0.30016037     0.034939987   -0.19015186     0.00040164951
   7171000   0.049690539   -0.30007181     0.035490359   -0.19005045     0.00059991352
   7172000   0.049785173   -0.30002286     0.035826948   -0.18952297     0.00029241092
   7173000   0.050177297   -0.29974355     0.035481729   -0.18900073     4.0504498e-05
   7174000   0.049890811   -0.29995065     0.035810978   -0.18930829     0.00014565794
   7175000   0.050457932   -0.30006866     0.036209892   -0.18817675     7.2703689e-05
   7176000   0.050314545   -0.30014821     0.036177897   -0.18850337    -0.00016304434
   7177000   0.050310409   -0.30002337     0.036024258   -0.18853837     0.00026913336
   7178000   0.049998224   -0.30021258     0.036112308   -0.18910778    -0.00021309864
   7179000   0.050581581   -0.29977998     0.035908225   -0.18800428     0.00085818219
   7180000   0.049996606   -0.30005493     0.035090872   -0.18997399    -0.00021660478
   7181000   0.050046257   -0.2999314      0.035448993   -0.18941786     0.00027075168
   7182000   0.049818385   -0.3002392      0.035656327   -0.18986012     1.905972e-05 
   7183000   0.049465653   -0.30034245     0.03540813    -0.19074063    -4.2381025e-05
   7184000   0.049673984   -0.30040313     0.035369345   -0.19052761     9.8232525e-05
   7185000   0.050248715   -0.30008455     0.035586779   -0.18912957     0.00010989595
   7186000   0.04961437    -0.30046145     0.035364297   -0.1906804      0.00023077416
   7187000   0.049574019   -0.30016763     0.035999494   -0.1898119      0.00015814824
   7188000   0.050115206   -0.30053314     0.035457195   -0.18990799     0.00018402735
   7189000   0.050148309   -0.30020238     0.035193257   -0.18979152     0.00032412941
   7190000   0.049917141   -0.29983918     0.035699115   -0.18926918    -0.00013747492
   7191000   0.049806123   -0.30021261     0.03633657    -0.18917168    -0.00011394852
   7192000   0.050044669   -0.30012249     0.036221494   -0.18883883    -0.00016653683
   7193000   0.049733168   -0.29961322     0.035858431   -0.18915985     0.00017075573
   7194000   0.049484272   -0.29983634     0.035800064   -0.18981466     2.3647052e-05
   7195000   0.050062829   -0.30052964     0.03547433    -0.18996591     2.2328131e-05
   7196000   0.04946341    -0.29991917     0.035433699   -0.19029515    -1.8219723e-05
   7197000   0.050047798   -0.30043275     0.035596703   -0.18976919    -0.00031750374
   7198000   0.049347382   -0.29992801     0.035704714   -0.190207       0.00037920309
   7199000   0.049512354   -0.30027425     0.035608686   -0.19040183     7.2996668e-05
   7200000   0.050140986   -0.29989826     0.035767115   -0.18892452    -0.0001827083 
   7201000   0.049831592   -0.30008247     0.035281954   -0.19005795     0.00049697904
   7202000   0.049813318   -0.30010947     0.035653423   -0.18974089     0.00047429885
   7203000   0.050504426   -0.30030425     0.035622747   -0.18892975    -0.00046177694
   7204000   0.05077222    -0.30002854     0.03520434    -0.18867079     0.00014093287
   7205000   0.049510139   -0.30010204     0.03567694    -0.19016468    -0.0001973551 
   7206000   0.049753484   -0.29975713     0.035212918   -0.1899188      0.00037493808
   7207000   0.049637677   -0.30045978     0.035816452   -0.19019161     0.00021610983
   7208000   0.050307532   -0.30024271     0.035402498   -0.18938379     0.00011332017
   7209000   0.050277062   -0.29943393     0.035631731   -0.18839148    -0.0001098346 
   7210000   0.050308713   -0.29992322     0.035256615   -0.1892084      0.00018945461
   7211000   0.049826459   -0.29994892     0.036081648   -0.1891324     -2.1888475e-05
   7212000   0.049965213   -0.30003409     0.035408883   -0.18968222     0.00011506012
   7213000   0.049778086   -0.30005183     0.034973416   -0.1904161      0.00058142119
   7214000   0.049664497   -0.2998533      0.036393548   -0.18896781    -0.00039599333
   7215000   0.049912634   -0.29995717     0.035919802   -0.18917325    -5.147617e-05 
   7216000   0.050067421   -0.30015664     0.03559789    -0.18946247    -8.643967e-05 
   7217000   0.049182249   -0.29932551     0.035571332   -0.18998557     4.5955216e-05
   7218000   0.049614063   -0.29972135     0.036137852   -0.1891672      0.00011936053
   7219000   0.05020043    -0.30009434     0.035522699   -0.18927586     5.5903327e-05
   7220000   0.050513847   -0.30022378     0.035506312   -0.18895158     4.886804e-05 
   7221000   0.050353473   -0.30009247     0.035781948   -0.18878519     0.00021536544
   7222000   0.050084382   -0.30010117     0.036096462   -0.18888298     5.2794886e-05
   7223000   0.049829178   -0.30025138     0.03579291    -0.18971953     0.00015073468
   7224000   0.049915287   -0.3002268      0.035194312   -0.19016439     0.00017728766
   7225000   0.049618857   -0.29985064     0.035273891   -0.19015326     2.0654579e-05
   7226000   0.050352641   -0.29985907     0.035573537   -0.18876144    -0.00027898801
   7227000   0.050345695   -0.30009844     0.035257616   -0.18932716     0.00078692817
   7228000   0.050118006   -0.30000839     0.035215284   -0.18962095     0.0003966146 
   7229000   0.050429435   -0.30049301     0.036388861   -0.18846488    -3.5780196e-05
   7230000   0.050260048   -0.30020967     0.036366713   -0.18845775    -0.00046883269
   7231000   0.050441218   -0.3002499      0.036312747   -0.1882802     -2.8644987e-05
   7232000   0.050818177   -0.2999814      0.035555255   -0.18820379    -5.3034689e-05
   7233000   0.050230954   -0.30023996     0.035878023   -0.18902037    -0.00025658233
   7234000   0.050145581   -0.30029203     0.036061338   -0.18901717    -0.00021045112
   7235000   0.050562627   -0.29992281     0.035675648   -0.18840812     0.00025248409
   7236000   0.049914905   -0.30025348     0.035980581   -0.18940537     0.00010357011
   7237000   0.049985554   -0.30003145     0.035015585   -0.19004237     8.1915846e-05
   7238000   0.050113339   -0.30028959     0.035703837   -0.1894206     -0.00021140068
   7239000   0.050903246   -0.30021801     0.035762776   -0.18810529     0.00015747904
   7240000   0.050502787   -0.30049632     0.036570989   -0.18817604    -0.0006064688 
   7241000   0.050079454   -0.30019013     0.035787133   -0.18928866     0.00015115116
   7242000   0.049890711   -0.30013034     0.035392173   -0.18990692     0.00036719877
   7243000   0.050208008   -0.30004874     0.035818846   -0.18892274    -0.00030714137
   7244000   0.050534926   -0.29991743     0.035455358   -0.18866457     0.00039628826
   7245000   0.050078004   -0.30004357     0.035335903   -0.1895955      0.00036072217
   7246000   0.050371753   -0.30055029     0.035576975   -0.18942056     0.00018623136
   7247000   0.050020015   -0.30019356     0.035565885   -0.18960249    -5.8666702e-06
   7248000   0.049878004   -0.29994984     0.035908714   -0.18922895    -0.00011699861
   7249000   0.049877381   -0.29986165     0.035874881   -0.18917552     4.209092e-05 
   7250000   0.050422832   -0.3002825      0.035904082   -0.18874905     7.8092375e-06
   7251000   0.049895769   -0.30035988     0.035677914   -0.18984315     3.9644613e-05
   7252000   0.049918996   -0.30035135     0.036052315   -0.18942537     0.0001318666 
   7253000   0.0500631     -0.30039616     0.035255051   -0.1900513      4.2592723e-05
   7254000   0.049428525   -0.30047122     0.0357066     -0.19062662     0.00014056868
   7255000   0.050350555   -0.30062771     0.035899842   -0.18920691    -0.0003070815 
   7256000   0.050020131   -0.30058367     0.035630856   -0.18992745     0.00051575097
   7257000   0.04960901    -0.30068863     0.035935932   -0.19034398     4.4280872e-05
   7258000   0.050508554   -0.30028845     0.035225392   -0.18930511    -2.2380858e-05
   7259000   0.049062776   -0.30039016     0.035494394   -0.19130635     7.9747507e-05
   7260000   0.050315695   -0.30044294     0.035883737   -0.18909053    -0.00010304867
   7261000   0.050301458   -0.30050495     0.036055941   -0.18900169    -0.00025364992
   7262000   0.05010889    -0.30035602     0.035978722   -0.18921881    -0.00011674722
   7263000   0.050327661   -0.30022335     0.035924032   -0.1888127      7.5542288e-05
   7264000   0.050350066   -0.30038713     0.035704655   -0.18916225     0.00050132825
   7265000   0.050005225   -0.30038926     0.03576324    -0.18962302     0.00016686379
   7266000   0.050014201   -0.30026458     0.035869087   -0.18937904     0.00035450287
   7267000   0.049476257   -0.30057012     0.036200959   -0.19015956    -0.00014646288
   7268000   0.050572733   -0.30097783     0.035090111   -0.19003352     0.00032968509
   7269000   0.050031926   -0.30042995     0.035528556   -0.18985835    -0.00017934917
   7270000   0.049981912   -0.30060474     0.036332792   -0.18930391     0.00032912808
   7271000   0.050613702   -0.30068094     0.035332345   -0.18943294     0.00014763012
   7272000   0.049710965   -0.30076462     0.035946678   -0.19025631    -4.6964468e-05
   7273000   0.050336731   -0.30032746     0.035838      -0.18898923    -4.0870657e-05
   7274000   0.05019912    -0.30075958     0.035747904   -0.18971786     0.00026397937
   7275000   0.049769919   -0.3011835      0.035611114   -0.19092232    -0.000157296  
   7276000   0.049898417   -0.30088802     0.035553109   -0.19049212     0.00010742839
   7277000   0.050203671   -0.30125634     0.035508054   -0.19044764    -0.0002148782 
   7278000   0.050002123   -0.30093767     0.035904763   -0.19003456    -6.4443042e-05
   7279000   0.050403909   -0.30128311     0.036122436   -0.18955969     0.00026489699
   7280000   0.050323073   -0.30112838     0.035824966   -0.18982368     0.00012280693
   7281000   0.049645834   -0.30074832     0.035388823   -0.19089555     0.00046897655
   7282000   0.049616458   -0.3008162      0.035199947   -0.19119636    -0.00029069409
   7283000   0.050014091   -0.30118144     0.03536458    -0.19080057     0.00041262361
   7284000   0.049732476   -0.30116833     0.035672442   -0.19090199    -0.00019015734
   7285000   0.04986879    -0.30090155     0.036118229   -0.18998497    -1.9064219e-05
   7286000   0.049468922   -0.30105107     0.035681971   -0.1911705      0.00048916427
   7287000   0.049886201   -0.30087657     0.035845217   -0.19020688    -0.00054150359
   7288000   0.050186163   -0.30064318     0.034849905   -0.19051889     0.00012467784
   7289000   0.049087894   -0.30061562     0.035775811   -0.19121272     0.00025579495
   7290000   0.049945583   -0.30123236     0.035573441   -0.19074538     0.00014005021
   7291000   0.050014047   -0.30113124     0.035525443   -0.19058957     3.3591959e-05
   7292000   0.049508783   -0.30129419     0.035606096   -0.19142971    -0.00043566356
   7293000   0.049557017   -0.30119845     0.03562989    -0.19123783     0.00023361997
   7294000   0.0499058     -0.30090172     0.03529305    -0.1907548      0.00012377834
   7295000   0.049593131   -0.30079689     0.035594105   -0.19081788     0.00014930131
   7296000   0.049656058   -0.30113622     0.035538007   -0.19111893    -0.00010564063
   7297000   0.050286251   -0.30066474     0.035497465   -0.18974276     0.00041235742
   7298000   0.050280439   -0.30117488     0.036219253   -0.18953984     0.00061316011
   7299000   0.050519199   -0.30080416     0.035594707   -0.18943554    -7.5264104e-06
   7300000   0.049985227   -0.3009045      0.035840487   -0.19009101    -0.00013368703
   7301000   0.050062988   -0.30127411     0.03632583    -0.18985864     0.00011687741
   7302000   0.049863331   -0.30105104     0.035470336   -0.19079053     0.00038591097
   7303000   0.050293448   -0.3008269      0.035445949   -0.18994565    -0.00015290717
   7304000   0.05000338    -0.30095392     0.035893443   -0.19006024    -0.00054468416
   7305000   0.050025429   -0.30098949     0.036295654   -0.18966054    -6.9582158e-06
   7306000   0.050125458   -0.30115884     0.03573849    -0.19023701     0.00028053004
   7307000   0.049679653   -0.30117929     0.035882768   -0.19078185    -6.9666947e-05
   7308000   0.049590475   -0.30111043     0.035684775   -0.19104474    -0.00021853248
   7309000   0.049750093   -0.30103253     0.036026598   -0.19038561    -5.1048565e-06
   7310000   0.049974277   -0.30096623     0.035178914   -0.19083074     0.00026813531
   7311000   0.049949223   -0.30117038     0.035937315   -0.19031407    -0.00014906141
   7312000   0.050232018   -0.30087654     0.03653311    -0.18900027     0.00046585402
   7313000   0.050364639   -0.30121464     0.036225369   -0.18944719     0.00021817477
   7314000   0.050302205   -0.30119107     0.035740318   -0.19000231    -0.000262261  
   7315000   0.050303421   -0.30095639     0.035514448   -0.18999168     2.8240684e-05
   7316000   0.050290102   -0.30096323     0.035894006   -0.18963894     0.00026871394
   7317000   0.049741442   -0.30122849     0.036292014   -0.19032913    -0.00036025045
   7318000   0.050583201   -0.30091145     0.035380137   -0.18966141     0.00012584028
   7319000   0.050403487   -0.30109264     0.036038381   -0.1894539      0.00064175808
   7320000   0.050051763   -0.30093856     0.035372749   -0.19049301    -0.00045099143
   7321000   0.050277918   -0.30134592     0.035815219   -0.19011869    -4.1860665e-06
   7322000   0.050300583   -0.30100283     0.03506663    -0.19049019     0.00032955282
   7323000   0.049452453   -0.30110505     0.035876344   -0.19105481    -7.8763393e-05
   7324000   0.049842629   -0.3013522      0.035944955   -0.19064813     0.00031834507
   7325000   0.049944302   -0.30140499     0.035740776   -0.19075259    -9.852092e-05 
   7326000   0.050069591   -0.30119799     0.034920182   -0.19117827     0.00032404428
   7327000   0.04978452    -0.30136418     0.035869225   -0.190823      -7.4314601e-05
   7328000   0.04999714    -0.3011677      0.035512062   -0.19066476     0.00061696611
   7329000   0.049956356   -0.30107481     0.035588274   -0.19055684     4.7164548e-06
   7330000   0.050135886   -0.30111512     0.03571673    -0.19019941    -0.00025147092
   7331000   0.049972846   -0.3011449      0.035382016   -0.19080845    -0.0002170065 
   7332000   0.049681538   -0.30100449     0.035942353   -0.19054464    -0.00026980219
   7333000   0.04968336    -0.30140104     0.035555291   -0.19132552    -7.8811667e-05
   7334000   0.049857016   -0.30097727     0.035752564   -0.19044401    -0.00017393649
   7335000   0.049321417   -0.30115855     0.03529865    -0.19188255     5.6328247e-05
   7336000   0.049906099   -0.30110735     0.035323052   -0.19092998     0.00018956344
   7337000   0.049741631   -0.30153285     0.035747558   -0.19117766    -0.00037404936
   7338000   0.049502187   -0.30140717     0.034892864   -0.19226581     0.00029041113
   7339000   0.049882671   -0.30102512     0.035994786   -0.19021115     0.00061219854
   7340000   0.050288492   -0.30130751     0.035259082   -0.19062055     0.00019871613
   7341000   0.049714435   -0.30116035     0.03585649    -0.19073702     5.4748628e-05
   7342000   0.050318077   -0.30133727     0.035656408   -0.19020861     0.00025301192
   7343000   0.050019167   -0.30107421     0.035755101   -0.1902952      0.00028623107
   7344000   0.050302801   -0.30122895     0.035762053   -0.19001756    -0.0002076292 
   7345000   0.049746463   -0.30098006     0.035696464   -0.19066872    -3.1018807e-05
   7346000   0.050471069   -0.30143027     0.035572536   -0.19015602    -2.8222221e-05
   7347000   0.050473501   -0.30173817     0.036344833   -0.18968798    -0.00028780739
   7348000   0.05068963    -0.30137567     0.035398639   -0.1899475      0.00025479831
   7349000   0.050297568   -0.30090374     0.036199825   -0.18926243    -2.6301568e-06
   7350000   0.050127917   -0.30138439     0.035679901   -0.19051746    -0.00025444034
   7351000   0.050007978   -0.30162032     0.035560832   -0.19105237    -5.5536149e-06
   7352000   0.05008323    -0.30119587     0.035087664   -0.19098821    -8.9158843e-05
   7353000   0.049972128   -0.30145119     0.035444508   -0.19105333    -0.00017057097
   7354000   0.049286983   -0.30152232     0.035394797   -0.19220181     0.00017490888
   7355000   0.049704347   -0.30109328     0.035123689   -0.19141788     6.8697527e-05
   7356000   0.049070115   -0.30111351     0.035545242   -0.19196784     0.00033173253
   7357000   0.049803029   -0.30118034     0.036042199   -0.19043841    -0.00025955627
   7358000   0.050013313   -0.30157247     0.035313715   -0.19124363    -0.00023997177
   7359000   0.049850169   -0.30135144     0.035506619   -0.19107439    -0.00026547129
   7360000   0.050004442   -0.30133252     0.034818124   -0.19151258     0.00034365784
   7361000   0.049902652   -0.30117457     0.035199702   -0.19112572    -0.00016022944
   7362000   0.050358398   -0.30120183     0.035245575   -0.19042353     4.2240807e-05
   7363000   0.049886158   -0.30144334     0.035503663   -0.19111527    -0.00019306066
   7364000   0.04957053    -0.30152144     0.035964387   -0.19120606    -0.00018278321
   7365000   0.050274501   -0.30154897     0.035914255   -0.19022783    -0.0003314998 
   7366000   0.049875499   -0.30132198     0.036195862   -0.19031769    -0.00027242699
   7367000   0.050009613   -0.30126294     0.035706464   -0.1905469      0.00021012113
   7368000   0.050154163   -0.3008063      0.035745631   -0.18983427     0.00011335404
   7369000   0.050063195   -0.30164471     0.035764701   -0.19079006    -0.00026587474
   7370000   0.050220805   -0.30155894     0.035347505   -0.19088508    -0.00027390249
   7371000   0.049837988   -0.301065       0.035393901   -0.19091894     0.00020393575
   7372000   0.049884505   -0.30117447     0.035595246   -0.1907573      0.00019203447
   7373000   0.050209831   -0.30144232     0.036309159   -0.18982327    -0.00030834684
   7374000   0.05014817    -0.30127801     0.036219103   -0.1898415      0.00065716642
   7375000   0.050415647   -0.30119295     0.035529501   -0.19004486     7.0648144e-05
   7376000   0.050115435   -0.30148158     0.035406908   -0.19090637     0.00015866867
   7377000   0.050084517   -0.30132591     0.035495173   -0.19070881     0.00053172507
   7378000   0.049611589   -0.30138307     0.03590691    -0.19106358    -0.00053215579
   7379000   0.049755803   -0.30109814     0.035352281   -0.19111697     8.3966122e-05
   7380000   0.05010014    -0.30088468     0.035381222   -0.1903581     -0.00057992405
   7381000   0.049755447   -0.30067832     0.036143596   -0.18990637     0.00037576369
   7382000   0.050323135   -0.30122599     0.035419585   -0.19032657     0.00037638969
   7383000   0.049960335   -0.30142925     0.035350379   -0.1911432     -2.309492e-05 
   7384000   0.049995002   -0.30157313     0.036062515   -0.19052295     1.021992e-05 
   7385000   0.050302259   -0.30142042     0.036580261   -0.18939164     0.0001475314 
   7386000   0.050392916   -0.30099035     0.035877079   -0.18952877     3.8890222e-05
   7387000   0.05052311    -0.30143051     0.035922335   -0.1897284      0.00033769426
   7388000   0.049954519   -0.30125891     0.035215924   -0.19111604     0.000303117  
   7389000   0.050008145   -0.30094912     0.035194052   -0.19074769     0.00014515977
   7390000   0.050150046   -0.30094664     0.035829199   -0.18989723    -0.00012929766
   7391000   0.049754594   -0.3010237      0.036153862   -0.19024276     0.00022446185
   7392000   0.050815439   -0.30083863     0.035785316   -0.18883507     9.0177861e-05
   7393000   0.050200869   -0.30130596     0.035457915   -0.1905516      0.00039403452
   7394000   0.049677789   -0.30103052     0.035219928   -0.19129872    -0.00026678496
   7395000   0.049881811   -0.30125462     0.035557722   -0.19087901    -0.0003811333 
   7396000   0.050299411   -0.30161124     0.036063551   -0.19010344    -0.00035979809
   7397000   0.049976489   -0.30143993     0.035645824   -0.19083421     0.00016302572
   7398000   0.050018425   -0.30122085     0.035718249   -0.19047981    -0.00028301431
   7399000   0.05070656    -0.30141955     0.034649289   -0.19071533    -0.00034802254
   7400000   0.04995193    -0.30137937     0.035868664   -0.19058764     0.0003032551 
   7401000   0.049325333   -0.30123616     0.035309896   -0.19194304     3.7424114e-05
   7402000   0.049899258   -0.30102858     0.035206649   -0.19097788     0.00010475036
   7403000   0.049872996   -0.30104336     0.035573063   -0.19066563    -0.00018034639
   7404000   0.049701595   -0.30140652     0.035046858   -0.19181207     1.9383677e-05
   7405000   0.050320946   -0.3009391      0.035847657   -0.18961489     0.00023097733
   7406000   0.050397816   -0.30082451     0.036187829   -0.18904483    -0.00031371202
   7407000   0.050501313   -0.30110561     0.035071255   -0.19028727     0.00018216151
   7408000   0.050173593   -0.30157166     0.036037308   -0.19027882     0.00029094264
   7409000   0.049262783   -0.301186       0.035792092   -0.1915045     -3.9911901e-05
   7410000   0.049742727   -0.30116825     0.035263171   -0.1912958      0.00022633505
   7411000   0.049792497   -0.301061       0.035560033   -0.19081704     8.187852e-05 
   7412000   0.05005783    -0.30178177     0.036030959   -0.19066892    -2.1275811e-05
   7413000   0.050004603   -0.30162941     0.036528099   -0.19009924    -0.00028856515
   7414000   0.049341073   -0.30110405     0.035643037   -0.19145418     0.00022921723
   7415000   0.050232188   -0.30125943     0.035448529   -0.19046748     0.00034044462
   7416000   0.049507865   -0.30144041     0.035988487   -0.19119492    -5.868302e-05 
   7417000   0.050230332   -0.30185205     0.035748477   -0.19076293     0.00013183883
   7418000   0.050029725   -0.30139936     0.035764721   -0.19059489     0.00043662111
   7419000   0.050238181   -0.30161571     0.036057704   -0.1902056     -0.00021475392
   7420000   0.049835092   -0.30183925     0.035222142   -0.19186929    -0.00015480504
   7421000   0.049704152   -0.30179893     0.036024216   -0.1912233      0.00025905256
   7422000   0.049961011   -0.30130868     0.035727458   -0.19064454     0.00016981801
   7423000   0.049927723   -0.30158863     0.03630821    -0.19039367    -0.0003408016 
   7424000   0.050515763   -0.30133021     0.035452582   -0.19010887     4.4557289e-05
   7425000   0.050087392   -0.30163215     0.036163201   -0.19034271    -9.9418643e-05
   7426000   0.049996335   -0.30161599     0.036059495   -0.19056683     0.00012010211
   7427000   0.050270885   -0.30159616     0.035408444   -0.19078625    -0.00023119186
   7428000   0.049805557   -0.30179112     0.036160952   -0.19092665     8.2733177e-05
   7429000   0.04998639    -0.30181404     0.03578725    -0.19105204     0.00017782648
   7430000   0.049474747   -0.30180732     0.035677953   -0.19192203    -4.1359556e-05
   7431000   0.049491999   -0.30123092     0.035261034   -0.19173667     0.00014154846
   7432000   0.050040834   -0.3014272      0.035336107   -0.19103469    -6.8467392e-05
   7433000   0.050546066   -0.3014661      0.035428811   -0.19022308     0.00015357196
   7434000   0.050421498   -0.30201788     0.036071376   -0.19031914    -4.5472509e-05
   7435000   0.050113698   -0.3017753      0.036307846   -0.19030176    -0.00021959484
   7436000   0.050301816   -0.30184205     0.035631691   -0.1907625      6.1567515e-05
   7437000   0.049619597   -0.30133083     0.035450225   -0.19145601    -6.1508229e-05
   7438000   0.049966027   -0.30181573     0.035072579   -0.19179894     4.6144387e-05
   7439000   0.049620802   -0.30144909     0.036011732   -0.19101096     3.2299033e-05
   7440000   0.050330624   -0.30156529     0.035793189   -0.19028103    -0.00014383284
   7441000   0.050348844   -0.30195342     0.035324124   -0.1911109      0.00038720472
   7442000   0.049514254   -0.30129965     0.036004298   -0.19102876     0.0004741055 
   7443000   0.049919292   -0.30129459     0.03526688    -0.19115361     8.1231679e-05
   7444000   0.049808342   -0.30127424     0.036067133   -0.19049941    -5.4575847e-05
   7445000   0.049874327   -0.30178591     0.035109384   -0.19186986     0.00022569567
   7446000   0.049949579   -0.30171559     0.035275823   -0.19152023     0.00022095999
   7447000   0.049963329   -0.30144116     0.035771161   -0.19072984     0.00029431236
   7448000   0.049855089   -0.30175036     0.035244305   -0.19172824    -0.00012254898
   7449000   0.049746382   -0.30176722     0.035947643   -0.19120482     0.00012983811
   7450000   0.049617486   -0.30126246     0.035009333   -0.1918317      0.00032511467
   7451000   0.050118561   -0.30137272     0.035901012   -0.19029872     2.4526328e-05
   7452000   0.050830954   -0.3015616      0.035265691   -0.19005439     0.00027504093
   7453000   0.050795054   -0.30126538     0.035962927   -0.18911479     5.5700115e-06
   7454000   0.050817014   -0.30206947     0.035862764   -0.1899861      0.00037987501
   7455000   0.050725449   -0.30192643     0.036149499   -0.18969366     0.00018513974
   7456000   0.049997611   -0.30184988     0.035994874   -0.19086343     0.00041844133
   7457000   0.049510972   -0.30142659     0.035744304   -0.19142062    -0.00034113574
   7458000   0.050078804   -0.3013044      0.035778215   -0.19041282    -0.00030071855
   7459000   0.050041149   -0.30151337     0.035440451   -0.19101604     0.00026102844
   7460000   0.050114394   -0.30184739     0.035906569   -0.19077408     5.6544948e-06
   7461000   0.04991602    -0.30149064     0.036090906   -0.19053053    -0.00014748188
   7462000   0.050329046   -0.30143498     0.035356325   -0.19058995     0.00040750571
   7463000   0.050743166   -0.30123855     0.036002322   -0.18912638     0.00030551535
   7464000   0.050068609   -0.30119998     0.036162616   -0.1899393     -2.2020104e-05
   7465000   0.050311641   -0.3010247      0.036007878   -0.18955423     0.00034631045
   7466000   0.050127437   -0.30155985     0.035851039   -0.19052251     1.2598521e-06
   7467000   0.050217236   -0.3013416      0.035767315   -0.19025329     0.00056379182
   7468000   0.05018376    -0.30146031     0.035543439   -0.19064609    -0.00018655175
   7469000   0.049364342   -0.30146799     0.035764821   -0.19166143    -0.00012043111
   7470000   0.049804313   -0.30180789     0.035568189   -0.19153805    -0.00012165096
   7471000   0.049705394   -0.30187522     0.03603056    -0.19129138     0.00041955256
   7472000   0.050368755   -0.30141554     0.035659437   -0.19020784     0.00024294748
   7473000   0.049794131   -0.30158309     0.035889638   -0.19100708    -0.00020814252
   7474000   0.049989831   -0.30188299     0.035490939   -0.19141214     0.00048064725
   7475000   0.049321162   -0.30194896     0.035483124   -0.19248886    -0.00010449918
   7476000   0.049625381   -0.30177127     0.036709116   -0.19062889    -0.00014510227
   7477000   0.050000618   -0.3013063      0.035999961   -0.19031025    -0.00013745893
   7478000   0.050283075   -0.30129326     0.035770992   -0.19010252     0.00045743335
   7479000   0.049898509   -0.30147876     0.035367217   -0.19126861     0.00024247703
   7480000   0.050403719   -0.30152108     0.035734222   -0.19018615     0.00018195037
   7481000   0.049646195   -0.30158125     0.035586808   -0.19152995    -0.00018958481
   7482000   0.050255208   -0.30135612     0.035838302   -0.19013987     0.00045644908
   7483000   0.049998376   -0.3016855      0.036014697   -0.19067808    -0.00026767091
   7484000   0.049613724   -0.30184441     0.03521048    -0.19221814     0.00016527184
   7485000   0.049666225   -0.30163623     0.035287827   -0.19185387    -4.3947764e-05
   7486000   0.050119018   -0.30202797     0.036244743   -0.19060955    -0.00045081148
   7487000   0.049540474   -0.30160137     0.035639212   -0.19165625     0.00013790331
   7488000   0.049833656   -0.30146956     0.035749747   -0.19097416    -0.00048345994
   7489000   0.049949488   -0.30137912     0.035748091   -0.19071163     0.00037842869
   7490000   0.050064639   -0.30206048     0.03584913    -0.19111924     0.00030145646
   7491000   0.050055873   -0.30167289     0.035713424   -0.1908805      0.00013437104
   7492000   0.050118041   -0.3015407      0.035276377   -0.19109212     0.0003651444 
   7493000   0.049788007   -0.30149298     0.036135007   -0.19068078    -0.00010911378
   7494000   0.049992072   -0.30218401     0.035590021   -0.19161072     4.8766703e-05
   7495000   0.049666214   -0.30169034     0.035552832   -0.19164299     7.3117514e-05
   7496000   0.049635839   -0.30159877     0.035241725   -0.19190809     0.00036089486
   7497000   0.049870602   -0.30188469     0.035050351   -0.19203326    -4.1523962e-05
   7498000   0.050476998   -0.3018861      0.035832885   -0.1903426      0.00021219953
   7499000   0.050335269   -0.30166283     0.036089616   -0.19007519    -0.00013263388
   7500000   0.049962945   -0.30168719     0.03523662    -0.19151099     0.00038953414
   7501000   0.049952924   -0.30163202     0.035588268   -0.1911192      0.00016068426
   7502000   0.049725039   -0.30158528     0.036403632   -0.1905989      9.4483079e-05
   7503000   0.050230342   -0.30175166     0.035791745   -0.19061926    -3.4233404e-05
   7504000   0.050084453   -0.3017716      0.03541501    -0.19123476    -0.00046379111
   7505000   0.050059107   -0.30183027     0.035586016   -0.19116044    -3.3773611e-05
   7506000   0.049704763   -0.30148243     0.035841631   -0.19108846     9.6709014e-05
   7507000   0.050138331   -0.30178891     0.035792388   -0.19079387     9.5645586e-05
   7508000   0.049977575   -0.30167126     0.035548298   -0.19116144     0.00057218274
   7509000   0.050028576   -0.30192383     0.035737042   -0.19114877    -8.1826367e-05
   7510000   0.050279807   -0.30189666     0.035700047   -0.19078177     0.00013709571
   7511000   0.049927279   -0.30212266     0.035690164   -0.19154641     0.00017185831
   7512000   0.049661587   -0.30151807     0.035454047   -0.19157645    -0.00010888719
   7513000   0.049844327   -0.30227309     0.035239874   -0.19227155     0.00017270614
   7514000   0.049973681   -0.30235136     0.03559864    -0.19179704     7.2002551e-05
   7515000   0.050077766   -0.30169795     0.035777848   -0.19080829     0.00028691984
   7516000   0.050588128   -0.30194817     0.035652424   -0.19041845    -9.3864367e-05
   7517000   0.050754818   -0.30176114     0.036245154   -0.18938868    -2.7036595e-05
   7518000   0.05027332    -0.30184782     0.035783349   -0.19065936     0.00025498454
   7519000   0.050668599   -0.30207978     0.035499537   -0.19058225     1.890101e-05 
   7520000   0.050318145   -0.30188284     0.035387061   -0.19102343     0.00020638962
   7521000   0.050447807   -0.30201755     0.035073127   -0.19127759    -0.00013376806
   7522000   0.049657064   -0.30173498     0.035640194   -0.19161399     0.00018769666
   7523000   0.049782516   -0.30173329     0.034999483   -0.19206485     0.00023835235
   7524000   0.049604784   -0.30182474     0.035425724   -0.19199664     9.1341443e-05
   7525000   0.049817974   -0.3021725      0.035430726   -0.19201963    -7.3886303e-06
   7526000   0.049842448   -0.30138916     0.035659914   -0.19097039    -4.3619265e-05
   7527000   0.050490946   -0.30219617     0.036172855   -0.19029178    -0.00011979006
   7528000   0.050479236   -0.30187612     0.035929861   -0.19023229    -0.00031187526
   7529000   0.050588727   -0.30192426     0.035863858   -0.19018221     0.00034384867
   7530000   0.050142287   -0.30189665     0.036021435   -0.19066663     0.00031170743
   7531000   0.050299937   -0.30166753     0.035540965   -0.19068153     6.4576326e-05
   7532000   0.050006613   -0.30195567     0.035542032   -0.19140856     0.00018520656
   7533000   0.050004033   -0.30200421     0.035063721   -0.19193927    -1.9726654e-05
   7534000   0.049686338   -0.30244179     0.035583354   -0.19233373     1.0680583e-05
   7535000   0.049344646   -0.30227985     0.035885444   -0.19238222    -0.00023260783
   7536000   0.049730878   -0.30226302     0.035693268   -0.19197825     0.00010120502
   7537000   0.050358042   -0.30198577     0.035831663   -0.19062192     9.2129443e-05
   7538000   0.04958472    -0.30242043     0.036041952   -0.1920062      0.00021681062
   7539000   0.049971942   -0.30172721     0.035363222   -0.19141091     0.00048766951
   7540000   0.049658648   -0.30198224     0.035539845   -0.19195923     0.00023404518
   7541000   0.049983019   -0.30228373     0.035479174   -0.19183486    -0.0002100475 
   7542000   0.050493961   -0.30222149     0.035691969   -0.19079347    -0.00065601907
   7543000   0.050152879   -0.30227399     0.035893539   -0.19115598    -0.00024435075
   7544000   0.049584517   -0.30217594     0.036124843   -0.19167912    -9.8107613e-06
   7545000   0.05002253    -0.30212687     0.035895702   -0.19120222    -0.00012819028
   7546000   0.049333093   -0.30226613     0.035517365   -0.1927539      0.00014376394
   7547000   0.04987991    -0.30238605     0.035657615   -0.1919134      0.00061563653
   7548000   0.049573227   -0.3019743      0.035372825   -0.19224643     2.5580669e-05
   7549000   0.049731213   -0.30217983     0.035753425   -0.1918344      9.7705578e-05
   7550000   0.050308639   -0.30223398     0.035695206   -0.19108069     9.2768224e-05
   7551000   0.049921249   -0.30184395     0.035674334   -0.19129258    -9.8181653e-05
   7552000   0.049569084   -0.30189574     0.0358258     -0.19172111    -0.00030009109
   7553000   0.049881146   -0.30241814     0.035837749   -0.1917635      0.00010636365
   7554000   0.050904484   -0.30205322     0.035590091   -0.19011133     0.00021074711
   7555000   0.050522599   -0.30248403     0.035540989   -0.19116403     4.5710288e-05
   7556000   0.049744948   -0.30227864     0.036478065   -0.19118797     0.00040486158
   7557000   0.04999308    -0.30203245     0.03539952    -0.19164815     0.00013725685
   7558000   0.049865649   -0.30198032     0.035373336   -0.19181333    -0.00050768107
   7559000   0.049303547   -0.30188333     0.035625634   -0.19230715     0.00011633028
   7560000   0.050172248   -0.30212809     0.034852227   -0.19202235     0.00028275509
   7561000   0.049632196   -0.30243611     0.035887019   -0.1921056     -9.1422686e-05
   7562000   0.049469745   -0.30219766     0.035964075   -0.19203375    -4.5343632e-05
   7563000   0.050194131   -0.30229988     0.035468691   -0.19154485     6.9290556e-05
   7564000   0.050144999   -0.302136       0.035667802   -0.19125556     2.8611317e-05
   7565000   0.050368464   -0.30202045     0.035738032   -0.1907346     -4.1181911e-05
   7566000   0.05027439    -0.30242361     0.035500737   -0.19151615     0.0002325541 
   7567000   0.05010784    -0.30203635     0.035920679   -0.19095876     0.00039298072
   7568000   0.049760439   -0.30222236     0.035781305   -0.19180521    -0.00013361821
   7569000   0.050229055   -0.30203801     0.0359421     -0.19075719     0.00022375435
   7570000   0.049708814   -0.30239933     0.035292058   -0.19254886     0.00024621677
   7571000   0.049763599   -0.30218645     0.034743333   -0.19280254    -1.8365056e-05
   7572000   0.050311821   -0.30204602     0.035519049   -0.19106411     0.00018571015
   7573000   0.050108016   -0.30240643     0.035585691   -0.19166356     6.4526346e-05
   7574000   0.050088334   -0.30228551     0.035442616   -0.19171524    -0.00032865752
   7575000   0.049869645   -0.30219347     0.035468298   -0.19192554     0.0001331437 
   7576000   0.049992746   -0.30204903     0.035448667   -0.19161608     0.00014779893
   7577000   0.050119396   -0.30220945     0.035653466   -0.19138174     0.00075624354
   7578000   0.049879244   -0.30232037     0.035846449   -0.19165988    -0.0003057631 
   7579000   0.050026701   -0.30221608     0.036020125   -0.19116074    -8.7062835e-05
   7580000   0.049721245   -0.30183418     0.036693748   -0.19056338     5.5127153e-05
   7581000   0.050044722   -0.30196391     0.035288261   -0.1916134      0.00056904797
   7582000   0.049932046   -0.30221875     0.035426778   -0.19189873     0.00018895707
   7583000   0.049208952   -0.30198655     0.035738686   -0.1924392     -4.4062831e-05
   7584000   0.04990268    -0.30217397     0.035776184   -0.19154859    -0.00016067565
   7585000   0.049337818   -0.30173833     0.035641025   -0.19209536     0.00060782696
   7586000   0.049807711   -0.30220794     0.03538693    -0.19211427     0.00029672452
   7587000   0.049665003   -0.30228694     0.035497892   -0.19229635     0.00011334998
   7588000   0.049571933   -0.30179326     0.035870724   -0.19156943    -0.00011288783
   7589000   0.049753132   -0.30240452     0.036506633   -0.19127301    -0.00012772455
   7590000   0.050058082   -0.30220584     0.035240098   -0.19188346    -3.2720766e-05
   7591000   0.049856785   -0.30202184     0.035943985   -0.1912975     -0.00013166357
   7592000   0.049885041   -0.30219901     0.035572008   -0.19180427    -0.00045998599
   7593000   0.049997943   -0.3019794      0.035861999   -0.19112533    -0.0001030437 
   7594000   0.049805347   -0.30191787     0.035511997   -0.19170267     0.00025004635
   7595000   0.049477135   -0.30235047     0.036104122   -0.19203544     0.00021616168
   7596000   0.049720656   -0.30189225     0.035315495   -0.19200058     1.567299e-05 
   7597000   0.049440133   -0.30189888     0.03629292    -0.19145055    -0.00051709635
   7598000   0.049983236   -0.3020964      0.035857855   -0.19126853     0.00021491179
   7599000   0.050537031   -0.30217824     0.035843344   -0.19053424     8.5950352e-05
   7600000   0.050214523   -0.30160643     0.035549603   -0.1907399      0.00021383572
   7601000   0.050218374   -0.30215128     0.03586672    -0.19096185    -3.0898678e-05
   7602000   0.050766479   -0.30211457     0.036157753   -0.18981201    -1.2686383e-05
   7603000   0.049927657   -0.30210836     0.0360797     -0.19114201    -0.00014239043
   7604000   0.0497399     -0.30204894     0.035867713   -0.19157619     0.00014125741
   7605000   0.049865401   -0.30214928     0.035463516   -0.19189249     7.3590603e-05
   7606000   0.049688782   -0.3017652      0.036185205   -0.19105163     0.00037416758
   7607000   0.049712898   -0.30154668     0.035695614   -0.19128653     0.0001557272 
   7608000   0.049604061   -0.30161972     0.036339193   -0.19087924    -0.0001684413 
   7609000   0.050416503   -0.30194891     0.035263776   -0.19106526     0.0004774977 
   7610000   0.05004608    -0.30195562     0.036579134   -0.19031221    -0.00052981793
   7611000   0.049930755   -0.30184503     0.035445362   -0.19150837    -1.5505189e-05
   7612000   0.049594825   -0.30249426     0.036290229   -0.19181659     8.0445135e-05
   7613000   0.05004564    -0.3019505      0.035432243   -0.19145464     0.00020001839
   7614000   0.049481775   -0.30201446     0.035423797   -0.19237279     0.00035613444
   7615000   0.049668326   -0.30228951     0.035511518   -0.19228031     0.00064000146
   7616000   0.050392548   -0.30220022     0.035581018   -0.19103526    -4.2103638e-05
   7617000   0.049949992   -0.30167175     0.035560179   -0.19119142     0.00023410142
   7618000   0.050025529   -0.30205798     0.035489449   -0.19153508     2.0345273e-05
   7619000   0.050058284   -0.30192212     0.035667231   -0.19117231    -6.8480766e-05
   7620000   0.050313574   -0.30190033     0.035549969   -0.19088487     0.00036098878
   7621000   0.050364239   -0.30159626     0.035756863   -0.19029791     0.00021499266
   7622000   0.050273556   -0.30208457     0.035771828   -0.19090727    -0.00029444804
   7623000   0.050011202   -0.30240519     0.035866338   -0.19152689    -0.00046665451
   7624000   0.049959495   -0.30189445     0.035381225   -0.19157882     0.00069574036
   7625000   0.049751288   -0.30201975     0.035515243   -0.19188239     0.00013463516
   7626000   0.050008833   -0.3015582      0.036211441   -0.19033835     0.00011343032
   7627000   0.050053436   -0.30189489     0.035739732   -0.19107985    -0.00027388071
   7628000   0.049778182   -0.30185278     0.035541242   -0.19164908     0.00018907027
   7629000   0.049478292   -0.30185641     0.034968592   -0.19267517     0.00018776367
   7630000   0.049932526   -0.30264621     0.035465913   -0.19228634    -0.00016331051
   7631000   0.049889132   -0.30196072     0.035070795   -0.19206106     0.00030412951
   7632000   0.050102604   -0.30190797     0.035631269   -0.19112764    -0.00019246246
   7633000   0.049801976   -0.30234545     0.03539347    -0.19225383     3.8114539e-05
   7634000   0.049996046   -0.30190084     0.035283414   -0.1916282      0.00063349434
   7635000   0.049788369   -0.30229697     0.035699365   -0.19191987    -2.6243528e-05
   7636000   0.050088599   -0.30236462     0.0352861     -0.19195046     0.00014640107
   7637000   0.050093736   -0.30220499     0.035599447   -0.19146978     6.5594793e-05
   7638000   0.049581576   -0.30204527     0.03592134    -0.19175637    -0.00014766082
   7639000   0.049962729   -0.30205016     0.03560985    -0.19150105    -0.00010556896
   7640000   0.049374272   -0.30173357     0.035884574   -0.19179236    -8.5446242e-05
   7641000   0.049933518   -0.3020627      0.035827335   -0.19133992     3.236918e-05 
   7642000   0.050012678   -0.30176241     0.035648315   -0.19109992     0.00018583117
   7643000   0.050606305   -0.30208004     0.03564327    -0.19053221     0.00032933249
   7644000   0.050316977   -0.30214754     0.035662343   -0.1910146     -1.5159521e-05
   7645000   0.049962903   -0.30192314     0.036127291   -0.19085633    -0.00012821658
   7646000   0.049989146   -0.3020503      0.035769646   -0.19130177     4.1743e-05   
   7647000   0.050191218   -0.30211209     0.034771631   -0.19205849     0.00017724605
   7648000   0.049704014   -0.30196551     0.035574736   -0.19183956     0.00020479312
   7649000   0.05003614    -0.30209332     0.034945046   -0.19209891     8.3544024e-05
   7650000   0.049785352   -0.30211408     0.03519201    -0.19224887    -0.00024943403
   7651000   0.049879646   -0.30227685     0.036142909   -0.1913193      0.00017652025
   7652000   0.049804665   -0.30192896     0.035569695   -0.19165709     0.0003809138 
   7653000   0.050067408   -0.30231164     0.035999407   -0.19121597     0.00019363179
   7654000   0.05005919    -0.30220734     0.035921338   -0.19120206    -0.00014675931
   7655000   0.050059148   -0.30195892     0.035812769   -0.19106227     0.00017405882
   7656000   0.049859148   -0.30209846     0.035476006   -0.19183855     3.4195917e-05
   7657000   0.050019999   -0.3016679      0.035616908   -0.19102584    -4.3520568e-05
   7658000   0.050225328   -0.30226235     0.035740141   -0.19118908     0.00031876445
   7659000   0.050457232   -0.30166672     0.035668285   -0.19031747     0.00019762736
   7660000   0.050036047   -0.30221446     0.035568275   -0.19159695    -0.00010010896
   7661000   0.050329679   -0.30203641     0.03572128    -0.19082548     0.00064709586
   7662000   0.049608804   -0.30184717     0.035946593   -0.19149217     0.00011109115
   7663000   0.050211891   -0.30213184     0.036006027   -0.19081284     0.00017843405
   7664000   0.049599608   -0.30185076     0.035606581   -0.19184957     0.00019984792
   7665000   0.050451894   -0.30216409     0.035449376   -0.19104176    -0.00055056469
   7666000   0.050148404   -0.30214952     0.035262777   -0.19166899     1.1079967e-05
   7667000   0.049861503   -0.30221734     0.035282116   -0.1921478     -0.00011392515
   7668000   0.050159897   -0.30188272     0.035681874   -0.19096586     0.00019297714
   7669000   0.05015619    -0.30206381     0.036238201   -0.19059618     3.174938e-05 
   7670000   0.050096452   -0.30193259     0.036161489   -0.19063128    -0.00046594825
   7671000   0.050085584   -0.30198903     0.035722388   -0.19114312     6.9483459e-05
   7672000   0.050058515   -0.30251047     0.035798963   -0.19162858     8.5918278e-05
   7673000   0.049361491   -0.30228412     0.035477031   -0.19276963     0.00019993011
   7674000   0.049654325   -0.30236453     0.036121345   -0.1917665      9.2440766e-05
   7675000   0.050563403   -0.30220828     0.035624561   -0.19074351    -0.00014899503
   7676000   0.049820114   -0.30176789     0.0353469     -0.19169564    -0.000136153  
   7677000   0.049692468   -0.30198579     0.03552444    -0.19192746     3.7399377e-05
   7678000   0.04975448    -0.30228634     0.035932156   -0.19172728    -0.00029054243
   7679000   0.049923719   -0.30172749     0.036135475   -0.19071127     0.00029879282
   7680000   0.050101144   -0.30230848     0.035699418   -0.19146219    -5.1553024e-05
   7681000   0.049273669   -0.30195989     0.03623421    -0.19181995     9.8819227e-05
   7682000   0.050092926   -0.30181022     0.035832694   -0.19084299    -4.3603635e-05
   7683000   0.049559945   -0.30185964     0.035795783   -0.19172873    -8.8143104e-05
   7684000   0.050423864   -0.30199167     0.036151395   -0.19020936    -0.00011829361
   7685000   0.050064448   -0.30210785     0.036102146   -0.19091388     0.00018707249
   7686000   0.049946416   -0.30225804     0.035792178   -0.19155107    -0.00018653758
   7687000   0.050060243   -0.3022718      0.035655527   -0.19153075     6.8914019e-05
   7688000   0.049433514   -0.30239411     0.035781077   -0.19246755     6.7779328e-05
   7689000   0.049677909   -0.30198952     0.035384566   -0.19209289    -0.00013642768
   7690000   0.05024403    -0.30161683     0.035696022   -0.19055963     0.00010722748
   7691000   0.050874967   -0.30219553     0.035885259   -0.19000274    -0.00042411694
   7692000   0.049787819   -0.30224996     0.034772138   -0.19280091     0.00038094131
   7693000   0.049664553   -0.30208755     0.035648395   -0.19194713    -2.8403704e-05
   7694000   0.04950926    -0.30231545     0.03534774    -0.19270861     0.00073926344
   7695000   0.04965809    -0.30232007     0.035302916   -0.19253482    -0.00015423547
   7696000   0.050357385   -0.30228198     0.035797347   -0.19095342     5.6184327e-05
   7697000   0.049708426   -0.30226655     0.035517485   -0.19219124    -0.00065862481
   7698000   0.050393698   -0.30198589     0.03541262    -0.1909876      0.00022734158
   7699000   0.050690189   -0.30224146     0.036163622   -0.19004746     7.1812988e-05
   7700000   0.050997863   -0.3020544      0.036067068   -0.18949547     8.860714e-05 
   7701000   0.050354935   -0.30195661     0.036174669   -0.19025441     0.00017459551
   7702000   0.050210366   -0.30224584     0.035777457   -0.1911577     -0.00014009937
   7703000   0.05018379    -0.30222358     0.034891121   -0.19206163     0.00016618507
   7704000   0.05058493    -0.30182734     0.03587248    -0.19008236    -0.0001612671 
   7705000   0.050081418   -0.30184915     0.036134929   -0.19059694    -0.0002478123 
   7706000   0.050421121   -0.30259129     0.035034245   -0.19193024     1.0451e-05   
   7707000   0.049821823   -0.30211956     0.035691837   -0.19169981     0.00016312961
   7708000   0.050019281   -0.30206788     0.036027699   -0.1910161      0.00019773278
   7709000   0.050300142   -0.30223818     0.035886981   -0.19090585    -0.00024037359
   7710000   0.050465987   -0.30236307     0.035866895   -0.19080208     0.00019970541
   7711000   0.050136205   -0.30224385     0.035673702   -0.19137069     8.5179665e-05
   7712000   0.050363831   -0.30181432     0.035497095   -0.19077635    -0.00018608226
   7713000   0.050659576   -0.30225395     0.036095841   -0.19017365     6.3314957e-05
   7714000   0.050220913   -0.30200172     0.035479589   -0.19119562     9.6147613e-07
   7715000   0.04975061    -0.30205609     0.035777083   -0.1916579      0.00013100032
   7716000   0.049889602   -0.30245263     0.035635011   -0.19198805     8.2228291e-06
   7717000   0.049852685   -0.30182283     0.035088847   -0.19195978     0.0003390666 
   7718000   0.050424976   -0.30191127     0.03574389    -0.19053479     9.7127213e-05
   7719000   0.049973188   -0.30206387     0.035414976   -0.19169395     0.0002424297 
   7720000   0.050260126   -0.3023418      0.035823993   -0.19113248    -0.00047108134
   7721000   0.049674802   -0.30230613     0.035907446   -0.19189129     0.00028482947
   7722000   0.050049681   -0.30266528     0.03585577    -0.19173983     0.00024491877
   7723000   0.049770493   -0.30218348     0.036014262   -0.1915183     -0.00018424286
   7724000   0.049875349   -0.30234318     0.035339418   -0.19219557     0.00028029813
   7725000   0.050068916   -0.30200602     0.035792525   -0.19111497     0.00047721042
   7726000   0.050414969   -0.30241876     0.035592837   -0.19120835     0.00021759613
   7727000   0.050452536   -0.302216       0.035377753   -0.19116432     0.00010079218
   7728000   0.050160308   -0.302021       0.035907842   -0.19087755    -0.00016618291
   7729000   0.05013369    -0.30225939     0.035582532   -0.19148118     0.00011389797
   7730000   0.049907564   -0.30235282     0.035847114   -0.19164919     0.00012545679
   7731000   0.05012419    -0.30184183     0.035053215   -0.19160718    -0.0001490277 
   7732000   0.049984668   -0.30212559     0.035298877   -0.19185455     0.0001918788 
   7733000   0.049285475   -0.30266006     0.035143586   -0.19359303     1.8139876e-05
   7734000   0.049256769   -0.30226798     0.035549609   -0.19283798    -0.00054611855
   7735000   0.049859382   -0.3019335      0.035538703   -0.19161054    -0.000212836  
   7736000   0.049724715   -0.30162401     0.035388886   -0.19165286     0.00013156618
   7737000   0.049999478   -0.30174224     0.035195034   -0.19155283     0.00020455037
   7738000   0.049697917   -0.30208796     0.035750081   -0.19179582     0.0005650613 
   7739000   0.050060477   -0.30235929     0.03550536    -0.19176806    -0.00043164276
   7740000   0.050355721   -0.30243794     0.03567156    -0.19123768    -0.00022956146
   7741000   0.050197485   -0.30220151     0.036121131   -0.19078901    -3.6895213e-05
   7742000   0.05038777    -0.30217945     0.036151342   -0.19045133    -0.00015775878
   7743000   0.050047815   -0.30229395     0.03494739    -0.19227968     0.00050732148
   7744000   0.049749735   -0.30217772     0.035941484   -0.19161645     0.00063805023
   7745000   0.049824666   -0.30198069     0.036043667   -0.19120484    -0.00031718157
   7746000   0.049865353   -0.30224941     0.036168551   -0.19128766     0.00071213984
   7747000   0.050315663   -0.30250599     0.035236438   -0.19180093     0.00018529188
   7748000   0.050260192   -0.30200163     0.03586012    -0.19075608     0.00010818436
   7749000   0.050197285   -0.30261126     0.03637912    -0.19094107     0.00028851944
   7750000   0.050381482   -0.30224608     0.035247991   -0.19143075    -0.00017422656
   7751000   0.050271352   -0.30227795     0.035694533   -0.19118125    -0.00027869617
   7752000   0.049592177   -0.30210334     0.035869363   -0.19185052    -9.6767605e-05
   7753000   0.049550094   -0.30240378     0.035448538   -0.1926349     -0.00037340903
   7754000   0.049731383   -0.30233288     0.035125347   -0.19261528    -0.0001437815 
   7755000   0.049421969   -0.30229864     0.035354437   -0.19281604     0.0002135181 
   7756000   0.050340749   -0.30224618     0.035324902   -0.19141502     0.00025117804
   7757000   0.050805548   -0.30202328     0.036235929   -0.18958394     0.00032747453
   7758000   0.050655822   -0.30174244     0.035895579   -0.18986803     6.4239252e-05
   7759000   0.049830241   -0.30208874     0.035607108   -0.19174109     0.00028231528
   7760000   0.050051138   -0.30178896     0.035372538   -0.19134456     0.00024745042
   7761000   0.050147579   -0.30185484     0.035927648   -0.19071067     0.00015967303
   7762000   0.050326515   -0.30192926     0.034984712   -0.19145965     0.00029911053
   7763000   0.050331743   -0.30203576     0.036005362   -0.19053765    -0.00038532409
   7764000   0.050064175   -0.30156807     0.036032964   -0.19044369     0.000367674  
   7765000   0.0500058     -0.3020383      0.036093554   -0.19094089    -0.00013749292
   7766000   0.05085895    -0.30186779     0.03591777    -0.18966652     0.0003540064 
   7767000   0.049912827   -0.3019606      0.035380747   -0.19171544     0.00021580738
   7768000   0.049799728   -0.30222054     0.035442263   -0.1920835     -0.00018009936
   7769000   0.0497927     -0.30198962     0.035844232   -0.19146115     2.2564769e-06
   7770000   0.050041577   -0.3019362      0.035233093   -0.19164559     0.00016954374
   7771000   0.050657716   -0.30214667     0.035301294   -0.1908637      0.00011810231
   7772000   0.050057758   -0.30181252     0.03545369    -0.19127704     0.00032848503
   7773000   0.050987266   -0.30244958     0.035557233   -0.19041639     0.00030231314
   7774000   0.050607335   -0.30184014     0.03527211    -0.19066192     0.00015418582
   7775000   0.050137617   -0.30216415     0.035988667   -0.19097391    -5.3088673e-05
   7776000   0.050036431   -0.30240332     0.035722583   -0.19163093    -4.3401482e-05
   7777000   0.049577326   -0.30249583     0.035505242   -0.1926294      0.00031402213
   7778000   0.049437512   -0.30202451     0.035402168   -0.19247085     0.00015496611
   7779000   0.049664996   -0.30251216     0.035979238   -0.19204023     0.00033183121
   7780000   0.050239027   -0.30248968     0.035358281   -0.19177773     0.00016723938
   7781000   0.050274282   -0.30253371     0.035811917   -0.19131523     0.00033116922
   7782000   0.05056888    -0.30181645     0.035388209   -0.19057981    -0.00022506693
   7783000   0.050204397   -0.30223879     0.035455438   -0.19148162    -0.00011263641
   7784000   0.049909027   -0.30210915     0.035914153   -0.19133628     0.00044153824
   7785000   0.050509654   -0.30219768     0.035272518   -0.19116556    -0.00017174242
   7786000   0.050211331   -0.30230444     0.035983886   -0.19100842    -0.0002560704 
   7787000   0.049956918   -0.30203873     0.03559706    -0.19151112     6.984658e-05 
   7788000   0.049493351   -0.30236655     0.035585418   -0.1925459      8.2494251e-06
   7789000   0.050058829   -0.30189207     0.035147417   -0.19166126     0.00049579205
   7790000   0.04985914    -0.30208547     0.036227047   -0.19107453    -0.00015945621
   7791000   0.049730485   -0.30174077     0.035805198   -0.19134466     0.00036153899
   7792000   0.049914663   -0.3022589      0.035428355   -0.19196338     0.00018769295
   7793000   0.050261219   -0.30201974     0.035452258   -0.19118051    -0.00038605247
   7794000   0.049732657   -0.30188208     0.035902088   -0.19138582    -0.00018401602
   7795000   0.049860847   -0.30225643     0.035484056   -0.19198593     8.5791838e-05
   7796000   0.049953387   -0.30194205     0.035389091   -0.19162771     0.00028224423
   7797000   0.050292826   -0.3018859      0.035635383   -0.19081615    -0.00024526544
   7798000   0.049697133   -0.30213194     0.036449045   -0.19114201    -0.00023335565
   7799000   0.04999494    -0.30245158     0.035495273   -0.19196873    -0.00012138844
   7800000   0.050301074   -0.30239463     0.035769291   -0.19117859     9.2103536e-05
   7801000   0.050527396   -0.30212342     0.035239304   -0.19109791    -0.00019206946
   7802000   0.050497896   -0.30256628     0.036000087   -0.19082424     7.0481975e-05
   7803000   0.050095309   -0.30200594     0.035546744   -0.19132108    -0.00013761496
   7804000   0.050356406   -0.30233422     0.035885299   -0.19091919    -0.00029109274
   7805000   0.049750449   -0.30203198     0.03585029    -0.19156083    -3.1953311e-05
   7806000   0.04936349    -0.30194081     0.036389291   -0.19151106    -0.00028822807
   7807000   0.049608508   -0.30214514     0.035635133   -0.19210205     0.00068389651
   7808000   0.049918063   -0.30246028     0.035515182   -0.19207284    -0.00020428101
   7809000   0.04995734    -0.30248719     0.036254943   -0.19130107     0.00016600016
   7810000   0.049926776   -0.30231622     0.035949777   -0.19148111     0.0001585979 
   7811000   0.050138736   -0.30247911     0.035596994   -0.19167887     0.00030232135
   7812000   0.049887871   -0.30234395     0.035444719   -0.19207225     6.0210609e-05
   7813000   0.049993309   -0.3020916      0.035649308   -0.19145717     0.00017802717
   7814000   0.050655154   -0.30225485     0.035588927   -0.1906881      0.00016880807
   7815000   0.049838315   -0.30182714     0.035101216   -0.19197327     0.00044408394
   7816000   0.049466346   -0.30207013     0.035316535   -0.19255887    -0.00013107464
   7817000   0.049780489   -0.30259488     0.036012183   -0.19191678    -0.00030560767
   7818000   0.049947132   -0.30217497     0.035644123   -0.19161499    -0.00033445686
   7819000   0.050249342   -0.30216284     0.035556175   -0.19123751     0.00014521504
   7820000   0.050150823   -0.30196478     0.035766683   -0.19097671     0.00028967665
   7821000   0.050069335   -0.30229811     0.035778943   -0.19142001    -9.7810756e-05
   7822000   0.049745068   -0.30204067     0.036231027   -0.19119685    -9.8259112e-05
   7823000   0.049699143   -0.30247604     0.035765091   -0.19216704    -0.00059935991
   7824000   0.049928241   -0.30260198     0.035653818   -0.19206063     0.00023354147
   7825000   0.050159458   -0.30235286     0.035880658   -0.19123787     0.00032811285
   7826000   0.049975652   -0.30234464     0.036270418   -0.19111558    -0.00010255458
   7827000   0.050069665   -0.3020727      0.036367891   -0.19060516     7.2712984e-05
   7828000   0.04978599    -0.30224405     0.035636277   -0.19193361     0.00010196853
   7829000   0.050029801   -0.30242609     0.035875541   -0.19151069     0.00041999215
   7830000   0.049485501   -0.302511       0.035598438   -0.1926891     -0.00015752224
   7831000   0.049730656   -0.30219719     0.035078261   -0.19252776     0.00016550213
   7832000   0.050131961   -0.30253619     0.035488607   -0.19185449     0.00027386645
   7833000   0.050267235   -0.30239205     0.03586094    -0.19113513    -0.00014457078
   7834000   0.049220347   -0.30222417     0.03549295    -0.19290547     0.00031728745
   7835000   0.049341723   -0.30270399     0.036033707   -0.19266248    -0.00030610774
   7836000   0.050148802   -0.30223938     0.034957121   -0.1920639      0.00036582689
   7837000   0.050102291   -0.30226577     0.035796235   -0.19132095     0.00025705445
   7838000   0.050407882   -0.30235022     0.035830464   -0.19091281    -0.00027195929
   7839000   0.049986652   -0.30209679     0.035410178   -0.19171147     0.00019318991
   7840000   0.050209786   -0.30204383     0.036280238   -0.19045377     0.00025722285
   7841000   0.050459493   -0.30230227     0.035161228   -0.19145668    -9.5513592e-05
   7842000   0.050176026   -0.30230676     0.03581344    -0.19123413    -0.00046212974
   7843000   0.050535911   -0.30251262     0.035861822   -0.19085182     0.00013618717
   7844000   0.049771564   -0.30226309     0.035618329   -0.19199223     0.00051539882
   7845000   0.050043837   -0.30239984     0.035212705   -0.19212622    -0.00035046017
   7846000   0.050047783   -0.30252929     0.035497887   -0.19196457    -0.00010642771
   7847000   0.049639633   -0.30244592     0.035372701   -0.19261858     0.00014323047
   7848000   0.050359289   -0.3024272      0.035238284   -0.19165486    -6.3994928e-05
   7849000   0.049670166   -0.30250851     0.03557058    -0.19243749     8.6703001e-05
   7850000   0.049816557   -0.30291076     0.03584371    -0.19234703    -7.7556237e-05
   7851000   0.050239923   -0.30238552     0.035379657   -0.19165084    -6.752965e-05 
   7852000   0.049702809   -0.30259635     0.036220728   -0.19182622    -0.00018808801
   7853000   0.050482317   -0.30261501     0.035760519   -0.1911359      0.0001661192 
   7854000   0.049586609   -0.30250446     0.035677249   -0.19245209     0.000289494  
   7855000   0.049900174   -0.30261926     0.035452089   -0.19232174    -4.5827423e-05
   7856000   0.049188693   -0.30223476     0.035008711   -0.19344777     0.00015789399
   7857000   0.049428761   -0.30257676     0.035638013   -0.19280039    -0.00034158386
   7858000   0.049811933   -0.30256486     0.035673074   -0.19217871     0.00030761599
   7859000   0.049664347   -0.30305066     0.036433278   -0.19212567    -0.00020388658
   7860000   0.049937977   -0.30272353     0.035688429   -0.19213297    -3.9919049e-05
   7861000   0.049642062   -0.30270854     0.035716438   -0.19253382    -0.00027535194
   7862000   0.04979559    -0.3025622      0.035496845   -0.19237679    -4.5300176e-05
   7863000   0.049261582   -0.30259113     0.035703058   -0.19300046     8.430873e-05 
   7864000   0.049633689   -0.30273635     0.035441436   -0.19284918    -2.5376268e-06
   7865000   0.049817166   -0.3025118      0.035407959   -0.19238291     4.3736313e-05
   7866000   0.049592863   -0.30244396     0.035933838   -0.19212563     0.00014233532
   7867000   0.049884791   -0.30280369     0.03560999    -0.19237134    -4.8312229e-05
   7868000   0.049478896   -0.30261549     0.035256315   -0.19314562     0.00016218739
   7869000   0.049961436   -0.30228165     0.035425178   -0.19191915     0.00010692735
   7870000   0.050016409   -0.3023703      0.036142048   -0.19120848    -0.00010684885
   7871000   0.049930667   -0.30253068     0.035906527   -0.19173298    -0.00037721257
   7872000   0.049821365   -0.30236742     0.035893113   -0.19174708    -9.7361864e-05
   7873000   0.049981581   -0.30255485     0.035907569   -0.19167974     4.2027868e-05
   7874000   0.049857225   -0.30245231     0.03510714    -0.19256416     0.00037577946
   7875000   0.049797659   -0.30230116     0.035782421   -0.19182707    -0.00034026357
   7876000   0.049820862   -0.30229396     0.035391091   -0.1921764     -0.00024551428
   7877000   0.050335154   -0.30250167     0.035875128   -0.19112868    -0.00012029636
   7878000   0.050074157   -0.30283885     0.0355187     -0.19221376     0.00031798783
   7879000   0.050022538   -0.30240631     0.035728762   -0.19164858    -3.0742877e-05
   7880000   0.049785542   -0.30214573     0.036289599   -0.19118263    -3.8802778e-05
   7881000   0.050253935   -0.30287651     0.036234351   -0.19126612    -0.0004041018 
   7882000   0.050212854   -0.30226689     0.035768851   -0.19118361     0.00029818963
   7883000   0.050468767   -0.3024763      0.035660784   -0.19111725     0.0003555121 
   7884000   0.049591755   -0.30225486     0.036170753   -0.19170127     0.00010891995
   7885000   0.04981479    -0.3027988      0.035483107   -0.19259832    -0.00019078705
   7886000   0.050160896   -0.30271667     0.034934763   -0.19254542     0.000240431  
   7887000   0.049453036   -0.30266927     0.034920045   -0.19357446     3.7899153e-05
   7888000   0.050266304   -0.30271005     0.034931598   -0.19238386     0.00017350458
   7889000   0.050122862   -0.30224504     0.035429039   -0.19163655     1.2845306e-05
   7890000   0.050412688   -0.30228641     0.035368841   -0.19130341     0.00021392583
   7891000   0.049955595   -0.30242686     0.035655849   -0.19184246     5.6475779e-05
   7892000   0.050477463   -0.30251276     0.035506156   -0.19129529     2.1132784e-05
   7893000   0.05051169    -0.30223537     0.036052172   -0.19042055    -0.0002138881 
   7894000   0.050421348   -0.30227023     0.035520589   -0.1911225      6.7486279e-05
   7895000   0.049643759   -0.30206699     0.035707749   -0.1918984     -0.00011163661
   7896000   0.04942695    -0.30264168     0.035874675   -0.19263136    -5.9683865e-05
   7897000   0.049820941   -0.30271777     0.036240215   -0.19175097    -0.00021523801
   7898000   0.050295374   -0.30259553     0.035497394   -0.19165994    -0.00033710876
   7899000   0.050264997   -0.30271548     0.036077063   -0.19124578    -0.00035962971
   7900000   0.050497898   -0.30270155     0.036311511   -0.19064808     0.00023626305
   7901000   0.049934573   -0.3024133      0.035533502   -0.19198277     0.00024397392
   7902000   0.049775134   -0.30235854     0.035470503   -0.19223015    -2.0382309e-05
   7903000   0.050032665   -0.30240217     0.03502441    -0.1923336      0.00058499385
   7904000   0.04994352    -0.30238772     0.035550386   -0.19192688     0.00041048507
   7905000   0.050141096   -0.30231279     0.03531121    -0.19179479     9.6215397e-05
   7906000   0.049986655   -0.30242779     0.035797563   -0.19165508    -8.1343519e-05
   7907000   0.050261722   -0.30239298     0.035520889   -0.19148437     0.00013947526
   7908000   0.049497692   -0.30238565     0.035722797   -0.19242111     1.3312822e-06
   7909000   0.049555001   -0.30218174     0.035677079   -0.19217696     4.2028425e-05
   7910000   0.050027245   -0.30219074     0.036028122   -0.19112659    -0.00011785415
   7911000   0.050249337   -0.3023903      0.035927085   -0.19109407     0.00033169529
   7912000   0.049985332   -0.30260244     0.036145964   -0.19148331    -0.00054108705
   7913000   0.050468507   -0.30257423     0.035747869   -0.19112849     3.5709218e-05
   7914000   0.050428418   -0.30258638     0.036309853   -0.19063878     0.00035631711
   7915000   0.050257559   -0.30234897     0.035385845   -0.19158165    -0.00019078408
   7916000   0.050267187   -0.30269367     0.034760566   -0.19253719     0.00040634402
   7917000   0.050092424   -0.30258832     0.035942317   -0.19151222     0.00041271363
   7918000   0.04991745    -0.30275891     0.036347282   -0.19154028     0.00032230213
   7919000   0.050072639   -0.30265881     0.035600642   -0.19195405    -0.0001270182 
   7920000   0.049798624   -0.30237581     0.035724179   -0.19195852     3.8117708e-05
   7921000   0.050076587   -0.30292583     0.035032904   -0.19278289     6.9651445e-06
   7922000   0.050023252   -0.30235085     0.035325597   -0.19199521    -8.2871161e-05
   7923000   0.049773841   -0.30236568     0.035741297   -0.19196844     0.000144675  
   7924000   0.049446939   -0.3022967      0.035711286   -0.19241979     0.00018300373
   7925000   0.050197626   -0.30239814     0.036143554   -0.190963       0.00049104765
   7926000   0.050207383   -0.30251942     0.036006763   -0.19120645    -9.6087771e-05
   7927000   0.049885116   -0.30281473     0.03571454    -0.19227734     0.00064120581
   7928000   0.050149781   -0.30249307     0.035441385   -0.19183186     0.00021457113
   7929000   0.049681654   -0.30298878     0.03575352    -0.19271759    -0.00034207424
   7930000   0.049875419   -0.30307665     0.036305711   -0.19196264    -0.00033617663
   7931000   0.050346854   -0.30301951     0.036239838   -0.19126426     0.0002825263 
   7932000   0.050051387   -0.30296618     0.036048586   -0.19184535     2.9761823e-05
   7933000   0.049812438   -0.30265632     0.035784744   -0.19215774     0.00011631307
   7934000   0.050093894   -0.30229367     0.035756496   -0.19140118    -0.00016748487
   7935000   0.050126841   -0.30223756     0.035779962   -0.19127219     0.00026781741
   7936000   0.050326827   -0.30261884     0.035377225   -0.19175624     0.00021948214
   7937000   0.049576258   -0.30293729     0.035349601   -0.1932281      0.00026506621
   7938000   0.050033169   -0.30292991     0.035446933   -0.19243807     7.2602004e-05
   7939000   0.050472488   -0.30262958     0.035823722   -0.19110201     1.6817498e-05
   7940000   0.050162039   -0.30271718     0.035325617   -0.19215336    -3.6205441e-05
   7941000   0.049975531   -0.30274062     0.035874845   -0.19190731    -0.00010206901
   7942000   0.050619128   -0.3027365      0.035362608   -0.19145009     0.00037153156
   7943000   0.05045412    -0.30302364     0.036105804   -0.19124154    -7.5125507e-05
   7944000   0.050177937   -0.30247689     0.035685182   -0.19152966     7.0789936e-05
   7945000   0.049936554   -0.3028216      0.035818157   -0.19210344    -2.8707757e-05
   7946000   0.049539599   -0.30264624     0.035984906   -0.19235673    -0.00048523622
   7947000   0.049452764   -0.30321955     0.03524427    -0.19380092    -0.00016598493
   7948000   0.050415196   -0.30292363     0.03546003    -0.19184568    -0.00017380128
   7949000   0.049934174   -0.30295047     0.035121648   -0.1929324     -6.0238632e-05
   7950000   0.050201153   -0.30298842     0.03577029    -0.19192126     0.00038309707
   7951000   0.05013223    -0.30267232     0.036043156   -0.19143567     0.00032015758
   7952000   0.049686353   -0.30285439     0.035828024   -0.19250164    -0.00045886176
   7953000   0.049403918   -0.3031679      0.035282639   -0.19378417    -7.98863e-05  
   7954000   0.050212979   -0.3027843      0.035930304   -0.19153939     0.00024939608
   7955000   0.049517345   -0.30297442     0.035801437   -0.19290176     0.00015355567
   7956000   0.050149764   -0.30302337     0.035088096   -0.19271548    -0.00023961934
   7957000   0.049851103   -0.30292376     0.035634952   -0.19251698     0.00026927627
   7958000   0.048981212   -0.30299208     0.035589958   -0.19393505     0.00026236688
   7959000   0.050543589   -0.30320406     0.035594907   -0.19179866     7.7101153e-05
   7960000   0.050256591   -0.30233377     0.035624907   -0.19132884    -1.8389643e-05
   7961000   0.050820664   -0.30283211     0.03595922    -0.19064681    -0.00022299976
   7962000   0.049389585   -0.30293304     0.036065409   -0.19278803    -0.0001665899 
   7963000   0.049821786   -0.3031361      0.035460329   -0.19294791    -0.00023911588
   7964000   0.050013207   -0.30296243     0.036081189   -0.19186627    -8.5646634e-05
   7965000   0.050132865   -0.30316244     0.035829596   -0.1921384     -3.7831916e-05
   7966000   0.049777593   -0.30296194     0.035023769   -0.1932766     -0.00025981724
   7967000   0.049624379   -0.30298531     0.03566919    -0.19288436     0.00020815521
   7968000   0.049870284   -0.3027837      0.035145081   -0.19283802     6.2508637e-05
   7969000   0.050216211   -0.30320449     0.03533321    -0.19255182     0.0001540509 
   7970000   0.049453938   -0.30268721     0.035518157   -0.19299294     0.00013715665
   7971000   0.049883233   -0.30245648     0.035352374   -0.19228408     0.00010601725
   7972000   0.050421475   -0.30312838     0.035990024   -0.19151102     0.0002038157 
   7973000   0.050710897   -0.30304775     0.03576145    -0.19122486     0.00039456722
   7974000   0.04969711    -0.30263625     0.035699596   -0.1923958      5.8522569e-05
   7975000   0.049976007   -0.30312668     0.035752635   -0.19241487     0.00019717013
   7976000   0.050591445   -0.30370416     0.035698298   -0.19212359     0.00044648475
   7977000   0.049878005   -0.30319276     0.035756793   -0.19262378    -0.00035418639
   7978000   0.049635784   -0.30334983     0.035526776   -0.19337418     7.423863e-05 
   7979000   0.050061762   -0.30308762     0.03558167    -0.19241815    -0.0002570153 
   7980000   0.050195861   -0.30292589     0.035812665   -0.19182429    -0.00019975833
   7981000   0.050410034   -0.30299504     0.03614399    -0.19124088     0.0001815462 
   7982000   0.050333747   -0.30295163     0.035847332   -0.19160855    -0.00038446339
   7983000   0.049655609   -0.30271257     0.035848721   -0.19238524    -0.00017310013
   7984000   0.049865638   -0.30277878     0.035693711   -0.19229143     8.3847826e-05
   7985000   0.050164625   -0.30329268     0.035619963   -0.19243064    -0.00022914567
   7986000   0.049788133   -0.30288303     0.035967331   -0.19223832     5.4151796e-05
   7987000   0.049591653   -0.30266634     0.035660897   -0.19262276    -0.00032430243
   7988000   0.049956603   -0.30301094     0.035310581   -0.19277029     7.8722122e-05
   7989000   0.050040462   -0.30298        0.03582141    -0.19210274     0.0001532583 
   7990000   0.050084293   -0.30291669     0.035439128   -0.19235597    -0.00022734498
   7991000   0.049924656   -0.30264546     0.035777324   -0.19198598     0.00010535186
   7992000   0.050061469   -0.30293451     0.035808179   -0.19203897    -2.4931351e-05
   7993000   0.050022082   -0.30337497     0.036133197   -0.19221349    -0.0005267027 
   7994000   0.050166198   -0.30296969     0.035699084   -0.19202616    -7.7881928e-05
   7995000   0.049994511   -0.30296974     0.036105638   -0.19187718     0.00024216492
   7996000   0.050000127   -0.30309779     0.035681214   -0.19242122     1.1414839e-05
   7997000   0.050285427   -0.30301491     0.035810524   -0.19178111     0.00031992784
   7998000   0.050030002   -0.30276058     0.035577998   -0.19214242     0.00050533093
   7999000   0.050160912   -0.30263369     0.03579337    -0.19160381     0.00012671268
   8000000   0.050026217   -0.30265662     0.035264418   -0.19235771     0.00038539198
   8001000   0.050153984   -0.30274383     0.035524006   -0.1919937      0.0004322745 
   8002000   0.050500106   -0.30302961     0.035876603   -0.19140773     0.00015260364
   8003000   0.050197899   -0.30320828     0.035640949   -0.19227534     8.4870779e-05
   8004000   0.050032403   -0.30295738     0.035143757   -0.19276986     0.00048412457
   8005000   0.050049205   -0.30268126     0.035986654   -0.19162564     0.00037078174
   8006000   0.050120693   -0.30290603     0.035253113   -0.19247673     0.00020777018
   8007000   0.04968573    -0.30280362     0.03517553    -0.1931043      0.00018313067
   8008000   0.049769703   -0.30330423     0.036085368   -0.19256912    -0.00010359455
   8009000   0.050383113   -0.30288938     0.035618822   -0.19170076     6.3820162e-05
   8010000   0.049926093   -0.30295157     0.035498348   -0.19256891     0.00010671734
   8011000   0.049783022   -0.30264646     0.035411225   -0.19256552     5.3684707e-05
   8012000   0.050056727   -0.30298402     0.036497879   -0.19140589     0.00027819843
   8013000   0.049750289   -0.30292782     0.035518541   -0.19278866    -0.00018504529
   8014000   0.049925861   -0.30331083     0.036118208   -0.19230866     0.00041771763
   8015000   0.050014409   -0.30351574     0.035744795   -0.19275417    -0.00010829614
   8016000   0.050517803   -0.30331648     0.035494504   -0.19205016     0.00054726051
   8017000   0.049809957   -0.30282528     0.035653784   -0.19246139    -0.00019008279
   8018000   0.050269213   -0.30327195     0.036000234   -0.19187276    -0.00041125282
   8019000   0.050451477   -0.30353807     0.036303381   -0.19156236     5.1065289e-05
   8020000   0.049941724   -0.30336686     0.035384651   -0.19307446     0.00030468872
   8021000   0.050258551   -0.30272462     0.035326661   -0.192015       0.00027135128
   8022000   0.049873699   -0.30259628     0.035834406   -0.19195615     0.00020026329
   8023000   0.04993929    -0.3029734      0.035768794   -0.1923005     -2.6172197e-05
   8024000   0.050136017   -0.30321555     0.03554096    -0.19247542     0.0001489788 
   8025000   0.049890709   -0.30322404     0.035755235   -0.19263757     0.00019094351
   8026000   0.04994722    -0.3031476      0.035707954   -0.19252364    -2.276469e-05 
   8027000   0.04948296    -0.30337579     0.035643777   -0.19351236     0.00010360067
   8028000   0.049726192   -0.30311763     0.03540039    -0.19313277     0.00033474326
   8029000   0.049826515   -0.30319541     0.035910743   -0.19254972    -0.0002755194 
   8030000   0.049907345   -0.30311026     0.035689646   -0.19256442     0.00026808037
   8031000   0.049993308   -0.30327876     0.035572555   -0.19272109     0.00045344618
   8032000   0.049554022   -0.30307045     0.035753529   -0.19299068     2.975005e-06 
   8033000   0.049780956   -0.30285124     0.035708527   -0.1924761     -0.00022517932
   8034000   0.050405845   -0.3029727      0.035323847   -0.19204497     0.0001186105 
   8035000   0.049519332   -0.3028723      0.035832867   -0.19276523    -0.00024629525
   8036000   0.050331878   -0.30302813     0.035550436   -0.19198475     7.9337022e-05
   8037000   0.049995715   -0.30327338     0.035163874   -0.19312077    -2.4799461e-05
   8038000   0.050189965   -0.30359068     0.035723533   -0.19258706     0.00032951104
   8039000   0.050084842   -0.3032469      0.035525821   -0.19259866    -0.00023548834
   8040000   0.049996215   -0.30337649     0.036195532   -0.19219147    -8.2744108e-05
   8041000   0.049942131   -0.30301962     0.035882774   -0.19222848    -0.00035973196
   8042000   0.050199869   -0.30301705     0.035735394   -0.19198671    -9.8984807e-05
   8043000   0.050156139   -0.30302896     0.035925318   -0.19187429     0.00019099831
   8044000   0.050129648   -0.30338193     0.035374471   -0.19281784    -0.00018202925
   8045000   0.050358436   -0.30334101     0.036271521   -0.19153671     2.6833896e-05
   8046000   0.05001167    -0.30341601     0.035395824   -0.19300752     0.00032170605
   8047000   0.049387986   -0.30279391     0.035908061   -0.19280865    -0.00027944935
   8048000   0.05017642    -0.30337951     0.035415129   -0.19270461     0.0002741237 
   8049000   0.050536001   -0.30324568     0.036180683   -0.19126588     0.00026246387
   8050000   0.0502529     -0.30284966     0.035694332   -0.19178084    -0.00026689583
   8051000   0.050266014   -0.30310695     0.035733483   -0.19197931     5.1058482e-05
   8052000   0.050075151   -0.30336732     0.036139877   -0.19211956    -0.00036449521
   8053000   0.049267962   -0.3034153      0.035948477   -0.19356965     7.3721031e-06
   8054000   0.050301948   -0.30324904     0.035695725   -0.19210526     0.0005336892 
   8055000   0.049921198   -0.30321019     0.035998489   -0.19233473    -5.0452887e-05
   8056000   0.050089434   -0.30305761     0.035567532   -0.19236078     3.6652679e-05
   8057000   0.049763568   -0.30280671     0.035893148   -0.19227302     0.00031241915
   8058000   0.050377491   -0.30310348     0.035839571   -0.19170254     0.00023330219
   8059000   0.05018949    -0.30314939     0.03560587    -0.19226414     6.3775338e-05
   8060000   0.050330828   -0.30309166     0.035436449   -0.19216384     8.1031439e-05
   8061000   0.050025791   -0.30280454     0.036025607   -0.19174509    -7.2302802e-05
   8062000   0.050367155   -0.3030777      0.035604679   -0.19192716     2.9847494e-05
   8063000   0.050593162   -0.30331964     0.035621159   -0.19181364     0.00034178285
   8064000   0.050505318   -0.30319752     0.036268313   -0.19117611    -0.00066048925
   8065000   0.050075104   -0.30314022     0.035446172   -0.19258623     9.797187e-05 
   8066000   0.049479645   -0.30316651     0.035994387   -0.19295744     0.00021604415
   8067000   0.050014414   -0.30340869     0.035626279   -0.19276563    -0.00017838446
   8068000   0.04947895    -0.30320212     0.036480662   -0.19250782    -0.00026862367
   8069000   0.049939523   -0.30330325     0.035332181   -0.19306662     0.00022162342
   8070000   0.050055516   -0.30332853     0.035706961   -0.19254314     0.0001771519 
   8071000   0.050258517   -0.3034847      0.035844617   -0.19225717    -0.00037658943
   8072000   0.05006095    -0.3033675      0.03575034    -0.19253058     0.00015539322
   8073000   0.049937872   -0.30328555     0.035882214   -0.19250136     0.00036449879
   8074000   0.050065334   -0.30361215     0.035414353   -0.19310465     0.00011804087
   8075000   0.049663331   -0.30294528     0.036153933   -0.19230116    -5.8597814e-05
   8076000   0.049858941   -0.30353336     0.035643137   -0.19310664    -6.2453054e-05
   8077000   0.04959397    -0.30376938     0.035922677   -0.19346055     0.00010490605
   8078000   0.050033885   -0.30293094     0.035338357   -0.1925466     -9.362254e-05 
   8079000   0.049815345   -0.30304508     0.035779955   -0.19254693     0.00034066819
   8080000   0.050336607   -0.30333515     0.035514213   -0.1923209      5.3405772e-05
   8081000   0.050593954   -0.30321512     0.035481976   -0.19184711     0.00011740708
   8082000   0.050006037   -0.30342105     0.03531248    -0.19310436     8.1274872e-05
   8083000   0.050045922   -0.30338626     0.035479163   -0.19284305    -0.00020145564
   8084000   0.049935171   -0.30293254     0.03567876    -0.19235586     0.00019484054
   8085000   0.049900087   -0.30315954     0.035675206   -0.19263903     5.8458706e-05
   8086000   0.04955264    -0.30265424     0.035848255   -0.19248182    -3.5005053e-05
   8087000   0.049752314   -0.30306638     0.035423163   -0.19301956     0.00033051356
   8088000   0.049702287   -0.30360291     0.035875755   -0.19317854    -0.00042919266
   8089000   0.050041013   -0.30321269     0.035418762   -0.19273725    -3.0480714e-05
   8090000   0.050579888   -0.30359335     0.035769528   -0.19195889     0.00046850857
   8091000   0.050293093   -0.30359969     0.036310409   -0.19185451    -0.00047573657
   8092000   0.049554501   -0.30327111     0.035720259   -0.19322389    -4.872908e-05 
   8093000   0.049981968   -0.30325878     0.035608759   -0.1926819     -0.00016342005
   8094000   0.049935208   -0.30331983     0.034841676   -0.19358018     0.00035260405
   8095000   0.049696612   -0.30320472     0.035786881   -0.19287773     0.00010485834
   8096000   0.049882817   -0.30368096     0.036006897   -0.19285467    -0.00034988806
   8097000   0.049588875   -0.30325091     0.03555564    -0.19331676    -8.3639351e-05
   8098000   0.049899931   -0.30353468     0.035014952   -0.19367466    -0.00020460357
   8099000   0.049801242   -0.30349844     0.03537513    -0.19342627     0.00011335081
   8100000   0.049942978   -0.30369453     0.035748929   -0.19303597    -0.00016617687
   8101000   0.049843951   -0.30349463     0.035533342   -0.19320018     0.00010849401
   8102000   0.050359192   -0.30346651     0.035117936   -0.19281466     0.00013935855
   8103000   0.050057383   -0.30358185     0.035829727   -0.1926709     -2.6909418e-05
   8104000   0.050097278   -0.30371814     0.035249218   -0.19332786     4.3455539e-05
   8105000   0.050510046   -0.30296099     0.035374435   -0.19182638     0.00037375133
   8106000   0.049347021   -0.30326017     0.036186588   -0.19305783     1.9317067e-05
   8107000   0.050035132   -0.30363913     0.035971776   -0.19261949    -0.00010556459
   8108000   0.050319136   -0.30332881     0.035991079   -0.1918639      0.00013707038
   8109000   0.050071281   -0.30326189     0.03543143    -0.19272839     0.00025180586
   8110000   0.050105717   -0.30339707     0.03543678    -0.19280656    -0.00020406194
   8111000   0.049792459   -0.30364922     0.036088479   -0.19287688    -0.0004534307 
   8112000   0.049741167   -0.30353664     0.034816369   -0.19411333    -0.00014869534
   8113000   0.050182701   -0.30356241     0.035987093   -0.19230613    -0.0001728168 
   8114000   0.050114323   -0.30333016     0.035549288   -0.19261424    -0.00023068132
   8115000   0.049812295   -0.30332861     0.03620589    -0.1924091      0.00055164155
   8116000   0.050645181   -0.30342442     0.03636042    -0.19110113    -0.00023493399
   8117000   0.050394859   -0.30325183     0.035654158   -0.19201027    -0.00017758437
   8118000   0.049888549   -0.30356913     0.035990319   -0.19275082    -0.0003094978 
   8119000   0.050108655   -0.30383745     0.035445427   -0.19323389    -1.748524e-05 
   8120000   0.049805452   -0.30359107     0.035696735   -0.19319098    -0.00036403995
   8121000   0.049998484   -0.30315354     0.035458088   -0.19270256     0.00045473352
   8122000   0.049927666   -0.30352433     0.035288751   -0.19334891     0.00011512392
   8123000   0.050011837   -0.30331814     0.03577817    -0.19252705     0.00022948127
   8124000   0.049689695   -0.3036689      0.035643187   -0.19349598     0.00031268542
   8125000   0.049956785   -0.30375099     0.035532673   -0.19328798    -3.3521683e-05
   8126000   0.050107562   -0.30310909     0.034933702   -0.1930189      0.0008076059 
   8127000   0.049703095   -0.30340688     0.036183223   -0.19267383    -0.00018612568
   8128000   0.050652523   -0.30343545     0.035879143   -0.19158243    -0.0002538984 
   8129000   0.049815302   -0.30311428     0.035764826   -0.19263132     4.2942636e-06
   8130000   0.050144215   -0.30361748     0.036390803   -0.19201521     0.0002400764 
   8131000   0.049902106   -0.30335013     0.036067553   -0.19243424    -0.0005335448 
   8132000   0.050041055   -0.3032861      0.034911905   -0.19331746     8.6434152e-05
   8133000   0.049870624   -0.30353925     0.035597855   -0.19314029    -0.00020468559
   8134000   0.050663912   -0.3033991      0.035794      -0.19161414     0.00026728454
   8135000   0.050170448   -0.30353224     0.035647856   -0.19263357     0.00040898845
   8136000   0.049975212   -0.30345615     0.035202121   -0.19329604    -0.00042390979
   8137000   0.049852119   -0.3034721      0.035901646   -0.1927971     -0.00014976906
   8138000   0.050290605   -0.30323592     0.035424826   -0.19238005     0.00013330513
   8139000   0.050165502   -0.30308247     0.035387877   -0.1924512      0.00037540166
   8140000   0.050406911   -0.30330754     0.035784862   -0.19191719     0.00015233956
   8141000   0.049768427   -0.30364332     0.03603935    -0.19295614    -9.7805282e-05
   8142000   0.050222172   -0.30366108     0.035374772   -0.19295791     0.00049124755
   8143000   0.049950119   -0.30369039     0.035429847   -0.1933402     -0.00028338986
   8144000   0.049213223   -0.30364651     0.03550233    -0.19432911    -3.9085978e-05
   8145000   0.050075006   -0.30365952     0.034876673   -0.19367518     0.00031991198
   8146000   0.049815149   -0.30378954     0.035711231   -0.19336041    -0.00024532569
   8147000   0.050063637   -0.30360891     0.035258259   -0.19326004    -0.00032213192
   8148000   0.050191112   -0.30350804     0.03553741    -0.19268882    -0.00025194718
   8149000   0.049725041   -0.30326803     0.03559191    -0.19309337     9.4476701e-05
   8150000   0.050571529   -0.3034923      0.035670311   -0.19196959     7.4417038e-06
   8151000   0.050073514   -0.30388569     0.0357298     -0.19305046     9.1219204e-05
   8152000   0.049932802   -0.30353506     0.036397171   -0.19224351    -0.0003674172 
   8153000   0.050510171   -0.30330355     0.035825663   -0.19171752    -7.7663565e-05
   8154000   0.05070774    -0.30373497     0.036050862   -0.1916274     -0.0001148675 
   8155000   0.050073434   -0.30312963     0.035376556   -0.19264777     5.0964892e-05
   8156000   0.050704593   -0.30324485     0.035593329   -0.19159954    -0.00035500107
   8157000   0.050150098   -0.30351303     0.035815413   -0.19247733    -0.0001745027 
   8158000   0.049868369   -0.3033372      0.035946643   -0.19259283    -2.4724059e-05
   8159000   0.050335677   -0.30333045     0.035694488   -0.19213732     0.0003800952 
   8160000   0.050026673   -0.30349405     0.035862722   -0.19259616    -6.4241039e-05
   8161000   0.050278958   -0.30369614     0.035633418   -0.19264915    -0.00030971215
   8162000   0.050152051   -0.30369182     0.036019186   -0.19244941    -0.0003440794 
   8163000   0.050006329   -0.30376967     0.035798373   -0.19296664     0.00018984616
   8164000   0.050152312   -0.30348458     0.035298496   -0.19296247     0.00013676748
   8165000   0.049729703   -0.30361516     0.036276702   -0.19274871     0.00010731271
   8166000   0.0501918     -0.30403144     0.035563811   -0.19318479    -2.5691235e-05
   8167000   0.050269759   -0.30385098     0.035796815   -0.19265439    -0.00032584402
   8168000   0.050156076   -0.30333228     0.03619545    -0.19190757    -7.9674962e-05
   8169000   0.050027183   -0.30387418     0.035473423   -0.19336483    -0.00036893227
   8170000   0.049889756   -0.30371169     0.035259472   -0.19362241     0.00024167592
   8171000   0.049330897   -0.30370874     0.035919778   -0.19379739    -0.0001383406 
   8172000   0.049732693   -0.30375733     0.035408124   -0.19375498    -3.1026942e-05
   8173000   0.050484459   -0.3036213      0.03628643    -0.19161307     8.281217e-05 
   8174000   0.049885146   -0.30346158     0.03588259    -0.1927561     -0.00014903615
   8175000   0.049663033   -0.3035353      0.035410938   -0.19363462    -0.00030861716
   8176000   0.049713865   -0.3032843      0.035737129   -0.19298119     0.00042039828
   8177000   0.050166897   -0.30353663     0.035693778   -0.19259736     0.0002707305 
   8178000   0.049595998   -0.30353823     0.035597193   -0.19355184    -0.00012990767
   8179000   0.049805815   -0.30338356     0.035328617   -0.19335104     0.00031035402
   8180000   0.050066749   -0.30337888     0.036251192   -0.19203241     9.6703767e-05
   8181000   0.049612819   -0.30331079     0.035080786   -0.19381558    -0.00010043594
   8182000   0.049836189   -0.30365025     0.035102309   -0.19379848     7.00347e-05  
   8183000   0.049677742   -0.30373467     0.035291793   -0.19393107     4.2236597e-05
   8184000   0.050040504   -0.30355091     0.036030896   -0.1924641     -1.4344641e-05
   8185000   0.049922351   -0.3036268      0.036023071   -0.19272503     0.0002444908 
   8186000   0.050062124   -0.30340832     0.035118571   -0.19320141     0.00020382181
   8187000   0.050407131   -0.30370416     0.036377623   -0.19172072    -0.00014974938
   8188000   0.050474957   -0.30357885     0.03553844    -0.19233286    -0.00035090029
   8189000   0.049852752   -0.30336562     0.035548189   -0.19304313     7.7421483e-07
   8190000   0.049712925   -0.30380551     0.035901482   -0.19333945     1.0999104e-05
   8191000   0.05028284    -0.30346879     0.03568542    -0.19236397     0.00028194666
   8192000   0.050084367   -0.3036541      0.035595078   -0.19293732     0.00030790141
   8193000   0.050126449   -0.30359669     0.035211675   -0.19320019    -0.00017600525
   8194000   0.050554874   -0.30324497     0.034937165   -0.19248039     4.9126505e-05
   8195000   0.04978973    -0.30325584     0.035976745   -0.19259932    -0.00012542964
   8196000   0.049934602   -0.30373076     0.035833208   -0.19300048    -5.7143033e-06
   8197000   0.050327232   -0.30337185     0.035544439   -0.19234143    -3.3757837e-05
   8198000   0.050185913   -0.30347828     0.036145887   -0.19205838    -0.00013237281
   8199000   0.05052674    -0.30327548     0.034989764   -0.1925005      0.00033567866
   8200000   0.049828045   -0.30347358     0.036270517   -0.19246582     0.00024557368
   8201000   0.050427303   -0.30370262     0.035655547   -0.192411       0.00011150205
   8202000   0.050177688   -0.30401702     0.035630961   -0.19312438     0.00018267584
   8203000   0.049582205   -0.30399437     0.036150426   -0.19347543    -0.00023577114
   8204000   0.050508272   -0.3038714      0.035853497   -0.19226039     0.00049126001
   8205000   0.049948004   -0.30369606     0.035726735   -0.19305215    -7.6355224e-06
   8206000   0.049758943   -0.30379936     0.035436      -0.19372976     0.00014601985
   8207000   0.04947938    -0.30371662     0.035524942   -0.1939774      0.00030289833
   8208000   0.049712787   -0.30395323     0.036285231   -0.19310363    -0.0003355145 
   8209000   0.050684671   -0.30401501     0.036237851   -0.19175505     0.00017963109
   8210000   0.050484186   -0.30401681     0.03577401    -0.19252141    -0.0004308108 
   8211000   0.050126089   -0.30391813     0.035044766   -0.19368908     0.00053668755
   8212000   0.050005879   -0.30361756     0.035268159   -0.19334542     0.00031612129
   8213000   0.04996433    -0.30399816     0.03559937    -0.19345713    -0.00013267924
   8214000   0.050539465   -0.3038957      0.035779669   -0.19231173     0.00018125608
   8215000   0.05040647    -0.30400647     0.035360299   -0.19304134    -0.00018591727
   8216000   0.050223777   -0.30372795     0.035607775   -0.19278937     3.1661521e-05
   8217000   0.05023236    -0.30349707     0.035592628   -0.19256076     0.00046303063
   8218000   0.049793378   -0.30383155     0.036027512   -0.19311879    -0.00013092453
   8219000   0.050432629   -0.30391439     0.03589778    -0.19237255    -8.4278607e-05
   8220000   0.050142458   -0.30382627     0.035527897   -0.19308954     9.4188586e-06
   8221000   0.050274189   -0.30394501     0.035075393   -0.19346319     0.00049789325
   8222000   0.049761777   -0.30381114     0.03586802    -0.19330527     0.00010684563
   8223000   0.050078361   -0.30363683     0.035326327   -0.19319781     0.0004431561 
   8224000   0.049790495   -0.30351408     0.035456589   -0.19337657     0.00017049797
   8225000   0.04942304    -0.30389178     0.035951892   -0.19381011    -0.00010946015
   8226000   0.049857427   -0.30402702     0.035325675   -0.19392003     9.6366028e-05
   8227000   0.050105906   -0.30368125     0.035785209   -0.19274203     0.00045826999
   8228000   0.049753525   -0.30377554     0.035463169   -0.1936869      0.00030683903
   8229000   0.049763627   -0.30383445     0.03564682    -0.19354701     0.00028681562
   8230000   0.049879829   -0.30359666     0.035570048   -0.19321169    -1.2041796e-05
   8231000   0.049844      -0.30375219     0.035728238   -0.19326277     0.00015711327
   8232000   0.049526794   -0.30378831     0.035765746   -0.19373716    -0.00035138673
   8233000   0.04976632    -0.30387354     0.035889361   -0.19333952    -0.00057328082
   8234000   0.050106764   -0.30377477     0.034971743   -0.19364773     0.00048201544
   8235000   0.049452685   -0.30392407     0.035292344   -0.19445749     3.4903449e-05
   8236000   0.049913258   -0.30384201     0.035326683   -0.19365027     0.00029855293
   8237000   0.049918138   -0.30396277     0.035780641   -0.19330975    -0.00022094189
   8238000   0.049696345   -0.30406394     0.035337384   -0.19418685     0.00014759029
   8239000   0.050039342   -0.30375868     0.035630092   -0.19307442     0.0001329626 
   8240000   0.050354177   -0.30428095     0.035947588   -0.19280697    -0.00054775778
   8241000   0.050409237   -0.30413371     0.035994339   -0.19253039    -8.9074562e-05
   8242000   0.049877412   -0.30388844     0.03554209    -0.19353506     0.00066251245
   8243000   0.049640914   -0.3038727      0.035981774   -0.19343436     0.00025931141
   8244000   0.050484895   -0.30413329     0.035622689   -0.19278814     0.0001203063 
   8245000   0.049089195   -0.30408507     0.036106029   -0.19435        7.4534818e-05
   8246000   0.049712835   -0.30423041     0.035363973   -0.19430199     0.00025305   
   8247000   0.049648466   -0.3038787      0.035636891   -0.19377392    -0.00019621944
   8248000   0.049837684   -0.30360951     0.035745464   -0.19311234     0.00012028377
   8249000   0.050456883   -0.30373812     0.035157502   -0.19290018     8.0716796e-05
   8250000   0.049969281   -0.30385724     0.035746144   -0.19316201     0.00041057253
   8251000   0.050329643   -0.30416188     0.036032049   -0.19264024    -0.00010569359
   8252000   0.050043852   -0.30375806     0.036223715   -0.19247341     0.00022456339
   8253000   0.049902283   -0.30330479     0.036255582   -0.19220061    -0.00011521239
   8254000   0.050024433   -0.30438918     0.036127043   -0.19323033    -0.00020915266
   8255000   0.049715597   -0.30434759     0.036080726   -0.19369828    -0.00020556998
   8256000   0.049923489   -0.3041459      0.03518131    -0.19408419    -0.00034515262
   8257000   0.049420839   -0.30452064     0.035435002   -0.19495916    -4.1787011e-05
   8258000   0.050011176   -0.30424585     0.035321933   -0.19391199    -0.00016007343
   8259000   0.050083513   -0.30428185     0.035328317   -0.19383311     0.00011476059
   8260000   0.04963906    -0.30414032     0.035363094   -0.19432343    -0.00021931846
   8261000   0.049751339   -0.30399711     0.035816662   -0.19355825    -2.5482011e-06
   8262000   0.050064934   -0.30409301     0.035346635   -0.19365382     6.0665289e-05
   8263000   0.050000078   -0.30434381     0.035271794   -0.19407674    -0.0004178501 
   8264000   0.050192316   -0.30391078     0.035444563   -0.1931826      0.00015965446
   8265000   0.04996602    -0.30429618     0.035644903   -0.19370709    -0.00012439087
   8266000   0.050457277   -0.30386254     0.035494443   -0.19268706     9.8124052e-05
   8267000   0.050494836   -0.30400505     0.035961805   -0.19230588    -0.00014107656
   8268000   0.050643211   -0.30445912     0.035732062   -0.19276714     0.00041853649
   8269000   0.049983911   -0.30413681     0.035017981   -0.1941478      0.00020502105
   8270000   0.049506065   -0.30407237     0.034856205   -0.19496186    -0.00041528523
   8271000   0.049692918   -0.30407548     0.035379139   -0.19416177    -7.6496803e-05
   8272000   0.049843128   -0.30407759     0.035396749   -0.19392097    -3.7802816e-05
   8273000   0.049824696   -0.30445385     0.035441216   -0.19428041     4.6868109e-05
   8274000   0.048917495   -0.30391728     0.035814283   -0.19473149    -0.00030818406
   8275000   0.050013292   -0.30393098     0.035604324   -0.19331156     6.9279777e-05
   8276000   0.050545302   -0.30436028     0.035443692   -0.19310353     0.00037250344
   8277000   0.050122427   -0.30438605     0.035934212   -0.19327304    -0.00011966258
   8278000   0.050324404   -0.30451179     0.03630195    -0.1927281      0.00018447048
   8279000   0.050237496   -0.30435544     0.03563687    -0.19336719     0.00023019097
   8280000   0.049747215   -0.30446091     0.036044242   -0.19380066     6.9183238e-05
   8281000   0.049606191   -0.30412303     0.035491133   -0.19422741    -9.2044291e-05
   8282000   0.049947309   -0.3037788      0.036026919   -0.19283575     0.00010252193
   8283000   0.050693185   -0.30442975     0.03578877    -0.19260611     0.00037045727
   8284000   0.050041465   -0.30383469     0.036292416   -0.19248492     0.00032311088
   8285000   0.050212008   -0.30423617     0.035940272   -0.19298275    -6.3461962e-05
   8286000   0.049498064   -0.30406326     0.035720874   -0.19410008    -0.0003672446 
   8287000   0.049844678   -0.304318       0.035633002   -0.19392281    -0.00020679037
   8288000   0.049660054   -0.30414608     0.036001756   -0.19365905    -6.3133061e-05
   8289000   0.049991276   -0.30475316     0.035740614   -0.19403046    -0.00019637689
   8290000   0.050286156   -0.30421428     0.035465037   -0.19332487     0.00033027966
   8291000   0.049823852   -0.30420561     0.035242068   -0.19423258    -0.00031578214
   8292000   0.049965833   -0.30455577     0.035625237   -0.19398662     0.00043666222
   8293000   0.05042208    -0.30411685     0.03526656    -0.19322205     0.00047047146
   8294000   0.050051999   -0.30366798     0.03578066    -0.19281417     2.4136463e-06
   8295000   0.05041108    -0.30438308     0.035613324   -0.19315802    -5.8383371e-05
   8296000   0.050064897   -0.30421926     0.035923847   -0.19320292    -0.00017586695
   8297000   0.050363598   -0.30395891     0.035680722   -0.19273766     2.6043212e-05
   8298000   0.050841725   -0.30431304     0.035622074   -0.1924333      4.255454e-05 
   8299000   0.050634837   -0.30446805     0.035435658   -0.19308503     9.5357267e-05
   8300000   0.049367802   -0.30428701     0.03569594    -0.19454414    -5.0572085e-05
   8301000   0.049563781   -0.30440475     0.035756975   -0.1943069     -0.00010951514
   8302000   0.050137536   -0.30429719     0.035795225   -0.19330052    -2.7960854e-05
   8303000   0.050294496   -0.30435406     0.036134934   -0.19278225     0.00018539853
   8304000   0.049975894   -0.30436291     0.035551245   -0.19385266    -8.4570445e-05
   8305000   0.049609524   -0.30447581     0.034989101   -0.19507722     7.6800213e-05
   8306000   0.05011148    -0.30439242     0.035942732   -0.19328731     2.0054518e-05
   8307000   0.049704218   -0.30431667     0.035192205   -0.19457295     1.1044104e-05
   8308000   0.049739266   -0.30443564     0.035507625   -0.19432393    -0.00086041109
   8309000   0.049478315   -0.30413304     0.035458767   -0.19446159     1.9856465e-05
   8310000   0.049684872   -0.30429085     0.03554627    -0.19422208    -0.00028986735
   8311000   0.049537404   -0.30428205     0.035734668   -0.19424607     0.00037248283
   8312000   0.05023603    -0.3042173      0.035054692   -0.19381342     2.84702e-05  
   8313000   0.050222918   -0.30435874     0.035603974   -0.19342525     7.8083446e-05
   8314000   0.049894451   -0.30389587     0.035073373   -0.19398565    -0.00022955938
   8315000   0.049963645   -0.30414203     0.035390352   -0.19381104     7.577093e-05 
   8316000   0.050124576   -0.30435921     0.035496818   -0.19368037    -5.4935578e-05
   8317000   0.049784643   -0.30426987     0.03563402    -0.1939637      2.8921056e-05
   8318000   0.04969864    -0.30457578     0.03560328    -0.19442935    -0.00012271231
   8319000   0.049571351   -0.30431587     0.036409339   -0.1935543     -8.629762e-05 
   8320000   0.049709387   -0.30451454     0.035987373   -0.1939679      0.00031019986
   8321000   0.049749191   -0.30450294     0.03542719    -0.19445678    -8.0126219e-05
   8322000   0.049620871   -0.30434709     0.035266846   -0.19465374    -0.00015626035
   8323000   0.050112763   -0.30429007     0.035594176   -0.1935316      4.5701807e-05
   8324000   0.050222666   -0.3042907      0.035354716   -0.19360684    -0.00062262511
   8325000   0.049865131   -0.30456747     0.036043956   -0.19373064    -7.0155944e-05
   8326000   0.050151911   -0.30450991     0.035802282   -0.19348461     0.00031697585
   8327000   0.049824346   -0.30438418     0.036263431   -0.19338905     3.7134432e-05
   8328000   0.04968244    -0.30450089     0.03579787    -0.19418417     0.00014398689
   8329000   0.050161228   -0.30421235     0.035524278   -0.19345109    -0.00012252327
   8330000   0.05026748    -0.30398822     0.035487215   -0.19310465     0.00062637965
   8331000   0.050330021   -0.303972       0.036119767   -0.19236207    -0.0002087955 
   8332000   0.050249874   -0.30413985     0.035776325   -0.19299358     0.00015035869
   8333000   0.050259731   -0.30465267     0.035735145   -0.19353279    -5.6600411e-05
   8334000   0.050419815   -0.30431827     0.036504361   -0.19218906     0.00016914238
   8335000   0.049721086   -0.30434317     0.036045323   -0.19372103     0.00010123542
   8336000   0.049763236   -0.30449928     0.036257111   -0.19360213     8.4992441e-05
   8337000   0.050256356   -0.30431105     0.035296387   -0.19363499    -0.00013510079
   8338000   0.049893717   -0.30424258     0.035679227   -0.19372761    -0.00036841689
   8339000   0.050480399   -0.30427461     0.035322674   -0.19323623    -0.00025884459
   8340000   0.050315923   -0.30441807     0.036629066   -0.19231999     0.00019410868
   8341000   0.049766477   -0.30457338     0.035191242   -0.19473724     0.00034842231
   8342000   0.049781557   -0.30462662     0.036093604   -0.1938655      5.6860539e-05
   8343000   0.049557704   -0.30452847     0.036036647   -0.19416006    -0.00025688399
   8344000   0.050337753   -0.30465519     0.035472777   -0.19368065    -6.9155335e-05
   8345000   0.050438633   -0.30455035     0.035851742   -0.19304554    -0.00016858169
   8346000   0.050130479   -0.30431362     0.035819284   -0.19330347     0.00014951855
   8347000   0.049808001   -0.30468236     0.03576611    -0.19420906     3.8030381e-05
   8348000   0.050402054   -0.30473357     0.035396464   -0.1937389      0.00025765629
   8349000   0.049808666   -0.30458675     0.035776383   -0.19410219    -0.0002756191 
   8350000   0.049302291   -0.30459375     0.035305981   -0.1953391     -2.7496702e-05
   8351000   0.049834527   -0.30421222     0.035326499   -0.19413875    -9.6733481e-05
   8352000   0.05006068    -0.30481731     0.035548093   -0.19418304    -0.00049220771
   8353000   0.049615129   -0.30463233     0.035626089   -0.19458835    -1.8917063e-05
   8354000   0.049530601   -0.30457999     0.035776903   -0.19451198     8.7420689e-05
   8355000   0.049772967   -0.30479916     0.035454423   -0.1946901      7.8136386e-06
   8356000   0.049235812   -0.30474006     0.036521867   -0.19436924    -7.8560476e-05
   8357000   0.050405863   -0.30476056     0.03572006    -0.19343658    -0.00021941437
   8358000   0.050058915   -0.30419986     0.035877361   -0.19323897     0.00049981096
   8359000   0.049906977   -0.30457835     0.035979391   -0.19374332    -9.9554603e-05
   8360000   0.049499492   -0.30473234     0.035189924   -0.19529796     3.8526024e-05
   8361000   0.050219753   -0.30474841     0.036148011   -0.19327563     0.00028996866
   8362000   0.050088597   -0.30452441     0.03587853    -0.19351783     5.158433e-05 
   8363000   0.050629387   -0.30456132     0.036183806   -0.19243834     0.00030751051
   8364000   0.050275582   -0.30453215     0.036037737   -0.19308591    -2.1264998e-05
   8365000   0.049801774   -0.30433808     0.035634536   -0.19400571     0.00039521887
   8366000   0.049270604   -0.30448301     0.035526116   -0.19505575    -0.00020660204
   8367000   0.049991168   -0.30490862     0.035579394   -0.19434731    -7.9097411e-05
   8368000   0.049622222   -0.30458578     0.035831667   -0.19432559     0.00010693268
   8369000   0.049873212   -0.30445108     0.035965744   -0.19368034    -4.0136733e-05
   8370000   0.049864343   -0.30426178     0.035688602   -0.19378149    -0.00015320745
   8371000   0.050437547   -0.30429684     0.035325155   -0.19332025     0.00011217291
   8372000   0.050846231   -0.30470436     0.035965347   -0.19247459    -4.684401e-05 
   8373000   0.049703242   -0.30449199     0.035293323   -0.19464862    -0.00049349369
   8374000   0.049904512   -0.30458289     0.03523173    -0.19449922     4.3131541e-05
   8375000   0.050426112   -0.30444963     0.035731667   -0.19308367     0.00029784855
   8376000   0.050414613   -0.30430172     0.035518171   -0.1931665      0.00032185504
   8377000   0.050436668   -0.30449602     0.036248927   -0.19259697    -0.00030272996
   8378000   0.050416867   -0.3045432      0.035464707   -0.19345807     0.00024356001
   8379000   0.050158702   -0.30471928     0.035917571   -0.19356851    -0.00020571951
   8380000   0.049985327   -0.3045994      0.035517196   -0.19410905    -0.00013858932
   8381000   0.049316273   -0.30452088     0.035424119   -0.19512712    -2.4662681e-05
   8382000   0.049630764   -0.30441646     0.035302824   -0.19467229     0.00021355621
   8383000   0.049339084   -0.30471428     0.035454065   -0.19525636    -0.00045087273
   8384000   0.049481883   -0.30486691     0.035715811   -0.19493307    -0.00047606638
   8385000   0.050368671   -0.30462388     0.035414166   -0.19366158     3.2345183e-05
   8386000   0.0499664     -0.30453617     0.035621081   -0.19397032     0.00024827887
   8387000   0.050072855   -0.30467609     0.036095636   -0.19347601    -9.8006532e-05
   8388000   0.049840054   -0.30442569     0.035924042   -0.19374639    -4.0342224e-05
   8389000   0.049714768   -0.3042664      0.036112251   -0.19358681    -0.00034223589
   8390000   0.050189879   -0.30431838     0.035508252   -0.19353017     3.0167855e-05
   8391000   0.050101323   -0.30424339     0.036057647   -0.19303861     0.00022890931
   8392000   0.050291826   -0.30453468     0.035757403   -0.19334441    -0.00013620487
   8393000   0.050001516   -0.30439571     0.036184258   -0.19321402    -0.00058315721
   8394000   0.049741899   -0.30472764     0.035289103   -0.19483051    -5.2749429e-06
   8395000   0.050280767   -0.30482681     0.036054621   -0.19335591     0.00025669433
   8396000   0.050318431   -0.30465924     0.035659623   -0.19352684    -2.5385314e-06
   8397000   0.049983805   -0.30469385     0.035996096   -0.19372688     0.00019378992
   8398000   0.050092528   -0.30452668     0.035704607   -0.19368813    -2.0044585e-05
   8399000   0.049994803   -0.30508542     0.035590151   -0.1945079     -9.6957223e-05
   8400000   0.050311073   -0.30471307     0.035134639   -0.19411669     2.2993371e-05
   8401000   0.049936221   -0.30450024     0.036085832   -0.19351491    -6.1449202e-05
   8402000   0.050196434   -0.30448563     0.03592464    -0.19327119    -0.00042581604
   8403000   0.049915329   -0.30460946     0.035214528   -0.19452677     0.00027772197
   8404000   0.05078523    -0.30503878     0.035275382   -0.19359046    -2.7094624e-05
   8405000   0.050027266   -0.30459837     0.035747851   -0.19381446    -0.00035938907
   8406000   0.050259425   -0.30464672     0.036186378   -0.19307607     7.5787656e-05
   8407000   0.0502839     -0.30490735     0.03622873    -0.19325764    -0.00022536085
   8408000   0.050214591   -0.30505095     0.035891058   -0.19384286    -0.0001659864 
   8409000   0.049889679   -0.30441269     0.035407607   -0.19417539    -9.5533762e-05
   8410000   0.049348087   -0.30465927     0.035990048   -0.19465187    -1.7906323e-05
   8411000   0.050061057   -0.30453454     0.035742355   -0.19370544     0.00035770199
   8412000   0.049875288   -0.3044634      0.036276959   -0.19337834    -0.00043924736
   8413000   0.05024471    -0.30487774     0.036138673   -0.19337686     0.0001939624 
   8414000   0.049967554   -0.30488387     0.035339936   -0.19459744     0.00011408706
   8415000   0.049859354   -0.30484721     0.035275129   -0.19478788     0.00010848238
   8416000   0.049965547   -0.30497134     0.035935854   -0.194092       0.00021025664
   8417000   0.049990945   -0.30461271     0.036383738   -0.19324739    -0.00025346358
   8418000   0.050180598   -0.30447245     0.035525713   -0.19368069     0.00060609337
   8419000   0.049974071   -0.3045572      0.03563326    -0.19396767     0.00010595546
   8420000   0.049458613   -0.30486677     0.03578851    -0.19489512    -0.0001097225 
   8421000   0.050092961   -0.30457575     0.035596436   -0.19384472     0.00027805274
   8422000   0.049955668   -0.30451572     0.035580857   -0.1940062      0.00025647779
   8423000   0.050342691   -0.3046138      0.035685445   -0.19341919     0.00036102998
   8424000   0.049947939   -0.30484432     0.03624763    -0.19367961    -0.00025215529
   8425000   0.050337792   -0.30489491     0.035780903   -0.19361219     0.00039769841
   8426000   0.049767018   -0.30494636     0.036120319   -0.19418033    -0.00036779814
   8427000   0.050162225   -0.30490955     0.035121834   -0.19454923     0.00015412771
   8428000   0.049114261   -0.30485722     0.035558659   -0.19563192     0.00034253979
   8429000   0.050121167   -0.3050804      0.035557075   -0.19434643    -6.2586086e-05
   8430000   0.050344438   -0.30453114     0.035762365   -0.19325699    -0.0003426463 
   8431000   0.050040411   -0.30483728     0.03592476    -0.19385675     3.1621523e-05
   8432000   0.050490773   -0.30504712     0.035171681   -0.19414417     8.177157e-05 
   8433000   0.050008041   -0.30488959     0.035573843   -0.19430853    -0.00019573087
   8434000   0.050178087   -0.3047526      0.036258005   -0.19323232    -2.0714518e-05
   8435000   0.050223648   -0.30503039     0.035675622   -0.19402415     0.00022267137
   8436000   0.049923922   -0.30473485     0.035582141   -0.19427165     0.00014154509
   8437000   0.049927524   -0.30476694     0.035874079   -0.1940064      0.00019149641
   8438000   0.049355216   -0.30504135     0.035941506   -0.1950718     -6.6505001e-05
   8439000   0.0497024     -0.30529381     0.035802323   -0.19494269    -0.00026545902
   8440000   0.05048662    -0.30455845     0.034912686   -0.19392072     0.00030135257
   8441000   0.05020874    -0.3042549      0.035154534   -0.19379211     1.9519538e-05
   8442000   0.050111933   -0.30505455     0.035656965   -0.19423453     0.00041557833
   8443000   0.049674157   -0.30472297     0.035983087   -0.19423346     0.00011065512
   8444000   0.049850513   -0.30494509     0.035149524   -0.19502462     0.00016432533
   8445000   0.050341232   -0.30493958     0.035358034   -0.19407457     0.00019194608
   8446000   0.050001678   -0.30477715     0.035965119   -0.19381435    -0.00045257609
   8447000   0.050441731   -0.30495058     0.035255634   -0.19403723     0.00070133816
   8448000   0.049700028   -0.30510307     0.035802212   -0.19475563    -0.00026475121
   8449000   0.050203633   -0.3048435      0.035816326   -0.19372659     8.1430711e-05
   8450000   0.050610687   -0.30459824     0.035613754   -0.19307336    -0.00010482137
   8451000   0.05024354    -0.3048189      0.035205716   -0.19425274     0.00032814005
   8452000   0.050359723   -0.30465996     0.035836266   -0.19328898     3.098671e-05 
   8453000   0.049798777   -0.30456465     0.035507304   -0.194364      -3.1418348e-05
   8454000   0.050585587   -0.30482176     0.035266543   -0.19368173    -0.00011346571
   8455000   0.050191155   -0.30493037     0.035962964   -0.19368553     0.00012137983
   8456000   0.050540323   -0.30470333     0.035340057   -0.19355768     0.00065362434
   8457000   0.049969712   -0.30464282     0.035428723   -0.19426437    -0.00022498626
   8458000   0.049968472   -0.30507169     0.035729738   -0.19439408     0.00023138833
   8459000   0.050082536   -0.30498524     0.035319224   -0.19454706    -0.00024972465
   8460000   0.050105212   -0.30515923     0.035598927   -0.19440733    -0.00023963343
   8461000   0.050416645   -0.30510547     0.035522943   -0.19396244    -0.00022581785
   8462000   0.050299196   -0.30545632     0.035391534   -0.19462086     0.0004938219 
   8463000   0.050053687   -0.3051771      0.036169606   -0.19393181     0.00012040797
   8464000   0.050253213   -0.30481927     0.035121486   -0.19432283    -5.7280173e-05
   8465000   0.050200285   -0.30515422     0.035040476   -0.19481818     0.00042260616
   8466000   0.049652897   -0.30479958     0.035484254   -0.19484079     0.00034896577
   8467000   0.049578351   -0.30516485     0.036012584   -0.19478954     0.00036024863
   8468000   0.049562416   -0.30539411     0.035649964   -0.19540532     0.00042973003
   8469000   0.049773235   -0.30535287     0.035824043   -0.19487379    -0.0001804298 
   8470000   0.049874934   -0.3048493      0.035285504   -0.19475622     0.00021223995
   8471000   0.050285635   -0.30510831     0.035172835   -0.19451189     6.6825662e-06
   8472000   0.049676297   -0.30488005     0.035430211   -0.1949402      0.0004623028 
   8473000   0.050278364   -0.30557244     0.035191968   -0.19496779     0.00011011891
   8474000   0.049809616   -0.30554051     0.035711542   -0.19511936    -0.00061749039
   8475000   0.050271922   -0.30468202     0.035591716   -0.19368729    -0.00012689761
   8476000   0.05011945    -0.30490407     0.034883971   -0.19484578    -0.00029579456
   8477000   0.049414745   -0.30530745     0.035676268   -0.19551384    -0.0001938483 
   8478000   0.049619772   -0.30521227     0.034987574   -0.19579984    -0.00021192994
   8479000   0.050209162   -0.30525717     0.036060118   -0.19388817    -0.00021512576
   8480000   0.049893029   -0.30491878     0.036344758   -0.1937393     -2.0129954e-05
   8481000   0.050200621   -0.3051066      0.035622044   -0.19418848     0.00028851245
   8482000   0.050436681   -0.30518012     0.035296277   -0.1942337      0.0002140725 
   8483000   0.050213596   -0.30517665     0.036127977   -0.19373314     4.470727e-05 
   8484000   0.050267158   -0.30515922     0.034927855   -0.1948355      0.0004364977 
   8485000   0.049709791   -0.30518802     0.035361088   -0.19526706     0.0001802613 
   8486000   0.049661528   -0.30526652     0.035639863   -0.19513917     0.00018532491
   8487000   0.05072005    -0.3054206      0.036161491   -0.19318394     0.00012586397
   8488000   0.049820138   -0.30515015     0.035979284   -0.19444548    -0.00024668641
   8489000   0.049880642   -0.30525141     0.03620828    -0.194227      -0.00026999896
   8490000   0.049726406   -0.30517622     0.035772861   -0.19481856    -0.00038703203
   8491000   0.05043526    -0.30545126     0.035493361   -0.19430988     0.00010845519
   8492000   0.050352078   -0.30466995     0.035257208   -0.19388949     0.00054208973
   8493000   0.049798484   -0.30474513     0.035972995   -0.19407923    -5.4094683e-05
   8494000   0.04995862    -0.30555737     0.035926359   -0.19469792    -3.4635123e-06
   8495000   0.049494615   -0.30525305     0.036310584   -0.19470533     0.00015237027
   8496000   0.050108152   -0.30539547     0.035343022   -0.19489507     4.0681789e-05
   8497000   0.049579268   -0.30513664     0.036002689   -0.19476985    -4.1767754e-05
   8498000   0.050031102   -0.30576307     0.035994714   -0.19472655     0.0001687835 
   8499000   0.049942922   -0.30523067     0.035562765   -0.19475835    -9.5478874e-05
   8500000   0.049714588   -0.30512385     0.034969317   -0.19558746     0.00032312465
   8501000   0.050131528   -0.30545742     0.035357699   -0.19490728    -0.00027457006
   8502000   0.049822817   -0.30528044     0.03597376    -0.19457728     0.00012319419
   8503000   0.049851771   -0.3052872      0.036097827   -0.19441654     0.00025916729
   8504000   0.049526826   -0.30540586     0.035587261   -0.19553316     9.6701069e-05
   8505000   0.049482652   -0.30496253     0.035686597   -0.19505675     0.00036719902
   8506000   0.049929567   -0.30484922     0.035661879   -0.19429782     0.00023765351
   8507000   0.050085397   -0.3051141      0.035777361   -0.19421349     0.00014050573
   8508000   0.050153126   -0.30535212     0.035974655   -0.19415263    -0.00022545417
   8509000   0.050613567   -0.30564306     0.035787703   -0.1939399      0.00021714227
   8510000   0.050081578   -0.30526476     0.03627094    -0.19387629    -0.00022546815
   8511000   0.050077038   -0.30562489     0.03593654    -0.19457764    -0.0002495782 
   8512000   0.050247732   -0.30503503     0.036054825   -0.19361347     0.0009525409 
   8513000   0.049716647   -0.30518449     0.035716333   -0.194898      -3.7504435e-05
   8514000   0.050239106   -0.30536657     0.035779993   -0.19423278     0.00053491833
   8515000   0.049989557   -0.30551637     0.035546504   -0.19499037     6.3084804e-06
   8516000   0.049934196   -0.30524794     0.035286059   -0.19506542    -0.00029756115
   8517000   0.050338507   -0.30539651     0.035969765   -0.19392386    -0.00040074412
   8518000   0.049591649   -0.30531864     0.036168576   -0.19476739    -0.00056174514
   8519000   0.049819189   -0.30557924     0.035860935   -0.19499434     0.00017423857
   8520000   0.050074817   -0.30545881     0.035574226   -0.1947772      0.00042463078
   8521000   0.050285409   -0.305305       0.035713852   -0.1941679      0.00020162668
   8522000   0.050905417   -0.3056072      0.035869606   -0.1933844     -0.00022301677
   8523000   0.050297564   -0.30526408     0.036308197   -0.1935144      0.00027771078
   8524000   0.049804617   -0.30547071     0.036021845   -0.19474676    -8.5604016e-06
   8525000   0.049933023   -0.30516827     0.035619627   -0.19465394     0.00051071538
   8526000   0.050249528   -0.30529191     0.035451824   -0.19447066     0.0003118673 
   8527000   0.049881344   -0.30517821     0.035415733   -0.19494528     0.00039228678
   8528000   0.049990057   -0.30488267     0.035539102   -0.19436332     0.00045901109
   8529000   0.050278313   -0.30504518     0.036175234   -0.19345734    -2.3610916e-05
   8530000   0.050723321   -0.30566642     0.035599589   -0.19398676    -0.00028025556
   8531000   0.049942253   -0.30538286     0.035446741   -0.19502758     0.00051836113
   8532000   0.049956086   -0.30560313     0.035642752   -0.19503109     0.00014313197
   8533000   0.050423626   -0.3056267      0.035923072   -0.19407307    -0.00051191149
   8534000   0.050084587   -0.30520628     0.035770807   -0.19431344     0.00034044344
   8535000   0.049401563   -0.30543283     0.036106395   -0.19522888     4.7644501e-06
   8536000   0.050182762   -0.30538374     0.035631755   -0.1944827      0.00020376559
   8537000   0.049515216   -0.30542446     0.035622844   -0.19553359    -4.761139e-06 
   8538000   0.04997554    -0.30545976     0.035646481   -0.1948548      0.00018734252
   8539000   0.050331368   -0.30532688     0.035882884   -0.19395181     0.00034644275
   8540000   0.050266836   -0.30517772     0.035286723   -0.19449561     0.00027304087
   8541000   0.050274851   -0.30533829     0.036142705   -0.19378817    -0.00020853849
   8542000   0.04952453    -0.30518128     0.036162601   -0.19473668     0.000313928  
   8543000   0.049644332   -0.30530257     0.036226608   -0.19461427     0.00034536006
   8544000   0.050254347   -0.30513264     0.036123851   -0.19363214     0.00023236134
   8545000   0.050058678   -0.30534712     0.035955854   -0.19430809    -0.00014114458
   8546000   0.049556409   -0.3053658      0.035759909   -0.19527607     0.00035837971
   8547000   0.050048374   -0.30546653     0.03561949    -0.19477932    -0.00020254919
   8548000   0.050192684   -0.30526381     0.035065431   -0.19491421     0.00040125459
   8549000   0.049614724   -0.30521858     0.035939321   -0.19486198    -0.00031788277
   8550000   0.050387103   -0.30535656     0.035719793   -0.19406099    -0.00052522337
   8551000   0.049887465   -0.30551632     0.036560814   -0.19412913     4.8998018e-05
   8552000   0.050489509   -0.30520024     0.035503282   -0.19396758     0.00043452168
   8553000   0.05010581    -0.30528754     0.036003571   -0.1941301      0.00044329082
   8554000   0.049757732   -0.30519256     0.036153634   -0.19440714    -0.00034084336
   8555000   0.049954466   -0.30549435     0.036096222   -0.19447126    -8.9576703e-05
   8556000   0.049779858   -0.30535137     0.035893033   -0.19479337     0.00020781459
   8557000   0.05067361    -0.30585271     0.036243778   -0.19360342     0.0002331799 
   8558000   0.050498655   -0.30538398     0.035923539   -0.19371735     0.00024349525
   8559000   0.049711852   -0.3054462      0.036356888   -0.19452634    -0.00058788167
   8560000   0.049872196   -0.30525116     0.035904305   -0.19454338     0.00027541193
   8561000   0.050356961   -0.30549612     0.035939211   -0.19402634     0.00012449657
   8562000   0.050185879   -0.30542        0.03545932    -0.19468671     0.00010245871
   8563000   0.049587088   -0.3051758      0.036090606   -0.19470936     4.4513732e-05
   8564000   0.050037078   -0.30571475     0.035844375   -0.1948196     -0.00019909212
   8565000   0.049992584   -0.30526851     0.035672189   -0.19461228    -1.7450775e-05
   8566000   0.049847153   -0.30538406     0.035167531   -0.19545062     1.4531893e-05
   8567000   0.050229534   -0.30534478     0.035728577   -0.19427676     1.5238799e-05
   8568000   0.04994854    -0.30562663     0.036131052   -0.1945776      0.00010555287
   8569000   0.049922447   -0.30520376     0.035468184   -0.19485673     0.00029231857
   8570000   0.049478864   -0.30515515     0.035765638   -0.195176       0.0002252147 
   8571000   0.04882062    -0.30548554     0.035811302   -0.19644803    -9.8603436e-05
   8572000   0.049238631   -0.30559491     0.035878314   -0.19586341    -0.00027028849
   8573000   0.049574053   -0.30547819     0.035846435   -0.19527547     0.00021040334
   8574000   0.049641466   -0.30572969     0.036051975   -0.19522032    -0.00047211624
   8575000   0.050075449   -0.30561452     0.035501442   -0.19500475     3.3589292e-05
   8576000   0.050440223   -0.3057986      0.035449836   -0.19469331     0.00023933009
   8577000   0.049923396   -0.30553674     0.036092121   -0.19456436    -0.00016738806
   8578000   0.050041677   -0.3050197      0.035450356   -0.19451167     0.00044375081
   8579000   0.050175707   -0.30535163     0.035892891   -0.19420004     4.9742425e-05
   8580000   0.050088118   -0.30540008     0.035891697   -0.19438106     0.00016951703
   8581000   0.049519521   -0.30550084     0.035698764   -0.19552759    -0.00049027002
   8582000   0.050252212   -0.30514717     0.035519486   -0.19425422     0.00024784967
   8583000   0.050047078   -0.30502873     0.035648251   -0.19431471    -2.3465218e-06
   8584000   0.050104917   -0.30538034     0.035761664   -0.19446615    -0.00030962104
   8585000   0.049745182   -0.30569272     0.035844527   -0.19523523    -0.00025511856
   8586000   0.050101366   -0.30591297     0.036234663   -0.19453111    -0.00020451165
   8587000   0.050009831   -0.30530412     0.035290929   -0.19500328     3.9886928e-05
   8588000   0.049694465   -0.30538546     0.035711316   -0.19513726    -1.3394003e-05
   8589000   0.050168299   -0.3056081      0.035330667   -0.19502983    -5.1581053e-05
   8590000   0.05016708    -0.3054802      0.035456023   -0.19477841    -4.1403377e-05
   8591000   0.050053014   -0.30557337     0.035140136   -0.19535856     0.00042273729
   8592000   0.049520916   -0.30513202     0.034935537   -0.1959199      0.00021380557
   8593000   0.049329699   -0.30535        0.034931769   -0.19642846     3.7795194e-05
   8594000   0.049787824   -0.30502604     0.035288794   -0.19506033     0.00035581444
   8595000   0.050603681   -0.30553174     0.035789657   -0.19384146     0.00015109593
   8596000   0.050134468   -0.30540363     0.035755831   -0.19445095     0.00031621576
   8597000   0.05033902    -0.30521076     0.035918017   -0.19378909    -0.00032105424
   8598000   0.04964493    -0.30503405     0.035875657   -0.19469581     0.00010947979
   8599000   0.049883947   -0.30522041     0.03490221    -0.19549711     0.00020675458
   8600000   0.049676559   -0.3051169      0.036021609   -0.19458526    -9.3145069e-06
   8601000   0.049976873   -0.30520515     0.035445183   -0.19479949     0.00037606112
   8602000   0.050308086   -0.30579718     0.035499554   -0.19484036     8.3362877e-05
   8603000   0.050504398   -0.30547734     0.036464311   -0.19326131    -0.00043563835
   8604000   0.049415813   -0.30517239     0.036008303   -0.19504515    -3.1405185e-05
   8605000   0.050486793   -0.30572888     0.035619281   -0.1943843     -4.4880403e-05
   8606000   0.049912445   -0.30525169     0.036187248   -0.19420061     0.00014801251
   8607000   0.049981187   -0.30561213     0.036265565   -0.19437962    -6.4891952e-05
   8608000   0.050199243   -0.30537263     0.035550583   -0.19452804    -9.1202264e-05
   8609000   0.049909174   -0.30526823     0.035049706   -0.19535959     0.00033782909
   8610000   0.049922751   -0.30513413     0.035515159   -0.19473968     4.7480458e-05
   8611000   0.049836724   -0.30544548     0.035288158   -0.19540706     0.00028030971
   8612000   0.050170023   -0.30543637     0.035433023   -0.19475316     0.00012716155
   8613000   0.050289395   -0.30570883     0.036261641   -0.19401796     0.00038204906
   8614000   0.05028119    -0.30524853     0.035881422   -0.19395018    -0.00011545362
   8615000   0.050002366   -0.30529458     0.036060691   -0.19423518    -4.8003589e-05
   8616000   0.050268481   -0.30515631     0.035885597   -0.19387286     0.00025457197
   8617000   0.050497756   -0.3051847      0.035547277   -0.19389567     0.0001441456 
   8618000   0.049942859   -0.30530701     0.035596306   -0.19480125    -0.00041620758
   8619000   0.050194967   -0.30556118     0.035051965   -0.19522162     0.00057590302
   8620000   0.049819116   -0.30568973     0.035823823   -0.19514205    -0.00029395561
   8621000   0.049227544   -0.30597083     0.035618983   -0.19651529    -1.9316109e-05
   8622000   0.04952433    -0.30557041     0.035382447   -0.19590626     0.00015514675
   8623000   0.049809685   -0.30559993     0.035228912   -0.19566131     0.00013699157
   8624000   0.050196008   -0.3056267      0.035650411   -0.19468714     0.00014062745
   8625000   0.050443951   -0.30566146     0.036040686   -0.19395973    -0.00060773166
   8626000   0.049679371   -0.30547741     0.036156513   -0.19480665    -0.00038095871
   8627000   0.049759262   -0.30533769     0.035800108   -0.1949035      0.00045008534
   8628000   0.050035199   -0.3057576      0.035837156   -0.19487249    -2.0606683e-06
   8629000   0.049734659   -0.30540231     0.035474223   -0.19533091     0.00018389837
   8630000   0.049859418   -0.30598287     0.035466645   -0.19573193     0.00020726379
   8631000   0.049410152   -0.30537783     0.035866739   -0.19540065    -0.0003919803 
   8632000   0.049854967   -0.30553242     0.035534431   -0.19522036     0.00016082843
   8633000   0.049775892   -0.30555111     0.035926424   -0.19496566     3.2907674e-05
   8634000   0.049719706   -0.30509004     0.035949334   -0.19456595    -0.00011905068
   8635000   0.049838642   -0.30569006     0.035901782   -0.19503514    -0.00017458641
   8636000   0.04935978    -0.30573766     0.035842672   -0.19586009     0.00062084522
   8637000   0.050142436   -0.30543939     0.035356293   -0.1948743      0.00024494408
   8638000   0.049997229   -0.30539797     0.035192583   -0.19521439    -0.00020114291
   8639000   0.050142851   -0.30539123     0.035437981   -0.19474382     0.00036500566
   8640000   0.04969296    -0.30550542     0.035652967   -0.19531782     0.00038452139
   8641000   0.050074068   -0.30539873     0.035628645   -0.19466382    -0.00020241596
   8642000   0.049925366   -0.30575863     0.035827538   -0.19504788     0.00021838535
   8643000   0.050170745   -0.30561105     0.035813297   -0.19454649     0.00038264873
   8644000   0.049497569   -0.30556823     0.035594889   -0.19573178     0.00027264105
   8645000   0.049885933   -0.30542913     0.035747521   -0.19485754    -8.1652853e-05
   8646000   0.050180367   -0.30546826     0.03596037    -0.1942422      3.8302134e-05
   8647000   0.050163261   -0.305574       0.035584063   -0.1947499      2.8451959e-05
   8648000   0.050100992   -0.30565574     0.035279378   -0.19522972    -0.00016463715
   8649000   0.050127526   -0.30536717     0.03556256    -0.19461817     0.00043392242
   8650000   0.05003687    -0.30562569     0.03563924    -0.19493599    -9.1274803e-05
   8651000   0.049745358   -0.30553538     0.036136635   -0.19478552    -0.00023901702
   8652000   0.049839705   -0.30545205     0.035948823   -0.19474849     0.00021636734
   8653000   0.04990583    -0.30556995     0.035753437   -0.19496259     0.00024773605
   8654000   0.050434001   -0.30552928     0.03556816    -0.194315      -0.00019068894
   8655000   0.050398703   -0.30581657     0.036158277   -0.19406511     0.00043269529
   8656000   0.04987108    -0.30529346     0.035521822   -0.19496984     8.1197966e-05
   8657000   0.049631339   -0.30534069     0.036102101   -0.19479639    -0.00021750526
   8658000   0.05006547    -0.30557172     0.035421001   -0.19505736     0.00047414813
   8659000   0.049854288   -0.30537376     0.035959604   -0.19463754    -2.0943777e-05
   8660000   0.049933287   -0.30574081     0.035542171   -0.19530354    -5.8276718e-05
   8661000   0.050473213   -0.30555212     0.035417727   -0.19442946    -9.047022e-07 
   8662000   0.049985976   -0.30567106     0.035535089   -0.19516185     0.00066772487
   8663000   0.049450934   -0.305564       0.03583111    -0.19556127    -3.3691223e-05
   8664000   0.049813381   -0.30579978     0.035671315   -0.19541321     0.00020692646
   8665000   0.050057198   -0.30563416     0.03587284    -0.19468037     5.600514e-05 
   8666000   0.049912264   -0.30563833     0.036173199   -0.19460156     0.00016771674
   8667000   0.049701766   -0.30544748     0.035656571   -0.19524307    -2.8360282e-05
   8668000   0.049638078   -0.30569352     0.03555584    -0.19568537     0.00034917454
   8669000   0.049983177   -0.30578089     0.035424454   -0.1953865      7.1470391e-05
   8670000   0.050415613   -0.30578031     0.03554322    -0.19461855     0.00017961181
   8671000   0.050232891   -0.30544699     0.035719229   -0.19438328     0.00016002607
   8672000   0.050285074   -0.30509207     0.035758281   -0.19391104     0.00017513191
   8673000   0.049841654   -0.30584476     0.036150601   -0.1949365     -0.00027475914
   8674000   0.05036749    -0.30563035     0.035016558   -0.19506743     5.3995375e-05
   8675000   0.050235081   -0.30609206     0.035020302   -0.195724      -4.0586148e-05
   8676000   0.050138789   -0.30595709     0.03529787    -0.19545589     0.00013755193
   8677000   0.049659424   -0.30557967     0.034916543   -0.1961788      0.00024054079
   8678000   0.049644634   -0.30584318     0.035531759   -0.19584927    -2.8433098e-05
   8679000   0.050222271   -0.30590779     0.035330864   -0.19524837    -1.579328e-05 
   8680000   0.049977422   -0.30566065     0.035902725   -0.19479663     2.2788551e-05
   8681000   0.050147232   -0.3055626      0.036161719   -0.19418489    -1.6167308e-05
   8682000   0.050013512   -0.30583965     0.036204673   -0.19461955     0.00011823004
   8683000   0.049431991   -0.30573285     0.03599362    -0.19559603    -0.00013974354
   8684000   0.050257066   -0.30589433     0.035608066   -0.19490553     7.0400515e-05
   8685000   0.049236102   -0.30545396     0.035723008   -0.19588157     7.5172254e-05
   8686000   0.049474954   -0.30565038     0.035630014   -0.19581272    -0.00024508574
   8687000   0.050390038   -0.30542674     0.035847261   -0.1939993      0.00036686706
   8688000   0.049823303   -0.30560199     0.036122962   -0.1947489      0.00018705733
   8689000   0.049933501   -0.30551309     0.035561053   -0.19505662     0.00015716059
   8690000   0.050115847   -0.30578395     0.035425231   -0.1951898      9.334771e-05 
   8691000   0.04965545    -0.30540872     0.035925088   -0.19500526     0.00018393093
   8692000   0.050423374   -0.30588493     0.03578156    -0.19447319    -4.5394118e-05
   8693000   0.050127351   -0.30579409     0.035918396   -0.19468952     0.00041128946
   8694000   0.0503205     -0.30566809     0.035632141   -0.19456007     1.4164749e-05
   8695000   0.049965254   -0.30631918     0.036055351   -0.19532079    -0.00026651008
   8696000   0.050041744   -0.30606108     0.035973987   -0.19502932    -0.00025183411
   8697000   0.050404562   -0.30576361     0.035984214   -0.19417743    -0.00010537073
   8698000   0.049850428   -0.30557074     0.03539696    -0.19540296     0.00020356454
   8699000   0.049910751   -0.30613426     0.035761208   -0.19551175    -0.00039789527
   8700000   0.049821284   -0.30576303     0.036132868   -0.19490306    -0.00021715434
   8701000   0.050264858   -0.3059983      0.035988091   -0.19461779    -0.00012591093
   8702000   0.050356449   -0.3061464      0.035977022   -0.19463958    -0.00010803932
   8703000   0.050081432   -0.30536826     0.036067295   -0.19418366     0.00040608395
   8704000   0.049764182   -0.30587213     0.035909134   -0.19532154    -0.0001117533 
   8705000   0.049783225   -0.30604494     0.035907383   -0.19546754     0.00027556242
   8706000   0.04975478    -0.30611316     0.036545719   -0.19494009    -8.1362323e-05
   8707000   0.050498793   -0.30586647     0.036613102   -0.19351006    -0.00047734519
   8708000   0.050204957   -0.30573146     0.036107413   -0.19432147     0.00022765745
   8709000   0.050344423   -0.30585305     0.035778861   -0.19456243     2.1563682e-05
   8710000   0.050217296   -0.30583108     0.035804313   -0.19470568    -0.00022761908
   8711000   0.050068308   -0.30577766     0.036009865   -0.19467018     0.00021440754
   8712000   0.05002361    -0.30592509     0.035420504   -0.19547401     0.00040637595
   8713000   0.050207638   -0.3061092      0.035068393   -0.19573421     0.0001098741 
   8714000   0.050005111   -0.30548306     0.036365837   -0.1941144      0.00034970304
   8715000   0.049844165   -0.30593669     0.035759541   -0.19541572    -0.00031959802
   8716000   0.050076871   -0.30610811     0.035817469   -0.19518019     0.00016801964
   8717000   0.050165286   -0.30583903     0.035835077   -0.19476088     0.00017695906
   8718000   0.050459083   -0.30585678     0.03562911    -0.19454393     0.00022832448
   8719000   0.049956966   -0.30593925     0.035741381   -0.19526726     0.00027101859
   8720000   0.050377599   -0.30556016     0.035348444   -0.1946502     -3.1909798e-05
   8721000   0.050036987   -0.30609396     0.035783478   -0.19525984     0.00039863309
   8722000   0.049932359   -0.305907       0.035549933   -0.19546336     0.00053066686
   8723000   0.050013958   -0.30565179     0.035617505   -0.19501819    -0.00016229765
   8724000   0.050061464   -0.30588206     0.035641753   -0.19515296    -0.00020815592
   8725000   0.050100232   -0.30612339     0.035581392   -0.1953965     -0.0002516215 
   8726000   0.049982957   -0.30616135     0.035765422   -0.19542633     7.4742839e-05
   8727000   0.049463604   -0.3062026      0.035289821   -0.19672216     0.00048666272
   8728000   0.049498434   -0.30617757     0.036044585   -0.19589012    -0.00033488356
   8729000   0.05004653    -0.3063804      0.035116977   -0.19619847     0.00054578652
   8730000   0.049132886   -0.30634378     0.035552904   -0.19709631    -3.4197165e-05
   8731000   0.049773018   -0.3060237      0.035744169   -0.19562482     0.0002243666 
   8732000   0.049935044   -0.30555637     0.035271633   -0.195387       0.00017121325
   8733000   0.049409748   -0.3056275      0.036226613   -0.19529104    -3.1742291e-05
   8734000   0.050018165   -0.30621853     0.03579158    -0.19540454    -0.00019952209
   8735000   0.050035751   -0.30557261     0.035638146   -0.19488568     0.00049303822
   8736000   0.050490559   -0.30602748     0.035948432   -0.1943481      0.00011284728
   8737000   0.050148227   -0.30621634     0.035985769   -0.19501308    -2.0972382e-05
   8738000   0.050120733   -0.30600232     0.036062834   -0.19476324     7.6523755e-05
   8739000   0.049884143   -0.30646783     0.036010552   -0.19563589     0.00021324959
   8740000   0.049994428   -0.30608149     0.035957725   -0.19513696    -8.6822519e-05
   8741000   0.049639157   -0.30615852     0.03607642    -0.19562817    -0.00034064737
   8742000   0.050132273   -0.30610653     0.036281412   -0.19463156    -3.27992e-05  
   8743000   0.049890611   -0.30557297     0.0363065     -0.19443538    -0.00043003258
   8744000   0.049683572   -0.30609691     0.035519827   -0.19605654     0.00027355175
   8745000   0.049665224   -0.30637586     0.035896939   -0.19598589     0.00023961773
   8746000   0.049631558   -0.30643799     0.03598332    -0.19601213    -0.00049494556
   8747000   0.049330271   -0.3063938      0.036077615   -0.19632555    -0.00024005346
   8748000   0.049372636   -0.3058595      0.036505304   -0.19530002     0.00029847409
   8749000   0.049958912   -0.30614113     0.036065364   -0.19514224     0.00038222027
   8750000   0.050050497   -0.30621979     0.036792165   -0.19435673    -6.5264387e-07
   8751000   0.049887458   -0.3061464      0.036346717   -0.19497332     0.00019070979
   8752000   0.050419019   -0.30629341     0.035728198   -0.19494156    -0.00019358123
   8753000   0.049815526   -0.30612045     0.035523866   -0.19587812     3.1543201e-05
   8754000   0.049898307   -0.30628218     0.035723112   -0.19571644    -0.00025171756
   8755000   0.04965357    -0.30649087     0.036023943   -0.19599138    -3.5198191e-05
   8756000   0.049632386   -0.30609424     0.035687652   -0.19596282     0.00038194968
   8757000   0.049717866   -0.30603023     0.035587221   -0.19587102     0.00017255662
   8758000   0.049818048   -0.30646211     0.035868308   -0.19587155    -0.00046021379
   8759000   0.049725838   -0.3062066      0.035640577   -0.19598208     5.0739514e-05
   8760000   0.049680688   -0.30632675     0.035412521   -0.196398       0.00033503617
   8761000   0.050273889   -0.30636035     0.036186866   -0.19476752     0.00020646698
   8762000   0.05008807    -0.30662463     0.035448927   -0.19604844     0.00017915339
   8763000   0.049772757   -0.30584077     0.035930022   -0.19525643    -0.00031161317
   8764000   0.05049184    -0.30624982     0.035458355   -0.19505859     0.00017927755
   8765000   0.050519345   -0.3065992      0.035446949   -0.19537812    -8.6345347e-05
   8766000   0.050204223   -0.30632486     0.036103098   -0.19492028     0.00031277354
   8767000   0.050404003   -0.30575731     0.035373058   -0.19478313     0.00012558012
   8768000   0.049573469   -0.30613218     0.035841153   -0.19593562     9.7882726e-05
   8769000   0.049484847   -0.30634442     0.035706947   -0.19641499    -0.00010538446
   8770000   0.050541902   -0.30617933     0.035732448   -0.19463892    -0.0002553354 
   8771000   0.049884837   -0.30631848     0.035871151   -0.1956249     -0.00018149177
   8772000   0.04957757    -0.30626251     0.035254753   -0.1966462      0.00049148821
   8773000   0.049548727   -0.30629933     0.035750156   -0.19623088     0.00021413178
   8774000   0.050490927   -0.30639088     0.035764552   -0.19489482     0.00019777913
   8775000   0.050320005   -0.30611137     0.03547421    -0.19516202     0.00029464439
   8776000   0.049560842   -0.30629736     0.03617628    -0.19578462     5.1249301e-05
   8777000   0.050322444   -0.30608957     0.035647102   -0.19496367    -7.3064432e-05
   8778000   0.049670892   -0.30633071     0.035719583   -0.19610959     9.064432e-05 
   8779000   0.050318851   -0.30622172     0.035988934   -0.19475938    -6.2487896e-05
   8780000   0.050173055   -0.30670394     0.035931851   -0.19551736     5.3661968e-05
   8781000   0.049499165   -0.30652844     0.036118777   -0.19616571    -0.00018737199
   8782000   0.049374055   -0.30616372     0.036326548   -0.19578086     0.00031122664
   8783000   0.050068147   -0.30672404     0.035878264   -0.1957484      7.5156243e-05
   8784000   0.050284791   -0.30643788     0.035285973   -0.19572959    -3.1818449e-05
   8785000   0.050285312   -0.30660852     0.036696095   -0.19448932     0.00017469403
   8786000   0.050566136   -0.30641188     0.035930263   -0.1946373     -0.0003558254 
   8787000   0.050195798   -0.3064341      0.036161843   -0.19498342     0.00017393613
   8788000   0.050226007   -0.3068311      0.035539267   -0.19595768     8.9642506e-05
   8789000   0.050015629   -0.30630678     0.035308468   -0.19597971     0.00018424319
   8790000   0.050047125   -0.30627899     0.035662221   -0.19555092    -0.00025185946
   8791000   0.049152674   -0.30613967     0.035916594   -0.19649883     3.6622005e-05
   8792000   0.05041417    -0.30660339     0.035479053   -0.19550796    -5.8905663e-05
   8793000   0.050180638   -0.30615082     0.035977411   -0.19490731     0.00014544381
   8794000   0.049798929   -0.30684501     0.036073863   -0.19607757     4.8229372e-05
   8795000   0.04969601    -0.30591647     0.034850822   -0.19652644     0.00047919157
   8796000   0.049684428   -0.30644494     0.035583325   -0.19633979     0.00030596954
   8797000   0.049655859   -0.3061512      0.036006085   -0.19566613     0.00035323821
   8798000   0.050298115   -0.30607775     0.035848527   -0.19478692     2.0326188e-05
   8799000   0.050422436   -0.30631324     0.035813755   -0.19487071     0.00041351938
   8800000   0.049539565   -0.30636894     0.035432413   -0.19663198     4.9745948e-05
   8801000   0.049156775   -0.30650078     0.035569384   -0.19720099    -0.00037153826
   8802000   0.049665328   -0.30645583     0.035557084   -0.19640556     0.00027120402
   8803000   0.050021261   -0.30646887     0.035682544   -0.19575928    -0.00013155887
   8804000   0.050358169   -0.30652086     0.035724643   -0.19526383     0.00037013838
   8805000   0.049813917   -0.30655189     0.036311344   -0.19552449    -0.00040283025
   8806000   0.049979348   -0.30657648     0.03525338    -0.19635891     0.00019167027
   8807000   0.050020608   -0.30668852     0.035876016   -0.19578643    -0.00015563258
   8808000   0.049468243   -0.30631528     0.035508351   -0.19660935     0.00027737126
   8809000   0.049516272   -0.30649412     0.036042793   -0.19618171     0.00012994664
   8810000   0.049868866   -0.30631817     0.03578078    -0.19573891     0.00014753052
   8811000   0.050068726   -0.30624344     0.035025113   -0.19612008     9.7670496e-05
   8812000   0.050393444   -0.30626085     0.035407869   -0.19526769     0.00020906327
   8813000   0.0499905     -0.30628436     0.035785014   -0.19551843     0.00018063502
   8814000   0.049727807   -0.30633722     0.036069917   -0.19568041     0.00010620394
   8815000   0.049629358   -0.30700708     0.035895867   -0.19667198     0.00012381299
   8816000   0.050059132   -0.30651722     0.035785419   -0.19564794     0.00011316287
   8817000   0.049701607   -0.3063273      0.035676441   -0.19610326     0.00010405072
   8818000   0.050613639   -0.30660389     0.035719801   -0.19496853     0.00016522026
   8819000   0.049742701   -0.30668789     0.0360054     -0.19607326    -0.0003303149 
   8820000   0.050380341   -0.30639161     0.035918986   -0.19490699     0.00029820668
   8821000   0.050631984   -0.30625869     0.035455702   -0.19485991     0.00013895114
   8822000   0.049930032   -0.30636107     0.035807517   -0.19566334    -4.4331037e-05
   8823000   0.049975011   -0.30628704     0.035609914   -0.19571944     2.9043812e-05
   8824000   0.050042051   -0.30689914     0.035401433   -0.19643948    -0.00033026881
   8825000   0.050010669   -0.30681536     0.035819267   -0.19598493    -0.00017055499
   8826000   0.049902746   -0.30654637     0.035628517   -0.19606856     7.1296629e-05
   8827000   0.049599329   -0.30650887     0.035564376   -0.1965503      0.00016737807
   8828000   0.050681246   -0.30634985     0.035246986   -0.1950859      0.00046271868
   8829000   0.05026236    -0.30655647     0.03540582    -0.19576197    -3.4451031e-05
   8830000   0.049870843   -0.3060929      0.035363849   -0.19592761     0.00028389066
   8831000   0.049540669   -0.30672372     0.036381849   -0.19603566    -0.00012629201
   8832000   0.050336585   -0.30642511     0.035786233   -0.19513887    -7.3730113e-05
   8833000   0.049849203   -0.30627611     0.03609843    -0.1954087      9.0581731e-05
   8834000   0.050040997   -0.30643514     0.036269892   -0.19510859     0.00013311703
   8835000   0.050640267   -0.30666436     0.036196385   -0.19451247    -0.00039764701
   8836000   0.050779516   -0.30637809     0.035642396   -0.19457134     5.365436e-05 
   8837000   0.05064193    -0.30645041     0.035876888   -0.19461553     0.00059593871
   8838000   0.04976123    -0.30663248     0.035311169   -0.19668428     0.00038798933
   8839000   0.049500878   -0.30661238     0.035480554   -0.1968853     -7.6193163e-05
   8840000   0.049500236   -0.30710331     0.0356105     -0.19724725    -0.00038657757
   8841000   0.050076345   -0.30694581     0.035956746   -0.1958794      0.0001371482 
   8842000   0.049899256   -0.30680586     0.035728756   -0.19623305    -0.00014454035
   8843000   0.050524681   -0.30661876     0.035541878   -0.19529475     0.00041865829
   8844000   0.050191625   -0.30680392     0.035429884   -0.19609146    -0.00014324349
   8845000   0.050373955   -0.30655156     0.036039924   -0.19495557     6.9104242e-06
   8846000   0.049888083   -0.30667043     0.035279358   -0.19656378     0.00052094993
   8847000   0.049906721   -0.30672629     0.035245656   -0.19662539    -0.00024465484
   8848000   0.04996794    -0.30642157     0.035363548   -0.19611095     6.0919346e-05
   8849000   0.04977735    -0.3064894      0.035983904   -0.19584429    -0.00027724528
   8850000   0.050089121   -0.30680842     0.036014004   -0.19566559     0.00020237498
   8851000   0.050514645   -0.3066667      0.03484886    -0.19605076     0.00043730735
   8852000   0.049809643   -0.30677766     0.035661937   -0.19640608     6.4397222e-05
   8853000   0.050001665   -0.30672848     0.035383363   -0.19634746    -0.00019733909
   8854000   0.049893191   -0.30666777     0.034815401   -0.19701742     0.00080637851
   8855000   0.049781565   -0.30696272     0.035328541   -0.19696665     9.2823165e-05
   8856000   0.049363526   -0.3063865      0.035731758   -0.19661423     0.00029527251
   8857000   0.050158286   -0.30704288     0.035654338   -0.19615597     0.0003694866 
   8858000   0.04995687    -0.30643177     0.036339451   -0.19516185     0.00021746001
   8859000   0.050437305   -0.30666356     0.035408173   -0.19560431     0.00036395863
   8860000   0.04968667    -0.30652646     0.036102581   -0.19589868     0.0006249656 
   8861000   0.050584321   -0.30646893     0.036020294   -0.19457705     7.656674e-05 
   8862000   0.050052431   -0.30651655     0.035992883   -0.19544987     0.00021802182
   8863000   0.050556692   -0.3069479      0.035469292   -0.19564846    -2.286075e-05 
   8864000   0.050033767   -0.30670599     0.035536206   -0.19612397     0.00013202344
   8865000   0.049913423   -0.30711621     0.035754561   -0.19649635     0.00016347168
   8866000   0.050058684   -0.30687292     0.036116349   -0.19567339    -0.00028004361
   8867000   0.050174704   -0.3067635      0.036306319   -0.19519998     0.00015909243
   8868000   0.049766493   -0.30652739     0.036227053   -0.19565541     0.00016243848
   8869000   0.051161822   -0.30668069     0.036027111   -0.1939158      0.00026721609
   8870000   0.050283681   -0.30702649     0.036711784   -0.19489405    -0.00050372879
   8871000   0.050227839   -0.30704202     0.036130313   -0.19557481     0.00029348306
   8872000   0.050811826   -0.30664845     0.035899986   -0.19453565     4.4638411e-05
   8873000   0.049993147   -0.30663977     0.036128488   -0.1955264     -0.00012367284
   8874000   0.050192831   -0.30679729     0.035749498   -0.1957634      0.00025081291
   8875000   0.049690268   -0.3068573      0.036265438   -0.19606127     7.1863874e-06
   8876000   0.050479641   -0.3066647      0.035986263   -0.19496386    -0.00057786274
   8877000   0.050244609   -0.30653866     0.035254727   -0.19592188     0.00014587781
   8878000   0.050347363   -0.30676521     0.035710574   -0.19553846     0.00055058439
   8879000   0.050168832   -0.30656937     0.035751523   -0.19556945     7.9796046e-05
   8880000   0.049226788   -0.30693522     0.035878135   -0.19722167    -6.034995e-05 
   8881000   0.049909859   -0.30679971     0.035731398   -0.19620836     0.0003039536 
   8882000   0.050328507   -0.30646785     0.035679343   -0.19530062     0.00019419871
   8883000   0.05000803    -0.30642154     0.036274081   -0.19514025    -0.00022761647
   8884000   0.049854135   -0.3068021      0.036229587   -0.19579614    -0.00027896641
   8885000   0.050116501   -0.30694339     0.035977407   -0.19579608    -0.00011818674
   8886000   0.050129147   -0.30659344     0.035828241   -0.19557633     0.00043543406
   8887000   0.050278631   -0.30661475     0.035961677   -0.19523999    -4.5116376e-05
   8888000   0.050076431   -0.30639953     0.035649947   -0.19563978     0.00030986994
   8889000   0.050033524   -0.306723       0.036016954   -0.1956606      0.00021643864
   8890000   0.050075733   -0.30652993     0.035497665   -0.19592351    -0.00010849555
   8891000   0.049849355   -0.30670295     0.035948868   -0.19598487     0.00022349174
   8892000   0.050107935   -0.30674849     0.035668161   -0.19592327    -0.0001521612 
   8893000   0.049685669   -0.30655121     0.035570041   -0.19645747    -0.00026205005
   8894000   0.049944667   -0.30653123     0.035287408   -0.19633166    -0.00011962726
   8895000   0.050104126   -0.3069837      0.035504131   -0.19632823     0.00029022752
   8896000   0.050407702   -0.30712325     0.035743055   -0.19577352    -3.807865e-05 
   8897000   0.049428054   -0.30627943     0.036052047   -0.19609009     0.00027075265
   8898000   0.050031546   -0.30693937     0.035018791   -0.19687811     3.9724293e-06
   8899000   0.049871698   -0.30648321     0.035554458   -0.19612603     0.00020058739
   8900000   0.049674181   -0.30653151     0.035789288   -0.19623576    -3.6678297e-05
   8901000   0.050429766   -0.30692407     0.035797126   -0.19548717    -0.00026723494
   8902000   0.049372753   -0.30689016     0.036202783   -0.19663303     0.00014916427
   8903000   0.050033317   -0.30694245     0.036169074   -0.19572824    -2.8615535e-05
   8904000   0.050347095   -0.30737224     0.035479891   -0.19637657    -0.00011654383
   8905000   0.050323587   -0.30638433     0.035703454   -0.19520037     0.0001160212 
   8906000   0.050034498   -0.30663542     0.035842327   -0.19574619    -3.9323941e-05
   8907000   0.050427307   -0.3065835      0.035263051   -0.19568437     2.323096e-05 
   8908000   0.050438811   -0.3069245      0.035309003   -0.19596217    -2.9672672e-06
   8909000   0.050481564   -0.30688599     0.035665175   -0.19550335    -0.0004274456 
   8910000   0.050155967   -0.30659858     0.036119783   -0.1952497     -0.00013883477
   8911000   0.050101882   -0.30677689     0.035522124   -0.1961068      6.7374145e-05
   8912000   0.050008792   -0.30688313     0.035727588   -0.19614719     0.00015672302
   8913000   0.050166658   -0.30698877     0.03551725    -0.19622638    -5.0200643e-05
   8914000   0.050058319   -0.30654247     0.036014715   -0.19544513     0.00011627499
   8915000   0.050162598   -0.30659506     0.035947267   -0.19540875     0.00030549597
   8916000   0.049937789   -0.30694066     0.036288012   -0.1957508      0.00025730773
   8917000   0.04997049    -0.3068036      0.036145012   -0.19570769     0.00010016698
   8918000   0.050169787   -0.30659882     0.035958862   -0.19539013     0.0002931031 
   8919000   0.049667668   -0.30705664     0.035120933   -0.19743901     0.00030722134
   8920000   0.049923798   -0.30676287     0.035956442   -0.19592557    -0.00018567923
   8921000   0.049785727   -0.3075192      0.036380607   -0.19646482     2.9986991e-06
   8922000   0.049900593   -0.30688589     0.035937771   -0.19610205    -0.00036191797
   8923000   0.049857976   -0.30700994     0.035547578   -0.19668022     0.00022345318
   8924000   0.049782476   -0.30704238     0.036394147   -0.19597934     0.00011115687
   8925000   0.049928787   -0.30695699     0.036529084   -0.19553956     7.6731427e-05
   8926000   0.05051106    -0.30676838     0.03553554    -0.19547114     6.2671578e-05
   8927000   0.049872168   -0.3067191      0.035217177   -0.19669849    -6.1859044e-05
   8928000   0.049917138   -0.30711361     0.035365618   -0.19687712     0.00037783981
   8929000   0.04991675    -0.30684439     0.035202477   -0.19677161     0.00025060476
   8930000   0.049598317   -0.30718921     0.035192289   -0.19760425     1.3369339e-05
   8931000   0.049515494   -0.30694672     0.035122264   -0.19755601     0.00024260781
   8932000   0.049528668   -0.30699835     0.035720855   -0.19698929    -0.00032742397
   8933000   0.049917589   -0.30697933     0.035650136   -0.19645764     0.00032298058
   8934000   0.050195877   -0.30718424     0.035777164   -0.19611812    -0.00036216384
   8935000   0.049898897   -0.30673096     0.035742657   -0.19614479     0.00049558912
   8936000   0.049843986   -0.30691747     0.035920962   -0.19623535     0.00016954533
   8937000   0.049998314   -0.30723128     0.035514527   -0.19672412     0.00014483541
   8938000   0.050197723   -0.30721847     0.035645312   -0.19628143    -0.00026208062
   8939000   0.04959669    -0.30686688     0.036109784   -0.19636686    -0.00089444479
   8940000   0.050006305   -0.3070711      0.035887676   -0.19617881     0.0005319736 
   8941000   0.049979018   -0.30670214     0.035704969   -0.19603348     4.1654523e-05
   8942000   0.050148688   -0.30637126     0.035487336   -0.19566574     0.0002581508 
   8943000   0.050195853   -0.30677991     0.035394596   -0.19609639     3.8126042e-05
   8944000   0.050599478   -0.30704438     0.035453606   -0.19569645     0.0005331943 
   8945000   0.050389363   -0.30703008     0.036106642   -0.19534427    -7.7816213e-05
   8946000   0.049784304   -0.30699124     0.035916211   -0.19640339    -0.00011430868
   8947000   0.050274529   -0.30692796     0.035951063   -0.19556997    -0.00012212141
   8948000   0.049949545   -0.30677083     0.036235618   -0.19561573     2.1982796e-05
   8949000   0.049870357   -0.30682816     0.035445058   -0.19658239     5.8141583e-05
   8950000   0.049820756   -0.30753124     0.035584078   -0.19722085    -0.00019034689
   8951000   0.050182662   -0.30700457     0.03540532    -0.19633012     8.5947488e-05
   8952000   0.0502145     -0.30682805     0.036015549   -0.19549561     0.0003415896 
   8953000   0.049922637   -0.30681909     0.036121234   -0.19581873    -0.00023680479
   8954000   0.049774399   -0.3067403      0.036037993   -0.19604552     0.00011652495
   8955000   0.050280753   -0.30719776     0.036028449   -0.19575304    -7.7444475e-06
   8956000   0.04988726    -0.30676352     0.035355106   -0.19658235     0.00026999464
   8957000   0.049755718   -0.3068628      0.035518473   -0.19671556    -1.1337521e-06
   8958000   0.050358694   -0.30674944     0.035835173   -0.1953811      8.0360976e-05
   8959000   0.04992882    -0.30720251     0.036501507   -0.1958126     -0.00014370643
   8960000   0.049806877   -0.30671709     0.035949564   -0.19606203     0.00032492383
   8961000   0.050269593   -0.30689941     0.035903797   -0.19559608     0.00034802533
   8962000   0.050395485   -0.3072048      0.035937739   -0.19567871     0.00015381039
   8963000   0.049827655   -0.30664215     0.036454536   -0.19545096    -0.00032948293
   8964000   0.050210451   -0.30692723     0.036040347   -0.19557606     0.00053146006
   8965000   0.050332401   -0.30654099     0.035819854   -0.19522741     0.00056855391
   8966000   0.049967469   -0.30669514     0.035476803   -0.19627197    -2.6769859e-05
   8967000   0.050488215   -0.3068607      0.03616371    -0.19496955    -0.00015737719
   8968000   0.04978159    -0.30690213     0.036247896   -0.19598667     2.1263817e-05
   8969000   0.050026139   -0.30724064     0.0363464     -0.19585987     0.00025098572
   8970000   0.050406426   -0.30713825     0.035912764   -0.19562073     4.821812e-05 
   8971000   0.050259446   -0.30709149     0.036080546   -0.19562664     0.00012812929
   8972000   0.049630454   -0.30701868     0.035500439   -0.19707736    -0.00010266369
   8973000   0.049130865   -0.30712098     0.035323269   -0.19810617    -0.00030929367
   8974000   0.049669608   -0.30724009     0.035816265   -0.19692422    -4.5015441e-05
   8975000   0.049370128   -0.30698965     0.035712198   -0.19722703    -0.00014535831
   8976000   0.050102544   -0.30693113     0.035317379   -0.19646479    -0.00013435376
   8977000   0.05044665    -0.30692295     0.03582211    -0.19543574     0.00036746372
   8978000   0.049577442   -0.30703126     0.035491713   -0.19717819    -2.7595356e-05
   8979000   0.04973907    -0.30752504     0.036150851   -0.1967704      0.00028565985
   8980000   0.050219851   -0.30678935     0.03614747    -0.19531696     0.00010508759
   8981000   0.050433034   -0.30698274     0.036317977   -0.19502009    -4.9707374e-05
   8982000   0.051037794   -0.30681553     0.035615568   -0.19464821     0.00017546761
   8983000   0.050368951   -0.30712022     0.035751325   -0.19582035    -0.00011047755
   8984000   0.049927064   -0.30701027     0.03597362    -0.19615089     0.00013971972
   8985000   0.050105957   -0.30703344     0.035742125   -0.19613723     0.00048419729
   8986000   0.050029011   -0.30717075     0.035732114   -0.19639996     0.00019258932
   8987000   0.049399602   -0.30761764     0.035734124   -0.1977889     -1.9458617e-05
   8988000   0.050150803   -0.30683704     0.036064922   -0.19555077    -1.4494721e-05
   8989000   0.050877945   -0.3070225      0.035579526   -0.19513098     4.6846987e-05
   8990000   0.050241048   -0.30722463     0.035646715   -0.1962212     -0.00021400429
   8991000   0.050444709   -0.30734042     0.035791919   -0.19588632    -0.00017128461
   8992000   0.049863659   -0.30697118     0.036190235   -0.19599028    -0.00016245206
   8993000   0.049920123   -0.30758141     0.035378091   -0.19732797     2.3691308e-05
   8994000   0.049802738   -0.30716025     0.035813425   -0.19664754     0.00020488414
   8995000   0.050473118   -0.30727852     0.035548803   -0.19602493     0.00039201104
   8996000   0.049870351   -0.30702027     0.035738385   -0.19648118     0.00027546984
   8997000   0.050156173   -0.30716552     0.035827944   -0.19610817     5.9528557e-05
   8998000   0.049653243   -0.30670412     0.036242757   -0.19598631     3.3028335e-05
   8999000   0.049312586   -0.30699652     0.036307777   -0.19672463     0.00023016607
   9000000   0.050086713   -0.3072737      0.035684833   -0.19646364    -0.00010822012
   9001000   0.049999623   -0.30708764     0.035960941   -0.19613211    -0.0002349259 
   9002000   0.050138588   -0.3073566      0.035668601   -0.19648497     0.00066052171
   9003000   0.050514087   -0.3071716      0.035923617   -0.19548174     0.00012444047
   9004000   0.04979898    -0.30720381     0.03551189    -0.19699827     0.00021013916
   9005000   0.050242704   -0.30726417     0.035501367   -0.19640361    -0.0002163901 
   9006000   0.049640974   -0.3070085      0.035877236   -0.19667461    -4.2528794e-06
   9007000   0.049756185   -0.30740019     0.0361308     -0.19663993     1.0554712e-06
   9008000   0.050955939   -0.30781898     0.035476472   -0.19591353    -3.6705019e-05
   9009000   0.049307919   -0.30713499     0.035998464   -0.19717942    -0.00033371474
   9010000   0.050414298   -0.30731636     0.036151589   -0.1955482      6.5959205e-05
   9011000   0.049401563   -0.3066824      0.035867504   -0.19671733    -0.00032933517
   9012000   0.049576599   -0.30753523     0.036081038   -0.1970941     -0.00032180451
   9013000   0.049898195   -0.30743703     0.036360099   -0.19623447     0.00017114236
   9014000   0.050371959   -0.30742741     0.035368882   -0.19650546     0.00011682878
   9015000   0.049689995   -0.30724548     0.035570541   -0.19714476     0.00022368451
   9016000   0.049828513   -0.3072464      0.035483793   -0.19702466     0.00020263559
   9017000   0.050203172   -0.30749369     0.035219608   -0.19697419    -0.00017859543
   9018000   0.049671806   -0.30776864     0.035395252   -0.19787049    -0.00021984967
   9019000   0.049826622   -0.30774093     0.036011544   -0.19699427     4.7752889e-05
   9020000   0.049757197   -0.3074263      0.035603263   -0.19719206     0.00030438743
   9021000   0.04931877    -0.30747268     0.036316518   -0.19718278    -0.00022771587
   9022000   0.049972288   -0.30756359     0.035567529   -0.19704246     0.00011035361
   9023000   0.050185314   -0.30771437     0.0361555     -0.19628575    -0.00043904785
   9024000   0.049922115   -0.3078664      0.036079089   -0.19690897    -9.49036e-05  
   9025000   0.049781791   -0.30741332     0.035779135   -0.19696631     9.755054e-05 
   9026000   0.049948589   -0.30790483     0.036035258   -0.19695152    -0.00017019327
   9027000   0.050202548   -0.30727347     0.035543464   -0.19643105    -0.00069988536
   9028000   0.04999154    -0.30733485     0.035630277   -0.1967221      0.00039065818
   9029000   0.049944263   -0.30733831     0.035642118   -0.19678463     0.00041610943
   9030000   0.049950637   -0.30740943     0.035655747   -0.19683256     0.00022898603
   9031000   0.050209051   -0.30748599     0.035501179   -0.19667609     1.0368685e-05
   9032000   0.049765347   -0.3074442      0.035948766   -0.19685223    -0.00017085724
   9033000   0.049938834   -0.30745269     0.035804524   -0.19674474    -0.00026206833
   9034000   0.050008658   -0.30750863     0.035598801   -0.19690168    -9.8181095e-05
   9035000   0.049917131   -0.30781513     0.03571891    -0.19722535     5.9231599e-05
   9036000   0.049803311   -0.30728982     0.035897239   -0.19669244     0.00023256718
   9037000   0.049753794   -0.30745653     0.036007877   -0.19682278    -0.00031325181
   9038000   0.050004483   -0.30786281     0.035809758   -0.19705116     3.0261054e-05
   9039000   0.050333995   -0.30761643     0.03562528    -0.19649503     3.0485417e-05
   9040000   0.049994661   -0.3072926      0.035855984   -0.19644946    -1.9855595e-05
   9041000   0.049615698   -0.30777181     0.035476584   -0.19787648     0.0001031205 
   9042000   0.050451368   -0.30730641     0.035563139   -0.1960711     -0.00023556081
   9043000   0.049841057   -0.30742253     0.035801454   -0.19686432     0.00024814462
   9044000   0.049768526   -0.30725317     0.035320494   -0.1972847     -9.1408165e-05
   9045000   0.049857454   -0.30700194     0.035406007   -0.19681458     0.00039930131
   9046000   0.050286642   -0.30759032     0.034804001   -0.19736122    -0.00034434931
   9047000   0.050484028   -0.30783779     0.035454069   -0.19666256    -0.00019765317
   9048000   0.050110894   -0.30762037     0.036096282   -0.1963626      0.00040863149
   9049000   0.050511081   -0.30749714     0.035841271   -0.19589413     0.00013881613
   9050000   0.050316409   -0.30753995     0.036041323   -0.19602889    -0.00034031255
   9051000   0.050106869   -0.30748497     0.036047907   -0.1962816     -0.00035252792
   9052000   0.049835076   -0.3073294      0.036394181   -0.19618743    -0.00029258222
   9053000   0.049857074   -0.30743356     0.035425307   -0.19722746    -0.00013310581
   9054000   0.050357975   -0.30784978     0.036513614   -0.19580407    -1.9310648e-05
   9055000   0.05032955    -0.30735452     0.035675728   -0.19618934    -0.00035812698
   9056000   0.050164024   -0.30731092     0.035383243   -0.19668649    -1.1443293e-06
   9057000   0.049980133   -0.30828276     0.036054082   -0.19726331    -0.00071769367
   9058000   0.049493458   -0.30733352     0.035364913   -0.19773321     3.5373892e-05
   9059000   0.050370225   -0.30803379     0.035254451   -0.19722887     0.00023771248
   9060000   0.049568646   -0.30794141     0.035341777   -0.19825146     2.179029e-05 
   9061000   0.049452861   -0.3077871      0.035331645   -0.19828095    -6.0406999e-05
   9062000   0.049485723   -0.30761846     0.035327861   -0.1980668      4.4370768e-05
   9063000   0.050114257   -0.30779923     0.036090381   -0.19654232    -0.00018677606
   9064000   0.049665118   -0.30753007     0.035487789   -0.19754942     7.4745402e-05
   9065000   0.050062158   -0.30760018     0.03612369    -0.1963881     -8.4560425e-05
   9066000   0.050401688   -0.30775948     0.035522547   -0.19663928     0.00014988496
   9067000   0.049907936   -0.30803285     0.035658541   -0.19751723    -0.0002294336 
   9068000   0.050015797   -0.3076929      0.035703426   -0.19697062     0.00018946242
   9069000   0.049934531   -0.30743543     0.035659897   -0.19687857     0.00050620586
   9070000   0.050199916   -0.30784205     0.035762973   -0.19678406    -1.6013709e-05
   9071000   0.049454066   -0.30786854     0.035358809   -0.19833341    -0.00027078628
   9072000   0.049641684   -0.30732466     0.035256331   -0.19761061    -0.00034663384
   9073000   0.04967047    -0.30750924     0.035798061   -0.19721028    -0.00018261694
   9074000   0.050258495   -0.30770724     0.035277832   -0.19704653    -0.00034985566
   9075000   0.049968082   -0.30713008     0.035161137   -0.19702166    -2.9671473e-05
   9076000   0.049875069   -0.30727477     0.035705255   -0.19676174     0.00022643953
   9077000   0.049668158   -0.30721502     0.035594489   -0.19712311     0.00023402977
   9078000   0.050828321   -0.30774094     0.035784367   -0.19571901     2.6926634e-05
   9079000   0.050667223   -0.30782808     0.035745274   -0.19608688     0.00012020498
   9080000   0.050486645   -0.30752998     0.035669229   -0.19613567    -8.7488644e-05
   9081000   0.049589971   -0.30782248     0.036013436   -0.19742889     0.00018571625
   9082000   0.050542291   -0.30804424     0.036111857   -0.19612384    -0.00012164095
   9083000   0.050114831   -0.30770544     0.03602453    -0.19651351    -0.00012347774
   9084000   0.050188424   -0.30793956     0.035751627   -0.19691015    -0.00016850012
   9085000   0.050248925   -0.30831893     0.03582676    -0.19712364    -4.6129927e-05
   9086000   0.049805467   -0.30797545     0.034867624   -0.19840445     0.00020604987
   9087000   0.049417356   -0.30785863     0.035250984   -0.1984864     -8.4811378e-05
   9088000   0.049291074   -0.30779408     0.035174935   -0.19868731    -3.3244985e-05
   9089000   0.049668875   -0.30821716     0.035183174   -0.19853548     0.00034435338
   9090000   0.049957014   -0.30743052     0.035946666   -0.19655317     9.2954549e-05
   9091000   0.049760468   -0.30779165     0.036234633   -0.19692113     0.00012856338
   9092000   0.050150329   -0.30776092     0.035831832   -0.19670845     0.00023086935
   9093000   0.050039743   -0.30780075     0.035435091   -0.19731089    -2.9280674e-05
   9094000   0.050112659   -0.30808253     0.035438396   -0.19747999     0.0001086123 
   9095000   0.049736193   -0.30817119     0.035826979   -0.19774474     1.7401059e-05
   9096000   0.05031989    -0.30762269     0.035584128   -0.1965636      1.7025559e-05
   9097000   0.050426701   -0.30789557     0.035725682   -0.19653471    -6.187466e-06 
   9098000   0.050092815   -0.30769937     0.035339295   -0.1972257     -0.00017116422
   9099000   0.050207478   -0.30806375     0.03576099    -0.19699641     7.3835881e-05
   9100000   0.050292859   -0.30780243     0.035662122   -0.19670588    -4.1721141e-05
   9101000   0.050016668   -0.30747702     0.036232618   -0.19622425     0.00012594685
   9102000   0.050187895   -0.30753371     0.03595316    -0.19630357     0.0003947509 
   9103000   0.050224625   -0.30790833     0.036011904   -0.19656435     0.00039972625
   9104000   0.049686234   -0.3080711      0.035554826   -0.19799173    -0.00015663504
   9105000   0.049842587   -0.30805874     0.035933997   -0.19736568    -0.00017327506
   9106000   0.050570776   -0.30818236     0.035275595   -0.19705549     0.00023376066
   9107000   0.049631801   -0.30805795     0.035690892   -0.19792415    -2.4942701e-06
   9108000   0.050147869   -0.30815783     0.036002038   -0.19693885     0.00023445702
   9109000   0.049782601   -0.30794064     0.035686922   -0.19758463     0.00024563997
   9110000   0.049953924   -0.30781835     0.035578316   -0.19731398     0.00011307816
   9111000   0.049812757   -0.30798431     0.035046817   -0.19822317     0.0010915029 
   9112000   0.049814022   -0.30791238     0.03571527    -0.1974809     -0.00018893012
   9113000   0.049567617   -0.30802039     0.036034707   -0.19763906    -0.00034833291
   9114000   0.050196767   -0.30826397     0.036155086   -0.19681859    -0.00051943641
   9115000   0.050526443   -0.30793114     0.035565225   -0.19658114     0.00021774983
   9116000   0.049517761   -0.30841483     0.035911923   -0.19823106    -0.0001392464 
   9117000   0.049884892   -0.30782549     0.035654918   -0.19734806     0.00020434091
   9118000   0.050152259   -0.30713219     0.035888704   -0.19601995     0.00030056437
   9119000   0.050012936   -0.30817988     0.035784919   -0.1973804      0.00033531061
   9120000   0.050120548   -0.30813446     0.035430371   -0.19752811     5.091967e-05 
   9121000   0.049542227   -0.30809855     0.036118723   -0.19767129    -0.00015875525
   9122000   0.049676997   -0.30795117     0.036270695   -0.19716979    -0.00021505569
   9123000   0.050499891   -0.3079952      0.036182419   -0.19606783     0.00023447585
   9124000   0.050547075   -0.30788744     0.035357451   -0.19671427     0.00023223663
   9125000   0.050046474   -0.30800878     0.035629752   -0.19731416     0.00023626789
   9126000   0.049993762   -0.30785059     0.035863699   -0.19700109    -0.00015205832
   9127000   0.049496426   -0.30844568     0.035946727   -0.19825911    -0.00016087209
   9128000   0.050036197   -0.30838498     0.035214725   -0.1981208      0.00053721425
   9129000   0.0496918     -0.30810713     0.035413994   -0.19816024    -0.00018440871
   9130000   0.049574487   -0.30811934     0.035370181   -0.19839223     0.00021402841
   9131000   0.049417374   -0.3078929      0.035048731   -0.19872289     0.00016599764
   9132000   0.050039169   -0.30801999     0.036071477   -0.19689461     0.0002119702 
   9133000   0.0496551     -0.30783478     0.035717059   -0.19763987     0.00032505348
   9134000   0.050312241   -0.30778239     0.036106274   -0.19621263    -0.0002578808 
   9135000   0.049881539   -0.30821862     0.035659457   -0.19774168    -0.00018108232
   9136000   0.050274012   -0.30822258     0.035770813   -0.19704561    -9.8700432e-05
   9137000   0.050197197   -0.3079326      0.035418866   -0.19722279     0.00026575574
   9138000   0.050266796   -0.30807312     0.035665702   -0.19701209     2.4761703e-05
   9139000   0.050726894   -0.3079789      0.035171738   -0.19672173    -0.00018128488
   9140000   0.049675871   -0.3078837      0.036190115   -0.19718458     0.00036305525
   9141000   0.05020778    -0.30813663     0.035037578   -0.19779224    -0.00013082108
   9142000   0.049919706   -0.3078766      0.035753297   -0.19724857     0.00062115612
   9143000   0.049772193   -0.30847103     0.0357735     -0.19804405     0.00021450461
   9144000   0.049685718   -0.30801605     0.03594567    -0.19754661    -0.00042398261
   9145000   0.050483706   -0.30758224     0.035269151   -0.19659241     0.00017377742
   9146000   0.050187136   -0.30797255     0.036073074   -0.19662363    -1.7451835e-05
   9147000   0.049884644   -0.30818924     0.035868842   -0.19749826     0.00020881038
   9148000   0.050278635   -0.30797165     0.035962279   -0.19659628     0.00017990956
   9149000   0.051093015   -0.3078087      0.036066403   -0.19510771    -0.0004564857 
   9150000   0.050647278   -0.30757168     0.035922552   -0.19568311     0.00018228713
   9151000   0.050277146   -0.30769653     0.035559363   -0.19672631    -7.5999007e-05
   9152000   0.050516171   -0.30793527     0.035643921   -0.19652199     2.3305798e-05
   9153000   0.050112695   -0.30800021     0.035663773   -0.19717225     0.00022614367
   9154000   0.049579087   -0.30768892     0.035759847   -0.19756524    -1.2833083e-05
   9155000   0.049530489   -0.30800725     0.035975287   -0.19774103    -0.00013598221
   9156000   0.049608614   -0.30798666     0.035283049   -0.19829549     0.00010407909
   9157000   0.04927055    -0.30816895     0.036080004   -0.19818789    -0.00034119902
   9158000   0.049843978   -0.30770015     0.036032596   -0.19690641    -0.00022119197
   9159000   0.050383736   -0.30791793     0.035715786   -0.19663142     0.00029145701
   9160000   0.050018955   -0.30768808     0.035795815   -0.19686867    -0.00018606546
   9161000   0.049564204   -0.30786039     0.035535064   -0.19798381    -0.0002934454 
   9162000   0.049892749   -0.30783017     0.035485069   -0.19751081     0.00061070272
   9163000   0.050075506   -0.3080823      0.035887414   -0.19708648     0.00024233396
   9164000   0.050142986   -0.30791035     0.035395975   -0.19730475     0.00011211372
   9165000   0.050180328   -0.30759072     0.03567178    -0.19665331    -0.00020674713
   9166000   0.050149015   -0.30818348     0.035310914   -0.1976539      0.00018979225
   9167000   0.050039634   -0.3084758      0.036172825   -0.19724837    -0.00040363294
   9168000   0.049488607   -0.30813795     0.035343311   -0.19856652     0.00020787978
   9169000   0.049219293   -0.30825562     0.035430074   -0.19900137     0.00017160108
   9170000   0.049719465   -0.30810508     0.036001992   -0.1975287     -0.00017898877
   9171000   0.049190882   -0.30831722     0.0358304     -0.19870526     0.00025167126
   9172000   0.049985199   -0.30795152     0.035616197   -0.19736236    -0.00024338599
   9173000   0.04979488    -0.30761783     0.036067084   -0.19686324     0.00038786277
   9174000   0.050284369   -0.30804793     0.035498042   -0.19712821    -2.8343107e-05
   9175000   0.050267231   -0.30799581     0.03574306    -0.19685677    -5.5849539e-05
   9176000   0.05035434    -0.30789037     0.035119717   -0.19724402     0.00017108967
   9177000   0.050248033   -0.30804308     0.035751086   -0.19692481    -9.6937101e-05
   9178000   0.050547407   -0.30826475     0.035835703   -0.19661283     0.00025622084
   9179000   0.050373536   -0.30796445     0.035429174   -0.19697985    -1.3704928e-05
   9180000   0.049786841   -0.30803114     0.036236519   -0.19711918    -0.0004685918 
   9181000   0.049738968   -0.30808463     0.035923692   -0.1975573      4.1801148e-05
   9182000   0.050112355   -0.30803268     0.035595843   -0.19727316     0.00040209304
   9183000   0.049379306   -0.30796482     0.035118731   -0.19878191    -0.00027560807
   9184000   0.049790996   -0.30825384     0.035841188   -0.19773098    -0.00048424072
   9185000   0.049984047   -0.30795867     0.035965642   -0.19702179    -0.00033771907
   9186000   0.050161991   -0.30820925     0.035388587   -0.19758253     0.00042599422
   9187000   0.049876753   -0.30783866     0.035508678   -0.19751968    -8.7019753e-06
   9188000   0.049699229   -0.30817885     0.035480488   -0.19815433     0.00019914025
   9189000   0.04947027    -0.30770936     0.035292212   -0.19821653     0.00020525778
   9190000   0.049580582   -0.3083735      0.035338505   -0.19866892    -0.0001704818 
   9191000   0.049748697   -0.3081346      0.035438827   -0.19807754     0.00025716192
   9192000   0.050110764   -0.30812911     0.035624876   -0.19734294    -0.00012141266
   9193000   0.050099185   -0.30781808     0.03495937    -0.19771478    -0.00023273112
   9194000   0.049974704   -0.30807246     0.03564686    -0.19746838    -1.9880998e-05
   9195000   0.050410356   -0.30775692     0.035683132   -0.19646313     0.00020951895
   9196000   0.049761842   -0.30781608     0.035618862   -0.19755927     0.0002729559 
   9197000   0.050104533   -0.30810075     0.035680373   -0.19726843     0.00013512945
   9198000   0.050061675   -0.3084331      0.036210929   -0.1971345      1.1843838e-05
   9199000   0.049742422   -0.30831075     0.036631432   -0.1970705     -0.00027814644
   9200000   0.050200428   -0.3081469      0.035870031   -0.19698108     0.00035188723
   9201000   0.050037988   -0.30808848     0.036133596   -0.19690274     8.447652e-05 
   9202000   0.049535871   -0.30845015     0.035419121   -0.19873202     0.00013686928
   9203000   0.049764      -0.30845096     0.035018884   -0.19879089     0.00064676933
   9204000   0.049795487   -0.30843484     0.035544995   -0.19820143    -0.0001369138 
   9205000   0.049885529   -0.30811078     0.035378388   -0.19790892     0.00034917006
   9206000   0.049667956   -0.30801088     0.035680045   -0.1978337     -8.2959933e-05
   9207000   0.050392869   -0.30851514     0.035703122   -0.19722759    -5.7262561e-06
   9208000   0.049731353   -0.30840021     0.035781134   -0.19802685    -0.0002276614 
   9209000   0.04975489    -0.3085397      0.035869084   -0.1980431     -0.00031691007
   9210000   0.049879058   -0.30809046     0.035163137   -0.19811356     0.00013079757
   9211000   0.049821885   -0.30808163     0.03514171    -0.19821191     0.00010082758
   9212000   0.049905952   -0.30784418     0.035808725   -0.19718136     8.0778703e-05
   9213000   0.050453449   -0.30825763     0.036307609   -0.19627473    -0.0006778265 
   9214000   0.050561609   -0.30800573     0.035917676   -0.19625053    -0.00037359915
   9215000   0.049736748   -0.30784227     0.036377657   -0.19686431     0.00045599237
   9216000   0.050232555   -0.30813381     0.035760956   -0.19702888    -0.00013677014
   9217000   0.049634637   -0.30815001     0.036264489   -0.19743837    -0.00011988038
   9218000   0.050269645   -0.30829821     0.035647796   -0.19725081    -0.0001397386 
   9219000   0.050186105   -0.30815032     0.035466662   -0.19740936    -8.0047947e-05
   9220000   0.049910762   -0.30846781     0.035393902   -0.1982126     -0.00028031239
   9221000   0.049958899   -0.30819557     0.035789012   -0.19747304     0.00011496731
   9222000   0.050142032   -0.30860489     0.035132504   -0.19826419    -2.5726094e-05
   9223000   0.049881518   -0.30835597     0.035140169   -0.19839835     0.00028573377
   9224000   0.050668737   -0.3082382      0.03504314    -0.19719686    -0.00012619976
   9225000   0.050083453   -0.30894594     0.035494544   -0.19833106     9.100517e-05 
   9226000   0.050082361   -0.30823041     0.035994346   -0.19711737     6.3434163e-06
   9227000   0.049687872   -0.30783336     0.035132523   -0.19817384     0.00027954118
   9228000   0.049836395   -0.30807834     0.035929415   -0.19739916    -0.00012660922
   9229000   0.050032796   -0.3082094      0.035598267   -0.19756678    -0.00015118824
   9230000   0.05001394    -0.30793374     0.035584134   -0.19733354     0.00028678996
   9231000   0.049636495   -0.30825936     0.035992047   -0.19781737     0.00027578732
   9232000   0.04963958    -0.30855271     0.035546632   -0.19855152    -0.00052397365
   9233000   0.049578023   -0.30834324     0.035521237   -0.19845977     0.00023836632
   9234000   0.049846017   -0.30819726     0.03548116    -0.1979519     -0.00011324248
   9235000   0.050162504   -0.30805252     0.035177018   -0.1976366     -0.00058432246
   9236000   0.050306188   -0.30804158     0.035965643   -0.19662153    -6.28809e-05  
   9237000   0.050200447   -0.30815402     0.036097893   -0.19676032    -5.6787912e-05
   9238000   0.049894382   -0.30831203     0.035973832   -0.19750145    -0.00031668312
   9239000   0.049717843   -0.30800287     0.035536027   -0.19789489     0.00012860865
   9240000   0.050068555   -0.30860443     0.035074077   -0.19843236     6.0497139e-05
   9241000   0.049216708   -0.30794759     0.035885016   -0.19824227    -7.6736732e-05
   9242000   0.049751087   -0.30792458     0.035722722   -0.19758004    -0.00025933935
   9243000   0.050256211   -0.30813624     0.03595913    -0.19679765    -0.00047756895
   9244000   0.050213948   -0.30801741     0.035371363   -0.19732998    -0.00015751406
   9245000   0.049422512   -0.30834408     0.035952035   -0.19826306    -0.00037462722
   9246000   0.050438282   -0.30827358     0.035820598   -0.19680044     6.4498694e-05
   9247000   0.049978785   -0.3082978      0.03595794    -0.19737652    -0.00014905189
   9248000   0.049717691   -0.30793388     0.036376933   -0.19698522     1.3423759e-05
   9249000   0.049672435   -0.3081184      0.035312026   -0.19830252     0.00041539208
   9250000   0.050325527   -0.30814101     0.035897506   -0.19676008     0.00014808375
   9251000   0.049823196   -0.30807434     0.035695082   -0.19764928    -0.00016018543
   9252000   0.049935375   -0.30829856     0.035378077   -0.19802225     0.00038604404
   9253000   0.049496233   -0.30819029     0.035917239   -0.19803349     1.6122583e-05
   9254000   0.050441047   -0.30787543     0.035775637   -0.19644311    -0.00019695522
   9255000   0.050312744   -0.30823014     0.035906819   -0.19685907     1.0313969e-05
   9256000   0.05000203    -0.30833435     0.035982726   -0.19735342     5.7470139e-05
   9257000   0.049839882   -0.30826852     0.035819326   -0.19769419    -5.3439149e-06
   9258000   0.049913856   -0.30813949     0.03562722    -0.19764631     4.1215119e-05
   9259000   0.050038281   -0.3081175      0.03539064    -0.19767428    -1.9513346e-05
   9260000   0.049963614   -0.30818513     0.035315441   -0.1979291      0.0004204808 
   9261000   0.049780271   -0.30828496     0.035702684   -0.19791669     0.00029337047
   9262000   0.049638252   -0.30846522     0.03644909    -0.19756356     0.00017565717
   9263000   0.049781127   -0.30831859     0.036340753   -0.19731097    -0.00029416463
   9264000   0.050026373   -0.30786342     0.035222981   -0.19760572     0.00029774199
   9265000   0.050143685   -0.30832846     0.035365679   -0.19775211     0.00032761547
   9266000   0.050014221   -0.30807217     0.035895797   -0.19715988     0.00012119649
   9267000   0.049275826   -0.30823292     0.035630197   -0.19869375     0.00015714191
   9268000   0.049911164   -0.30825541     0.035293212   -0.19810028     0.00015104736
   9269000   0.049727463   -0.30793209     0.035348194   -0.19799751     0.00017857708
   9270000   0.05022843    -0.30797746     0.035395696   -0.19724398     0.0007020304 
   9271000   0.049710874   -0.30798873     0.035599686   -0.19782755     0.00023408327
   9272000   0.050365959   -0.30809445     0.036396443   -0.19615394    -0.00062866847
   9273000   0.050059461   -0.30820058     0.036054089   -0.19706214    -3.5535368e-05
   9274000   0.049779187   -0.30849804     0.036799881   -0.19703419    -0.00012060733
   9275000   0.050499328   -0.30838444     0.035379959   -0.19726037     0.00017085456
   9276000   0.050547875   -0.30827258     0.036715058   -0.1957406      0.00012628154
   9277000   0.049990085   -0.30826572     0.035736339   -0.19754909     0.00013071244
   9278000   0.049983824   -0.30875979     0.035734521   -0.19805437     0.00038181887
   9279000   0.049867811   -0.30839857     0.036229465   -0.19737221    -0.00024965117
   9280000   0.050185501   -0.30842339     0.035865659   -0.19728434     0.00021670035
   9281000   0.0505439     -0.30816838     0.035333104   -0.19702432     5.2400947e-05
   9282000   0.050086873   -0.30853594     0.036386101   -0.19702437    -0.00035959351
   9283000   0.05028137    -0.30816223     0.035536442   -0.1972086      0.00041228636
   9284000   0.050246013   -0.30810741     0.035201768   -0.19754148     0.00021712636
   9285000   0.0499617     -0.30843219     0.03570459    -0.19778989    -0.00017903387
   9286000   0.049977646   -0.3085938      0.035639887   -0.19799229    -9.7741048e-05
   9287000   0.049727972   -0.30801077     0.035698787   -0.19772484    -5.5093793e-05
   9288000   0.049331499   -0.30828733     0.035883412   -0.19841144     0.00022835146
   9289000   0.049946994   -0.3083021      0.035189986   -0.19819646     0.00011727168
   9290000   0.049664052   -0.30832942     0.036067829   -0.19777032    -0.00014222963
   9291000   0.049529418   -0.30879134     0.034753785   -0.19974822     0.00014268457
   9292000   0.049618389   -0.30839572     0.03572248    -0.19825046     7.1493763e-05
   9293000   0.049482241   -0.30852965     0.035823439   -0.19848763    -0.00047941656
   9294000   0.049836039   -0.30840882     0.035541638   -0.19811794    -7.2347054e-05
   9295000   0.049418125   -0.30857509     0.035321325   -0.19913136     0.00032693624
   9296000   0.049993994   -0.30855069     0.035872566   -0.19769197    -3.0281868e-05
   9297000   0.050324848   -0.30822334     0.035690649   -0.19705028     0.00013546593
   9298000   0.049956995   -0.30860427     0.035460986   -0.19821263    -0.00010534863
   9299000   0.049781764   -0.30863815     0.036024516   -0.19794581    -8.7166218e-05
   9300000   0.04959821    -0.30851404     0.03574076    -0.19838077     6.1589382e-05
   9301000   0.049658672   -0.30865721     0.035479518   -0.19869449    -1.5390726e-05
   9302000   0.049494741   -0.30846578     0.035972515   -0.19825595    -0.00013196417
   9303000   0.049711935   -0.30873003     0.03542837    -0.19873857     4.5478753e-05
   9304000   0.049841074   -0.30881711     0.03572907    -0.19833125    -0.00042227711
   9305000   0.050043707   -0.30789368     0.035525485   -0.19730748     0.00020574835
   9306000   0.049687797   -0.30894299     0.035805221   -0.19861088     1.6101996e-05
   9307000   0.04959061    -0.30829723     0.035514508   -0.1984016     -0.00014261921
   9308000   0.049601281   -0.30888846     0.036037244   -0.1984541      0.00021995212
   9309000   0.050012677   -0.30858874     0.035252128   -0.19832244     0.00046710862
   9310000   0.050339287   -0.30864012     0.035558614   -0.19757745    -0.00010568338
   9311000   0.049781857   -0.3085375      0.035975155   -0.19789437     8.6122628e-05
   9312000   0.050480034   -0.30860718     0.036101615   -0.19679039    -0.00024379479
   9313000   0.05022744    -0.3084641      0.035740466   -0.19738734    -9.6413381e-05
   9314000   0.049970527   -0.30861586     0.036208055   -0.19745685     0.00062915476
   9315000   0.049991018   -0.30874057     0.035768107   -0.19799078    -0.00038364836
   9316000   0.050104819   -0.30821312     0.034996647   -0.19806409     0.00020565451
   9317000   0.04973906    -0.30823922     0.035887183   -0.19774826     0.00032795642
   9318000   0.050347756   -0.30842821     0.035485666   -0.19742578    -3.6807775e-05
   9319000   0.050272702   -0.30850398     0.035485477   -0.19761431    -0.00023038415
   9320000   0.049928192   -0.30858744     0.035528012   -0.19817197    -0.00034452656
   9321000   0.050192944   -0.30824751     0.034930516   -0.19803243     0.00062563785
   9322000   0.050406845   -0.30812488     0.034952302   -0.19756719     0.00031731854
   9323000   0.04990872    -0.30847605     0.035841679   -0.19777612    -7.8234089e-05
   9324000   0.049933535   -0.30820155     0.03532592    -0.19798016     9.3255357e-05
   9325000   0.049300322   -0.30825959     0.035660896   -0.19865298     0.00022439003
   9326000   0.049325117   -0.3083042      0.035555082   -0.19876622     0.00015660991
   9327000   0.049720358   -0.30885298     0.035504976   -0.19877228    -9.095745e-05 
   9328000   0.049936057   -0.30880811     0.035274926   -0.19863393    -0.00018419476
   9329000   0.049989434   -0.30859363     0.035378673   -0.19823565     0.00042526192
   9330000   0.048959615   -0.30831682     0.035948034   -0.1989341     -0.00032671794
   9331000   0.049736655   -0.30839886     0.035615164   -0.19818352     0.000188765  
   9332000   0.049628314   -0.30817485     0.03591737    -0.19781982     3.3160586e-05
   9333000   0.050130277   -0.30833805     0.035472302   -0.19767518     0.00016190838
   9334000   0.04928367    -0.30801076     0.035775766   -0.19831426     0.00051606712
   9335000   0.04990954    -0.30832027     0.03521321    -0.19824758     0.00039784355
   9336000   0.050005407   -0.30807911     0.035589542   -0.19748629     0.00011720837
   9337000   0.050318302   -0.30808949     0.035342127   -0.19727478     0.00011475978
   9338000   0.049697447   -0.30802702     0.035276883   -0.19820878     0.00024260186
   9339000   0.0504181     -0.30846288     0.0360961     -0.19674451    -0.00019638501
   9340000   0.050046457   -0.30829338     0.035720329   -0.19750821     0.00019201534
   9341000   0.050487649   -0.30847385     0.035511583   -0.19723568     4.6289447e-05
   9342000   0.049799588   -0.30835372     0.035432409   -0.19822675     5.1464824e-05
   9343000   0.050415115   -0.30882765     0.035710716   -0.19749914    -0.00017564836
   9344000   0.050312398   -0.30837915     0.036198836   -0.19671659     0.00013056012
   9345000   0.050016579   -0.30854285     0.035953211   -0.19756961    -0.00028132144
   9346000   0.050589489   -0.30840434     0.035871617   -0.19665338     0.00028118391
   9347000   0.050241779   -0.30844546     0.036371362   -0.1967163     -1.2531632e-05
   9348000   0.049651048   -0.30843178     0.035975158   -0.19798485     0.00020898807
   9349000   0.049712058   -0.30820915     0.03513098    -0.1985149      0.00042954872
   9350000   0.050162148   -0.30822743     0.035847281   -0.19714178     0.00030597772
   9351000   0.049815182   -0.30817524     0.036054226   -0.19740306     7.856928e-05 
   9352000   0.049701718   -0.30882531     0.035702582   -0.19857497     3.7501622e-05
   9353000   0.050161121   -0.30830439     0.035262996   -0.19780457     0.00022654694
   9354000   0.050052447   -0.30829663     0.036077683   -0.19714512    -0.00011702975
   9355000   0.050685804   -0.30878497     0.035938212   -0.19682295     0.00020576654
   9356000   0.050142871   -0.30843069     0.035530341   -0.19769089    -0.00017551038
   9357000   0.050142505   -0.30836272     0.035620154   -0.19753366     0.00073640227
   9358000   0.049888445   -0.30842423     0.035704626   -0.19789177     0.00013290325
   9359000   0.049868299   -0.30838799     0.035459354   -0.19813101     0.00042254824
   9360000   0.049538211   -0.30860711     0.035908366   -0.19839622    -0.00042678182
   9361000   0.050261664   -0.30864035     0.035569229   -0.19768349     0.0005507818 
   9362000   0.049594913   -0.30879394     0.035348218   -0.19905816     0.00020062967
   9363000   0.050233195   -0.30834699     0.035452895   -0.19754917    -0.00019793635
   9364000   0.049656076   -0.30831707     0.035510629   -0.19832713     9.8772993e-05
   9365000   0.049867235   -0.30809096     0.035482432   -0.1978125      0.00024130575
   9366000   0.049625623   -0.30871576     0.036471832   -0.1978103      4.0372077e-05
   9367000   0.050791022   -0.30851308     0.035841569   -0.19648989     0.00036696154
   9368000   0.050414986   -0.30844933     0.036032399   -0.19679933     0.00012203127
   9369000   0.049875577   -0.30827204     0.035653411   -0.19781009     0.00060353612
   9370000   0.04991371    -0.3083157      0.036353475   -0.19709649    -0.00017837027
   9371000   0.049768438   -0.30832        0.036153667   -0.19751849     0.00029406187
   9372000   0.049983238   -0.308453       0.035938412   -0.19754457     5.0363232e-05
   9373000   0.050022141   -0.30815376     0.036037142   -0.19708825    -2.1907468e-05
   9374000   0.050241176   -0.30834491     0.036450591   -0.19653742    -9.6961164e-06
   9375000   0.049916958   -0.30866697     0.036155487   -0.19764087    -0.00027453406
   9376000   0.050014949   -0.3083451      0.036103603   -0.19722391    -0.00017552745
   9377000   0.049331793   -0.30829712     0.036525819   -0.19777839    -0.00016303905
   9378000   0.050335115   -0.30812728     0.035913387   -0.19671609    -0.00038991914
   9379000   0.050415488   -0.30814445     0.035169577   -0.19735652     0.00018640486
   9380000   0.049862779   -0.30834962     0.035762737   -0.19779754     4.4134377e-05
   9381000   0.050205226   -0.30843588     0.036013481   -0.19711942    -0.00018376513
   9382000   0.05006165    -0.30826909     0.035539065   -0.19764239     7.0160561e-05
   9383000   0.050492395   -0.3087058      0.035425876   -0.19754622     6.1367567e-05
   9384000   0.049452079   -0.30828325     0.036548369   -0.19756155    -0.00042309009
   9385000   0.050379539   -0.3085968      0.035742384   -0.19728998    -5.2634265e-05
   9386000   0.049977489   -0.3083254      0.035439081   -0.19792493     0.00013273341
   9387000   0.049916791   -0.30848838     0.036257494   -0.19736053     0.00054513733
   9388000   0.049984323   -0.30857177     0.035885772   -0.19771435    -0.00019516662
   9389000   0.050656678   -0.30855994     0.035916273   -0.19666355     0.00016681852
   9390000   0.049743936   -0.30843382     0.035833709   -0.19798902    -5.5381135e-05
   9391000   0.050464433   -0.308559       0.035900485   -0.19696674     0.00024154835
   9392000   0.049827962   -0.30840761     0.03510568    -0.19856481     2.6033004e-07
   9393000   0.049598022   -0.30884763     0.035913116   -0.19854228    -4.6704537e-05
   9394000   0.050330218   -0.30857724     0.036094675   -0.19699211     0.00026930482
   9395000   0.049901521   -0.30849262     0.035972315   -0.19767286    -6.1935715e-05
   9396000   0.050006685   -0.30833219     0.035717363   -0.19760963    -0.00031387023
   9397000   0.050059153   -0.30832382     0.035714313   -0.19752562     0.00019703641
   9398000   0.050071767   -0.30861667     0.035555437   -0.19795843     0.00038431774
   9399000   0.050430556   -0.3086029      0.035793743   -0.1971682      0.00028234646
   9400000   0.049821393   -0.30832353     0.035983512   -0.19761275    -0.0003175665 
   9401000   0.049590157   -0.30798424     0.035254133   -0.19834968     0.00013935104
   9402000   0.049698079   -0.30862113     0.035453704   -0.19862511     9.5994032e-06
   9403000   0.050198744   -0.30856135     0.035190222   -0.19807787     1.0951075e-05
   9404000   0.050000081   -0.30865391     0.035843689   -0.19781494    -7.8367007e-05
   9405000   0.050113677   -0.30823382     0.035856023   -0.19721213     0.00023057665
   9406000   0.049862205   -0.30841878     0.03555603    -0.19807427    -0.00034494543
   9407000   0.04975457    -0.30839035     0.03547828    -0.19828503    -0.00021705966
   9408000   0.050028223   -0.30855116     0.035841939   -0.19767173     0.00021970092
   9409000   0.050067945   -0.30840897     0.036305186   -0.19700671     0.00036054139
   9410000   0.05039628    -0.30838259     0.035857399   -0.19693565     0.00022195866
   9411000   0.049604423   -0.30864519     0.03542104    -0.19882232     0.00014794603
   9412000   0.04942116    -0.30872081     0.035898664   -0.19869519    -8.6853781e-05
   9413000   0.050128354   -0.30841653     0.036059723   -0.19716913     0.00030272553
   9414000   0.050130124   -0.30866758     0.035603639   -0.19787361     0.00031724719
   9415000   0.049999407   -0.30859698     0.035575953   -0.19802675     0.00043786447
   9416000   0.049697519   -0.30848062     0.036176396   -0.19776275    -0.00041508981
   9417000   0.050236779   -0.30871046     0.035532978   -0.19782718     2.0938258e-05
   9418000   0.050199986   -0.30858202     0.035028116   -0.19825878     9.5272534e-05
   9419000   0.049585532   -0.30865259     0.036059724   -0.19821937    -6.8075255e-05
   9420000   0.05005941    -0.30840906     0.035520272   -0.19780452     0.00029736897
   9421000   0.050432642   -0.30868985     0.03521232    -0.19783345    -6.756054e-05 
   9422000   0.049711198   -0.30832392     0.035616146   -0.19814579    -0.00031881263
   9423000   0.049598538   -0.30853666     0.036363731   -0.19777992    -0.00032106055
   9424000   0.049977484   -0.30833476     0.035942913   -0.19743046    -5.7223085e-05
   9425000   0.050319543   -0.30886217     0.035589153   -0.19779857     8.3829264e-05
   9426000   0.049548418   -0.30865966     0.036096809   -0.19824502    -0.0001890565 
   9427000   0.049828411   -0.30846399     0.035453664   -0.19827253     0.00020642369
   9428000   0.049437596   -0.30918045     0.036048219   -0.19898062    -0.00037211567
   9429000   0.049843727   -0.30871611     0.035130311   -0.19882503     0.00046450133
   9430000   0.049912369   -0.3087951      0.035428152   -0.19850322     0.00016680499
   9431000   0.050212173   -0.30857302     0.035346238   -0.19791338    -0.00019001114
   9432000   0.049856613   -0.30862894     0.035381525   -0.19846732     0.00020953856
   9433000   0.049708788   -0.30841369     0.036372343   -0.19748298     0.00045722354
   9434000   0.049724769   -0.30876842     0.035756934   -0.19842915     0.00022152703
   9435000   0.050340001   -0.30818529     0.035503331   -0.19717683     0.00031602157
   9436000   0.050091147   -0.30849751     0.035734981   -0.19763066    -6.0643988e-05
   9437000   0.050091581   -0.30859905     0.035328041   -0.19813849    -0.00014471567
   9438000   0.049782942   -0.30843982     0.035365992   -0.19840423    -0.00011260593
   9439000   0.050436739   -0.30828018     0.034812931   -0.19781702     0.00044776302
   9440000   0.050075908   -0.30840351     0.035713053   -0.19758145     0.00013187466
   9441000   0.05031841    -0.30883616     0.03560183    -0.19776158     7.8907718e-05
   9442000   0.050169252   -0.30850552     0.03647135    -0.19678515    -0.00026317616
   9443000   0.049448992   -0.30844135     0.03589798    -0.19837467    -0.00045699493
   9444000   0.049259611   -0.30863118     0.036265731   -0.1984808     -6.8812605e-05
   9445000   0.049454795   -0.30877779     0.035879667   -0.19872072    -0.00020921074
   9446000   0.050049854   -0.30846406     0.03624942    -0.19714471    -0.00035862856
   9447000   0.050139472   -0.30850602     0.035478527   -0.19782313    -2.0784362e-05
   9448000   0.050340949   -0.30887295     0.035748175   -0.19761822    -0.00038019939
   9449000   0.050269279   -0.30872614     0.035091331   -0.19823576     0.00030522799
   9450000   0.050305222   -0.3086542      0.035847952   -0.19735328    -0.00070847517
   9451000   0.049706081   -0.30865132     0.035295079   -0.19880192     2.4660713e-05
   9452000   0.049823678   -0.30862129     0.035693366   -0.19819723     0.00024313457
   9453000   0.049785798   -0.30875239     0.035940133   -0.19813838    -2.4642995e-05
   9454000   0.049878605   -0.30857475     0.035995925   -0.19776575    -0.00010702573
   9455000   0.050253713   -0.30835616     0.035234124   -0.19774633     0.00039196544
   9456000   0.050041181   -0.30843416     0.035654714   -0.19772252     0.00051403341
   9457000   0.050517184   -0.30868803     0.035324923   -0.19759222     0.00048251785
   9458000   0.04966037    -0.30834476     0.035887385   -0.19797163    -8.3864072e-05
   9459000   0.050381292   -0.30848165     0.035785002   -0.19712959     0.00013578425
   9460000   0.050212704   -0.30876526     0.036405347   -0.19704572    -8.8731152e-05
   9461000   0.050006444   -0.30862469     0.035515224   -0.19810463     0.00021633888
   9462000   0.049825602   -0.30863309     0.035773198   -0.19812631    -0.00010239717
   9463000   0.049535923   -0.30888295     0.035885062   -0.19869879    -9.9115455e-05
   9464000   0.049494018   -0.30880346     0.036022486   -0.19854474     0.00010977356
   9465000   0.049739406   -0.30852049     0.035554329   -0.19836187     8.7924067e-05
   9466000   0.049504054   -0.30903002     0.036082835   -0.1986959     -0.00029566128
   9467000   0.049874744   -0.30823602     0.035342601   -0.19808613     0.00032439182
   9468000   0.050724094   -0.30882215     0.035357158   -0.19738376     7.2065528e-05
   9469000   0.05015465    -0.30895701     0.035790498   -0.19793939     0.0002535726 
   9470000   0.049462073   -0.30890446     0.03614344    -0.19857269     0.00012770708
   9471000   0.050019765   -0.30850233     0.036001868   -0.19747565     0.00011191865
   9472000   0.049521872   -0.30848061     0.035962362   -0.19824024    -0.00033407298
   9473000   0.050542551   -0.30869423     0.035959987   -0.19692531     8.7812646e-05
   9474000   0.050065019   -0.30874992     0.03613535    -0.19752188    -0.00015824693
   9475000   0.050161386   -0.30864983     0.035844849   -0.19756776     0.00024129846
   9476000   0.049659212   -0.30853283     0.035722964   -0.19832586    -0.00017499925
   9477000   0.050000107   -0.30871809     0.036097053   -0.19762572    -2.9307172e-05
   9478000   0.050374516   -0.3090919      0.035010481   -0.19852452     0.00036319254
   9479000   0.049934416   -0.30848334     0.035709626   -0.19787692     0.00010016592
   9480000   0.04981483    -0.30871512     0.036261715   -0.19773598     0.00013761271
   9481000   0.050043802   -0.30923945     0.036225881   -0.19795271     0.00030849727
   9482000   0.050312819   -0.30872599     0.035808011   -0.19745362    -9.4054728e-05
   9483000   0.050421408   -0.30879646     0.035351641   -0.19781759     3.3899688e-05
   9484000   0.049909139   -0.30879717     0.035514371   -0.19842392     0.00014831779
   9485000   0.050029664   -0.30888544     0.035655424   -0.19819037     0.00044515957
   9486000   0.05011317    -0.30899248     0.035746756   -0.19808082    -0.00039456756
   9487000   0.050133508   -0.30849129     0.035747782   -0.1975481      0.00021589777
   9488000   0.050010642   -0.30857249     0.036026737   -0.19753463     6.5364058e-06
   9489000   0.050120115   -0.30862462     0.035542585   -0.19790671    -0.00020228461
   9490000   0.05007236    -0.30841901     0.035657219   -0.19765809     6.8311337e-05
   9491000   0.049532095   -0.30891672     0.036256399   -0.19836697    -0.00022138626
   9492000   0.049735651   -0.30876073     0.035578081   -0.19858399    -0.00011923401
   9493000   0.049841297   -0.30895233     0.035117086   -0.19907813     0.00031603038
   9494000   0.049476769   -0.30893657     0.035297354   -0.19942885    -0.0003653939 
   9495000   0.050739053   -0.30905964     0.035717909   -0.19723806    -1.4506603e-07
   9496000   0.050341696   -0.30881951     0.035609318   -0.19770252     0.00029324479
   9497000   0.048872207   -0.30856472     0.035822197   -0.19943895     0.00034187233
   9498000   0.049304307   -0.30862402     0.03555734    -0.19911499    -0.00032308171
   9499000   0.049733934   -0.30929941     0.035626973   -0.19907635     8.3148875e-05
   9500000   0.049904437   -0.30911678     0.034940181   -0.19932477    -0.00038066508
   9501000   0.049784297   -0.30928643     0.035555284   -0.19905952    -8.4713624e-05
   9502000   0.049241839   -0.30875114     0.035847291   -0.19904586     0.00038030471
   9503000   0.049165381   -0.30914181     0.035075523   -0.20032297     0.00024975243
   9504000   0.049368917   -0.30905049     0.035809454   -0.19919244     9.382167e-05 
   9505000   0.04943065    -0.30909457     0.036049031   -0.19890435    -0.00032306628
   9506000   0.050362616   -0.30878123     0.035640533   -0.19760164    -0.00055681918
   9507000   0.049980071   -0.30867739     0.036498108   -0.19721402     0.00024233422
   9508000   0.050715793   -0.30838938     0.035904171   -0.19641643     0.00019878686
   9509000   0.049478819   -0.30865922     0.035500733   -0.19894504    -0.00022057675
   9510000   0.049497993   -0.30846582     0.035588303   -0.19863532     7.0525156e-05
   9511000   0.050073256   -0.30905195     0.036203832   -0.19774307    -0.00011870663
   9512000   0.0499542     -0.3087293      0.035640444   -0.19816239     0.00031448128
   9513000   0.049869747   -0.30859447     0.035546136   -0.19824854     5.5841563e-05
   9514000   0.049957499   -0.30883257     0.035638951   -0.19826221    -0.00021071362
   9515000   0.049771675   -0.30853733     0.035972633   -0.197912      -0.00012488777
   9516000   0.050002379   -0.30872936     0.035799073   -0.19793155     6.7134884e-06
   9517000   0.050703957   -0.30871157     0.035593675   -0.19706686    -8.2797063e-05
   9518000   0.050188986   -0.30864796     0.035949107   -0.19742023     6.2175948e-05
   9519000   0.050363746   -0.30871658     0.035597525   -0.19757831     0.00037856589
   9520000   0.050261135   -0.3087268      0.036072107   -0.19726785    -6.7862046e-05
   9521000   0.049472307   -0.30879756     0.036274298   -0.19831959    -4.1724539e-05
   9522000   0.049834459   -0.30876002     0.035523685   -0.19848947     4.0119845e-05
   9523000   0.049840162   -0.30866918     0.035645299   -0.19826846     0.00011142371
   9524000   0.049858062   -0.30874808     0.035872562   -0.19809325    -0.00036766861
   9525000   0.050256487   -0.308933       0.035345162   -0.19820797    -1.5846663e-06
   9526000   0.049927031   -0.30899305     0.035427259   -0.19868007    -7.4072312e-06
   9527000   0.050424791   -0.3088831      0.03609517    -0.19715562    -5.4632208e-05
   9528000   0.050267002   -0.30880968     0.035649769   -0.19776427    -1.0827886e-05
   9529000   0.050089853   -0.30891795     0.035503906   -0.19828411    -0.00030772474
   9530000   0.0498621     -0.30905531     0.035310165   -0.19895682     0.00032468453
   9531000   0.050285077   -0.30928766     0.035543889   -0.19832102    -0.00025255586
   9532000   0.050206476   -0.3087986      0.035245291   -0.19824845    -0.00016731637
   9533000   0.049709312   -0.30886434     0.035938478   -0.1983667      0.00037725779
   9534000   0.050071187   -0.3088535      0.036391186   -0.19736037    -3.5122953e-05
   9535000   0.050035785   -0.30871141     0.036067072   -0.1975955      0.00016294389
   9536000   0.049348442   -0.3089434      0.035869275   -0.19905624     0.00031915804
   9537000   0.049918636   -0.30908354     0.03550844    -0.19870197    -4.1230157e-05
   9538000   0.050036785   -0.3090174      0.035951877   -0.19801518    -0.00016379865
   9539000   0.050035254   -0.30902189     0.036237802   -0.19773605     5.1915503e-05
   9540000   0.049693223   -0.30900016     0.03580387    -0.19866126    -8.109472e-05 
   9541000   0.049575889   -0.30909287     0.035427235   -0.1993066     -8.2558996e-05
   9542000   0.049901388   -0.30920438     0.035436371   -0.19892076    -0.00051449369
   9543000   0.049824336   -0.30890024     0.035245109   -0.19892345     2.2107281e-05
   9544000   0.049510459   -0.30916195     0.035372656   -0.1995284      0.00053945237
   9545000   0.050365606   -0.30932236     0.035380108   -0.19839872    -0.00026056818
   9546000   0.049644542   -0.30925073     0.035357226   -0.19943149     0.00033447024
   9547000   0.049414613   -0.30860502     0.035717341   -0.19877054    -1.0696869e-05
   9548000   0.049867371   -0.30935951     0.035624247   -0.19893903    -0.00030581207
   9549000   0.049957948   -0.30902175     0.035733079   -0.19835659    -8.3029326e-05
   9550000   0.050119462   -0.30880338     0.036240027   -0.19738901     0.00024793947
   9551000   0.049877565   -0.30861746     0.03574426    -0.19806168     9.2339464e-05
   9552000   0.05047366    -0.30856722     0.036227394   -0.19663422     0.00021356196
   9553000   0.049821989   -0.30897458     0.0362487     -0.19799772     0.0001818193 
   9554000   0.049922604   -0.30912365     0.035432273   -0.1988123     -0.00049852182
   9555000   0.05073381    -0.3090992      0.035962261   -0.19704113     6.7417176e-05
   9556000   0.049928254   -0.30875923     0.036345041   -0.19752664    -8.0982126e-05
   9557000   0.050109875   -0.30878562     0.035757024   -0.19786863    -0.00017954474
   9558000   0.04951254    -0.30820061     0.03523669    -0.19869991     0.00013070085
   9559000   0.049781409   -0.30889532     0.035399105   -0.19882892    -0.0002202256 
   9560000   0.049684582   -0.30860259     0.034966744   -0.19911378     0.00073529968
   9561000   0.050070931   -0.30870219     0.035438117   -0.19816253     0.00067105473
   9562000   0.049924999   -0.30896286     0.035735588   -0.1983446      0.0003341338 
   9563000   0.049436501   -0.30894031     0.035930309   -0.19886003     0.00017278532
   9564000   0.049948813   -0.30862208     0.035944384   -0.19775931     0.00014464669
   9565000   0.050357718   -0.30886096     0.035457269   -0.19787199     0.00021955342
   9566000   0.049976087   -0.30873909     0.035436497   -0.1983433      7.9069273e-05
   9567000   0.050389996   -0.3090324      0.03560562    -0.19784666     0.00030351085
   9568000   0.050055648   -0.30886649     0.035954489   -0.19783337     0.00011888375
   9569000   0.050260349   -0.30887007     0.035915276   -0.19756914    -0.00023926231
   9570000   0.050333416   -0.30852481     0.035700543   -0.19732901    -0.0002263156 
   9571000   0.050095684   -0.3086864      0.035987751   -0.19755997     0.00034061986
   9572000   0.050715587   -0.30845316     0.035506379   -0.1968783      1.7002986e-05
   9573000   0.050677736   -0.30880051     0.035588493   -0.19720032     0.00028723452
   9574000   0.050242766   -0.30887232     0.036088767   -0.19742427    -0.00061268515
   9575000   0.050307316   -0.30858287     0.035553878   -0.19757289     0.00016969321
   9576000   0.049992759   -0.3087184      0.036136216   -0.19759788     0.00042875807
   9577000   0.051007058   -0.30869183     0.035888271   -0.19629791     0.00053264628
   9578000   0.049853466   -0.30844196     0.035754681   -0.19791191    -6.9330337e-05
   9579000   0.050396027   -0.30894367     0.036006154   -0.19734835    -0.00011119589
   9580000   0.050300721   -0.30883396     0.036189254   -0.19719849     0.00019752974
   9581000   0.049483082   -0.30887792     0.035931054   -0.19872703     7.0640615e-05
   9582000   0.050253186   -0.30893908     0.035255589   -0.19830857    -0.00016826978
   9583000   0.049816394   -0.30891443     0.0357176     -0.19847706    -0.00026666955
   9584000   0.050101801   -0.30855948     0.035610768   -0.19780086    -0.00030266659
   9585000   0.049878679   -0.30863271     0.035887539   -0.19793198     0.00057385637
   9586000   0.050005496   -0.30902109     0.035674947   -0.19834274    -1.9429561e-05
   9587000   0.049949104   -0.30865277     0.035853232   -0.19788072    -0.00021003241
   9588000   0.04987107    -0.30883573     0.035642807   -0.19839114    -0.00034393377
   9589000   0.04968525    -0.30873433     0.03598443    -0.19822683     0.00039841954
   9590000   0.050168249   -0.30856896     0.035349201   -0.19797224    -0.00019866729
   9591000   0.049209554   -0.3088348      0.03567174    -0.19935349    -0.00032034653
   9592000   0.049279496   -0.30869951     0.036151134   -0.1986339      0.00022968849
   9593000   0.050176568   -0.30914883     0.035048753   -0.19884008     0.0001697092 
   9594000   0.04952403    -0.30881706     0.035578205   -0.19895761    -9.4364593e-05
   9595000   0.049661477   -0.3088291      0.035712682   -0.19862901    -8.9693847e-05
   9596000   0.050324321   -0.30915557     0.035879414   -0.19779454    -0.00027582396
   9597000   0.050098855   -0.30888153     0.035790692   -0.1979474     -0.00020539155
   9598000   0.049835267   -0.30886696     0.035888526   -0.19823036    -0.00026111301
   9599000   0.049871742   -0.3090861      0.035237646   -0.19904566     0.00013364316
   9600000   0.05027027    -0.30861079     0.035644416   -0.19756583    -3.6649599e-05
   9601000   0.050324877   -0.30868039     0.035436149   -0.1977618      0.00054832807
   9602000   0.049398804   -0.30853066     0.035744367   -0.19869287     0.00013871173
   9603000   0.050151793   -0.30867354     0.036153407   -0.1972973      0.00030082996
   9604000   0.049915641   -0.30881461     0.036007749   -0.19793823    -8.2370251e-05
   9605000   0.050582211   -0.30901515     0.035239673   -0.19790706     0.00056758029
   9606000   0.049704521   -0.30892969     0.036431141   -0.19794658     0.00056977259
   9607000   0.050145698   -0.30874858     0.035960263   -0.19757462    -0.00040297922
   9608000   0.049751999   -0.30889165     0.035285062   -0.19898341    -5.313388e-06 
   9609000   0.050502275   -0.30847162     0.035593638   -0.19712946     4.2563295e-06
   9610000   0.050180641   -0.30906593     0.03542753    -0.19837229     0.00062546254
   9611000   0.050078177   -0.3088307      0.035595687   -0.19812259    -0.00066161328
   9612000   0.049886788   -0.30909482     0.035536686   -0.19873278    -5.9705814e-05
   9613000   0.049832895   -0.30879793     0.035834132   -0.19821928     0.00014257936
   9614000   0.050194176   -0.30891851     0.035964284   -0.19766782     5.7649864e-05
   9615000   0.049750332   -0.30903519     0.036218983   -0.19819553    -7.4539282e-05
   9616000   0.050351829   -0.30846277     0.035692813   -0.19724709     0.00030887476
   9617000   0.050569688   -0.30851291     0.035768849   -0.19689442     0.0006092511 
   9618000   0.050371957   -0.30900356     0.035635758   -0.19781474     0.00016566125
   9619000   0.049866253   -0.30867977     0.036018421   -0.1978668      7.8289744e-05
   9620000   0.049632564   -0.30898718     0.035875774   -0.19866736     0.0002872675 
   9621000   0.049608756   -0.30880963     0.035822907   -0.19857839     0.00023976066
   9622000   0.050772873   -0.30903471     0.035242859   -0.19763745     0.00015923682
   9623000   0.049743066   -0.3088527      0.035995198   -0.19824771     0.0001594736 
   9624000   0.050107262   -0.30874065     0.035490962   -0.19809365    -0.00031218271
   9625000   0.049903897   -0.30915666     0.036073425   -0.19823222     0.00013961101
   9626000   0.049753875   -0.30914942     0.035932143   -0.19859128     0.00015227552
   9627000   0.050320027   -0.30903527     0.03596365    -0.19759645    -0.0003102212 
   9628000   0.050144038   -0.30899518     0.035724552   -0.19805942    -7.3912648e-05
   9629000   0.049867135   -0.30926245     0.035644317   -0.19882226    -8.6799223e-05
   9630000   0.049615915   -0.30887667     0.035963166   -0.19849444    -3.4661783e-05
   9631000   0.049996725   -0.30939561     0.036005959   -0.19839941    -0.00033207408
   9632000   0.05016811    -0.30867237     0.035895604   -0.19752945     0.00036929193
   9633000   0.050291723   -0.30911013     0.03547898    -0.19819843     0.00039668165
   9634000   0.049076415   -0.3088146      0.035544435   -0.1996603      1.1309143e-05
   9635000   0.050100192   -0.30900449     0.035713472   -0.19814558     0.00013461056
   9636000   0.049959543   -0.30882864     0.035685228   -0.19820893    -0.00026715476
   9637000   0.050149958   -0.30945302     0.035429551   -0.19880339    -8.1153207e-05
   9638000   0.049744499   -0.30902907     0.035897288   -0.19851985     0.0001878809 
   9639000   0.049917006   -0.3089323      0.036065141   -0.19799648     6.2533067e-05
   9640000   0.050115262   -0.30886331     0.036007828   -0.19768744    -4.4072123e-05
   9641000   0.049846514   -0.30876202     0.035258602   -0.19873847    -9.8900861e-05
   9642000   0.049500689   -0.30887547     0.035511425   -0.1991178     -7.0571876e-05
   9643000   0.049928938   -0.30892992     0.035778488   -0.19826285     3.0141565e-05
   9644000   0.049777361   -0.30926225     0.036271456   -0.19832957    -0.00011329858
   9645000   0.049866811   -0.30878495     0.035236614   -0.19875295     0.00029873999
   9646000   0.049761372   -0.30881487     0.035706108   -0.19847152    -6.3762161e-05
   9647000   0.049565402   -0.3085441      0.035360909   -0.19883988     0.00041824327
   9648000   0.049430447   -0.30886687     0.03584074    -0.19888524     4.6478403e-05
   9649000   0.049997223   -0.30912984     0.03540459    -0.19873426    -0.00028239787
   9650000   0.049641816   -0.30916583     0.035638479   -0.19906943    -0.00032573921
   9651000   0.04985239    -0.30890182     0.036403497   -0.19772456     0.00029742645
   9652000   0.050035187   -0.30909617     0.035935234   -0.19811299     0.00015617115
   9653000   0.050103322   -0.30873703     0.035583901   -0.198003      -0.00015634868
   9654000   0.050223851   -0.30898172     0.035978768   -0.19767204     3.1252135e-05
   9655000   0.049671282   -0.30915905     0.035504127   -0.19915281     9.0343835e-05
   9656000   0.049780334   -0.30893041     0.035847148   -0.19841758    -0.00010420057
   9657000   0.049421359   -0.30864081     0.035572094   -0.19894146    -0.0002631647 
   9658000   0.049909383   -0.30966675     0.03581014    -0.19899736    -8.8458597e-05
   9659000   0.049942314   -0.30941409     0.03586727    -0.19863818    -8.9799125e-05
   9660000   0.049802214   -0.30927661     0.034922732   -0.19965537     0.00020422311
   9661000   0.049817025   -0.3090824      0.03590142    -0.19846026    -0.00018903392
   9662000   0.050166469   -0.3093991      0.035768705   -0.19838555     1.3177295e-05
   9663000   0.050303756   -0.30897657     0.03556158    -0.19796423    -0.00037141529
   9664000   0.0499648     -0.30907799     0.03626276    -0.19787287     0.0001484578 
   9665000   0.050043186   -0.30894986     0.036324648   -0.19756527    -0.00054999121
   9666000   0.049751043   -0.30899964     0.035766671   -0.19861122    -9.4021964e-05
   9667000   0.049794674   -0.30939648     0.035624438   -0.19908485    -2.111584e-05 
   9668000   0.049659517   -0.30895356     0.035669743   -0.19879935     0.00039118397
   9669000   0.050240498   -0.30893105     0.035745313   -0.19782985     0.0001294244 
   9670000   0.050123775   -0.30932905     0.03542677    -0.19872146     0.00011217675
   9671000   0.049673914   -0.30927512     0.036355228   -0.19841382     0.00010219666
   9672000   0.050151028   -0.30928562     0.03552684    -0.19853709     6.9216119e-05
   9673000   0.049577096   -0.30954925     0.035612002   -0.1995764     -4.1579021e-05
   9674000   0.04983836    -0.30983477     0.035846308   -0.19923575     0.00013407895
   9675000   0.049884882   -0.30917602     0.0364502     -0.19790332     4.149984e-05 
   9676000   0.050708674   -0.30917258     0.036153753   -0.19696072    -0.00018962321
   9677000   0.04988741    -0.30921032     0.035164448   -0.19921958     0.00053134249
   9678000   0.050258793   -0.30925938     0.035685699   -0.19819036    -3.5224005e-05
   9679000   0.049919418   -0.30906491     0.035935567   -0.19825504     4.8763201e-05
   9680000   0.050513004   -0.30938945     0.036283033   -0.1973418      0.00031118781
   9681000   0.050231164   -0.30908254     0.03592958    -0.19781108    -0.0001008164 
   9682000   0.049847309   -0.30922414     0.036200263   -0.19825774    -0.00024915319
   9683000   0.04978094    -0.3087134      0.03552568    -0.19852113     0.00011587276
   9684000   0.050261467   -0.30954421     0.035447908   -0.19870897    -6.4192203e-05
   9685000   0.049296546   -0.3092061      0.035214038   -0.20005201     0.00015827661
   9686000   0.049806185   -0.30940574     0.035436805   -0.19926448     8.0972869e-05
   9687000   0.049943745   -0.30899957     0.035546349   -0.19854244     0.00032810685
   9688000   0.049868587   -0.30857771     0.035064091   -0.19871557     0.00013388647
   9689000   0.049482027   -0.30897701     0.036291405   -0.19846735     0.00011942045
   9690000   0.050030313   -0.30937388     0.03527005    -0.19906321     0.00030316489
   9691000   0.05019032    -0.30871576     0.035887178   -0.19754796     0.00050748522
   9692000   0.050102183   -0.30954304     0.036549931   -0.19784468    -1.3387733e-05
   9693000   0.050486524   -0.30943688     0.035927113   -0.19778486     5.9060309e-05
   9694000   0.049827719   -0.30908634     0.036734782   -0.1976148      4.4540387e-05
   9695000   0.049956739   -0.30927028     0.036248314   -0.19809169    -5.1774484e-05
   9696000   0.049964615   -0.30946143     0.03608978    -0.19842956    -0.00015492624
   9697000   0.049604395   -0.30897931     0.035301489   -0.19927603     0.00012832326
   9698000   0.050179114   -0.30944814     0.03566567    -0.19851866    -0.00015221096
   9699000   0.050481573   -0.30911063     0.036362957   -0.19703019    -0.00012017831
   9700000   0.050471857   -0.30913599     0.036485256   -0.19694783     8.0560637e-05
   9701000   0.050219708   -0.30908771     0.035746062   -0.19801695    -0.0002901625 
   9702000   0.049915848   -0.30933884     0.036023411   -0.19844649     0.00047773013
   9703000   0.050278996   -0.30913019     0.035309555   -0.19840701    -0.00017555382
   9704000   0.050066967   -0.30900462     0.035539482   -0.19836954    -0.00023893519
   9705000   0.049522365   -0.3089537      0.036145099   -0.19852984     0.00051027292
   9706000   0.049506981   -0.30912542     0.036230168   -0.19863957    -0.00021523372
   9707000   0.050320167   -0.30917143     0.036040159   -0.19765589    -8.4781188e-05
   9708000   0.050112548   -0.30903574     0.035723064   -0.1981487      0.00011198402
   9709000   0.04997711    -0.30872893     0.035982557   -0.19778555     5.5904911e-05
   9710000   0.049958893   -0.3093853      0.036047749   -0.19840405     0.00012877679
   9711000   0.050210861   -0.30950277     0.036172708   -0.19801863     0.00023164852
   9712000   0.04962631    -0.30939373     0.03571236    -0.1992467     -0.00054703697
   9713000   0.050425925   -0.3090013      0.035104396   -0.1982629      0.00058048696
   9714000   0.049887857   -0.30910753     0.035481075   -0.1987995     -1.4909548e-05
   9715000   0.049846736   -0.30910373     0.035908338   -0.19843011     2.2230905e-05
   9716000   0.049965899   -0.30937705     0.035776134   -0.19865691     0.00016454654
   9717000   0.049840351   -0.30907323     0.035524419   -0.19879311     0.00049419726
   9718000   0.049750973   -0.30947961     0.035761261   -0.1990967      0.00030214419
   9719000   0.049159589   -0.30929421     0.035254943   -0.20030464    -0.00032635911
   9720000   0.0492643     -0.30897276     0.03626276    -0.19881832    -0.00013781431
   9721000   0.050408228   -0.30905246     0.03542441    -0.19802059     0.00037506945
   9722000   0.050510819   -0.30922468     0.036103419   -0.19735992    -1.1295346e-05
   9723000   0.049578265   -0.3092324      0.035665017   -0.19920478     0.00017455097
   9724000   0.049808173   -0.30906626     0.035087989   -0.19927083     0.00012099125
   9725000   0.049957236   -0.30927808     0.035848693   -0.19849837     0.00011748025
   9726000   0.050040343   -0.3088112      0.03605585    -0.19769968     0.00015326033
   9727000   0.049906066   -0.30971733     0.036454744   -0.19840832    -7.2289464e-05
   9728000   0.05006068    -0.3096234      0.036141864   -0.19839536    -0.00044957266
   9729000   0.049694829   -0.30948329     0.035094689   -0.19985117     0.00045648515
   9730000   0.050506683   -0.30932912     0.036227739   -0.19734625     1.7816466e-05
   9731000   0.049839433   -0.30907943     0.035762626   -0.19856248     0.00048718194
   9732000   0.050164082   -0.30981573     0.036135703   -0.19843876     0.00028656748
   9733000   0.050424644   -0.30920687     0.036116065   -0.19745872     0.00024715865
   9734000   0.050323684   -0.30914882     0.035980087   -0.19768808     0.00028937513
   9735000   0.050251855   -0.30890818     0.035433839   -0.19810142     6.3204179e-05
   9736000   0.049888914   -0.30978762     0.035824833   -0.19913424    -0.00015072241
   9737000   0.049664096   -0.30962733     0.036232918   -0.19890307    -0.0006861416 
   9738000   0.050189595   -0.30943285     0.035700214   -0.1984531      0.00011114237
   9739000   0.050002792   -0.3094153      0.03572842    -0.19868753     0.00018090082
   9740000   0.049842758   -0.30939825     0.035350874   -0.19928806    -7.4643466e-05
   9741000   0.050073016   -0.30934759     0.035386004   -0.1988569      7.0864046e-05
   9742000   0.050777906   -0.30944867     0.035810897   -0.19747583     0.00018041756
   9743000   0.05046449    -0.30984294     0.035386163   -0.19876492    -1.2339787e-05
   9744000   0.049985045   -0.30957242     0.035583495   -0.19901619     0.00016961471
   9745000   0.049987954   -0.30967384     0.036208709   -0.19848804    -0.00015252324
   9746000   0.049924667   -0.30970661     0.035485517   -0.19933893    -8.3155683e-05
   9747000   0.050260975   -0.30975703     0.035813863   -0.19855657    -5.5882644e-05
   9748000   0.04977707    -0.30947739     0.035946964   -0.19886964     1.5401199e-05
   9749000   0.049959204   -0.30924383     0.036171548   -0.19813831    -8.0513978e-05
   9750000   0.050086089   -0.30944718     0.035713285   -0.19860961     5.0884126e-05
   9751000   0.049815709   -0.30943375     0.035726474   -0.19898853     0.00034333214
   9752000   0.049822545   -0.30986403     0.035544847   -0.19959018     0.00013026072
   9753000   0.050313162   -0.3095818      0.035830709   -0.19828622     0.00034303348
   9754000   0.049936389   -0.30917334     0.03595758    -0.19831601     0.00024870564
   9755000   0.049643851   -0.30974752     0.035840867   -0.19944568     0.00017061297
   9756000   0.049990491   -0.3096378      0.035429154   -0.19922775     0.00029334171
   9757000   0.050169268   -0.31001274     0.036223082   -0.19854061    -0.0006397937 
   9758000   0.049752455   -0.30935626     0.035722816   -0.19900957     7.3434473e-05
   9759000   0.050159973   -0.30949849     0.035815957   -0.19844742     0.00019148672
   9760000   0.050276329   -0.30961834     0.035741374   -0.19846734     0.00029941493
   9761000   0.050281973   -0.30984719     0.035269144   -0.19915995     3.4860919e-05
   9762000   0.049339219   -0.30934856     0.035130994   -0.20021351     0.00015942009
   9763000   0.049800252   -0.30913462     0.035039024   -0.19940004    -6.9842106e-05
   9764000   0.04980432    -0.30988473     0.035442332   -0.19974074     0.00039701907
   9765000   0.050155521   -0.30943254     0.035746115   -0.19845799    -0.00019058807
   9766000   0.049949645   -0.30948719     0.036078374   -0.19848919    -0.0003309415 
   9767000   0.049871999   -0.31002823     0.035432844   -0.19979221    -0.00029394518
   9768000   0.050486709   -0.30948079     0.035810197   -0.19794542    -1.2117565e-05
   9769000   0.050491449   -0.3097221      0.035349336   -0.19864048     0.00042089776
   9770000   0.050102664   -0.30970945     0.035869686   -0.19869062     0.0003429131 
   9771000   0.049919753   -0.30970461     0.035720372   -0.19910944     7.0318097e-06
   9772000   0.049833393   -0.30983824     0.035916446   -0.19917652    -0.00018124326
   9773000   0.050104324   -0.30960317     0.035430007   -0.19902152     0.00016871718
   9774000   0.049850011   -0.31003159     0.035986119   -0.19927528    -0.0002509206 
   9775000   0.04936757    -0.30963866     0.036256324   -0.19933576     0.00010104335
   9776000   0.04992375    -0.30999407     0.035576872   -0.1995364     -0.00024637212
   9777000   0.049919087   -0.30972575     0.035745722   -0.19910623     5.39635e-06  
   9778000   0.050731065   -0.30988931     0.035471155   -0.19832647     0.00036527674
   9779000   0.049977708   -0.30977624     0.035210362   -0.19960415     0.0004618291 
   9780000   0.050470392   -0.3093886      0.036313061   -0.19737484     0.00027694889
   9781000   0.050237238   -0.30983692     0.035369322   -0.1991166      0.00046561133
   9782000   0.05048768    -0.30967844     0.035845782   -0.19810603    -6.4722932e-05
   9783000   0.049696867   -0.30941361     0.03594366    -0.19892946     0.0005393455 
   9784000   0.050242554   -0.30972945     0.035560441   -0.19881004     0.00012846325
   9785000   0.049896069   -0.31018612     0.036178229   -0.19916862     5.8430011e-05
   9786000   0.050748433   -0.30945407     0.035843535   -0.1974928      0.00020166345
   9787000   0.049997522   -0.30979016     0.036240912   -0.1985578     -0.00022793436
   9788000   0.049974913   -0.30986537     0.03576763    -0.19914021     0.00024648982
   9789000   0.049658762   -0.30982348     0.036040778   -0.19929937    -0.00014768452
   9790000   0.049742289   -0.30959811     0.035889739   -0.19909975     8.8109143e-08
   9791000   0.0504711     -0.30973377     0.035505117   -0.19852688     5.3432763e-05
   9792000   0.049554209   -0.3095537      0.03603627    -0.19919092     4.379598e-06 
   9793000   0.049997575   -0.30975        0.036058904   -0.19869957     0.00026871658
   9794000   0.050194681   -0.30974039     0.035870291   -0.19858294    -0.00030160481
   9795000   0.049685424   -0.30996859     0.036114652   -0.19933061     6.4154111e-05
   9796000   0.050133834   -0.3096055      0.035072269   -0.19933733     0.0003647443 
   9797000   0.049771444   -0.30983097     0.036425276   -0.19875335     0.00011716888
   9798000   0.050127459   -0.30990564     0.035938779   -0.19878053    -0.00028842995
   9799000   0.049815322   -0.30953005     0.035234271   -0.19957762     5.307609e-05 
   9800000   0.049738732   -0.30960276     0.03563393    -0.19936555    -0.00014622252
   9801000   0.050548123   -0.30959866     0.035545261   -0.19823611    -0.00026399764
   9802000   0.049934227   -0.30952782     0.03579329    -0.19883803     0.0002505384 
   9803000   0.050695414   -0.3098774      0.036255716   -0.19758347     6.365142e-05 
   9804000   0.050094326   -0.30935904     0.036318875   -0.19790353     6.9124524e-05
   9805000   0.049646127   -0.30934683     0.036335504   -0.19854694     7.8282703e-06
   9806000   0.050600102   -0.30933027     0.035784607   -0.1976504      0.00039724436
   9807000   0.050161159   -0.30915646     0.036074291   -0.19784529     5.085913e-05 
   9808000   0.050558045   -0.30930628     0.036088862   -0.19738524     3.4905409e-05
   9809000   0.050057616   -0.30964089     0.03604746    -0.19851185    -0.0004155145 
   9810000   0.050260362   -0.30956257     0.035652599   -0.19852429     0.00059065285
   9811000   0.049614502   -0.30978206     0.035995191   -0.19936991     5.1743161e-05
   9812000   0.049171241   -0.30985836     0.035832899   -0.20027336    -8.0709437e-05
   9813000   0.050019788   -0.30993017     0.03532731    -0.19957802     0.00023215569
   9814000   0.050490125   -0.31002052     0.035537402   -0.19875282    -1.5487992e-06
   9815000   0.050183151   -0.30933158     0.036307294   -0.19775442     0.00045013417
   9816000   0.049930427   -0.30956072     0.035076804   -0.1995931     -0.00014127048
   9817000   0.05005384    -0.30977829     0.036013441   -0.19868893     0.00020977851
   9818000   0.049906924   -0.30968212     0.036060879   -0.19876568     1.4599497e-05
   9819000   0.049560585   -0.30966059     0.035312779   -0.20001173     0.00013182908
   9820000   0.050135005   -0.31000215     0.035827813   -0.19897668     0.00012766433
   9821000   0.04965664    -0.30980788     0.035845247   -0.19948248    -0.00020076373
   9822000   0.049401443   -0.3098226      0.036088673   -0.19963654     0.00020496781
   9823000   0.049025846   -0.30995655     0.035890332   -0.20053219     0.00018536547
   9824000   0.049669145   -0.30949979     0.035665069   -0.19933581    -0.00011485381
   9825000   0.050052617   -0.30944653     0.035815883   -0.19855656     0.00011420034
   9826000   0.050552738   -0.30984666     0.035636517   -0.19838593     0.00050585271
   9827000   0.050327787   -0.30976133     0.035945457   -0.19832907    -0.00012781987
   9828000   0.050278928   -0.30976195     0.035613428   -0.19873499     0.0002630721 
   9829000   0.049989461   -0.30968822     0.035666912   -0.19904196    -0.00042603873
   9830000   0.049832413   -0.30977769     0.035354062   -0.19967983     0.00056088612
   9831000   0.04969291    -0.30971236     0.035420007   -0.19975779     0.00013376572
   9832000   0.050193491   -0.30961988     0.035314309   -0.19902019     0.0004830324 
   9833000   0.050102999   -0.30968637     0.035783384   -0.19875333     1.1616776e-05
   9834000   0.050369154   -0.30969043     0.035906855   -0.19823472     0.0007512644 
   9835000   0.050696821   -0.30992314     0.035932767   -0.19795004     0.00010250982
   9836000   0.050178259   -0.30970639     0.035904511   -0.19853934     0.00020557321
   9837000   0.049883985   -0.30979577     0.036332681   -0.19864194    -0.00063407554
   9838000   0.050100298   -0.30948554     0.036299618   -0.19804032    -7.5089659e-05
   9839000   0.050489873   -0.30954519     0.036501367   -0.1973139     -0.00019152981
   9840000   0.05014356    -0.30913934     0.035725147   -0.19820371     0.0002100002 
   9841000   0.050553858   -0.30949846     0.035935513   -0.19773706     0.00016706197
   9842000   0.049626068   -0.30973421     0.036001995   -0.19929792    -0.00024075874
   9843000   0.049789934   -0.30952638     0.035374346   -0.19947196     0.0001674611 
   9844000   0.049576975   -0.30966597     0.035722449   -0.19958286     9.9283951e-05
   9845000   0.049973431   -0.3096454      0.035715373   -0.19897472     0.00052625696
   9846000   0.049935154   -0.30994097     0.036275831   -0.19876724    -3.2988147e-05
   9847000   0.050074808   -0.30967734     0.035422256   -0.19914772     0.00062352121
   9848000   0.05025261    -0.3094011      0.035778295   -0.19824876     0.00030831224
   9849000   0.049964534   -0.30995817     0.035843871   -0.19917233    -3.0255481e-05
   9850000   0.050011829   -0.30995        0.0355382     -0.19939889    -8.9311236e-05
   9851000   0.049788742   -0.30958273     0.035789447   -0.19911499     0.00029330364
   9852000   0.050077791   -0.3099315      0.035353591   -0.19946607     0.00029115272
   9853000   0.049997508   -0.309717       0.035611706   -0.19911387     0.00025000312
   9854000   0.049660048   -0.30954734     0.034990082   -0.20007199    -6.3470916e-05
   9855000   0.049643551   -0.30986106     0.035335085   -0.20006545     0.00044299783
   9856000   0.049840593   -0.30975133     0.035747506   -0.19924776     0.00035361395
   9857000   0.050448554   -0.30998873     0.035384768   -0.19893602    -0.0001831876 
   9858000   0.049395221   -0.31009306     0.035671156   -0.20033385     0.00022112572
   9859000   0.050288728   -0.31027826     0.035639128   -0.1992109     -5.6548729e-05
   9860000   0.049773185   -0.30937182     0.035575816   -0.19914105    -0.00012475248
   9861000   0.050609194   -0.30977411     0.03557076    -0.19829446     0.00024091535
   9862000   0.049868336   -0.30977198     0.03588689    -0.19908741     8.4285942e-05
   9863000   0.049967154   -0.30982817     0.03527552    -0.19960675    -0.00019998474
   9864000   0.05023904    -0.30970197     0.035840956   -0.19850731     5.6821713e-05
   9865000   0.049658408   -0.30961859     0.035905609   -0.19923017    -2.7093544e-05
   9866000   0.049812857   -0.31019803     0.035535542   -0.19994802    -0.0001051811 
   9867000   0.049957707   -0.31030118     0.035873546   -0.19949591    -0.00011682947
   9868000   0.04977852    -0.30988858     0.036018497   -0.19920712    -0.00026358498
   9869000   0.050266962   -0.30966916     0.036179221   -0.19809436     0.0004255377 
   9870000   0.049561619   -0.30958697     0.036189419   -0.19905992    -0.00029091304
   9871000   0.050720938   -0.30992554     0.035840299   -0.19800874    -0.00013218432
   9872000   0.050459929   -0.31000623     0.035432526   -0.1988887     -0.00025392522
   9873000   0.05041809    -0.31016883     0.036326213   -0.19822036     0.00012187273
   9874000   0.050038736   -0.30985821     0.035806026   -0.19899892    -2.2410996e-05
   9875000   0.049891998   -0.30999165     0.035406751   -0.19975173     0.00053500559
   9876000   0.050369143   -0.31037387     0.035509238   -0.19931579    -1.5053571e-05
   9877000   0.049823718   -0.31002306     0.035960159   -0.19933214    -0.00010213194
   9878000   0.05007906    -0.30993747     0.036322431   -0.19850129     0.00031295842
   9879000   0.050008135   -0.30969268     0.035847199   -0.19883812     0.00013790396
   9880000   0.049662555   -0.30988637     0.035542041   -0.1998553      0.00023178843
   9881000   0.050080014   -0.31013498     0.035019641   -0.20000016    -0.00042577236
   9882000   0.049491058   -0.30952188     0.03538218    -0.19990791     2.5462586e-05
   9883000   0.050466005   -0.31005394     0.03514794    -0.19921188    -4.8104043e-05
   9884000   0.049935887   -0.31005974     0.035532456   -0.19962828     0.00059699957
   9885000   0.049729148   -0.31022704     0.036105399   -0.19953273     5.1266605e-06
   9886000   0.04994189    -0.31000675     0.035581367   -0.19951738    -0.00038606888
   9887000   0.050150555   -0.31047801     0.036019458   -0.19923757    -0.00034924779
   9888000   0.050437433   -0.31003278     0.035814089   -0.19856742    -4.6859207e-05
   9889000   0.050222423   -0.30948549     0.035774051   -0.19838266     0.00034897287
   9890000   0.049994361   -0.3102438      0.036409778   -0.19884732     7.283458e-05 
   9891000   0.050012473   -0.30997144     0.0358998     -0.19905777    -0.00023124969
   9892000   0.049748615   -0.3104097      0.036112032   -0.19967956    -0.00033268311
   9893000   0.050454942   -0.30995579     0.035572902   -0.19870536     1.2063266e-05
   9894000   0.050624889   -0.30976726     0.035613718   -0.1982211     -0.00015554058
   9895000   0.050297022   -0.30969129     0.035243472   -0.19900716    -6.6821276e-06
   9896000   0.050078816   -0.3096123      0.036027582   -0.19847134     0.00011883724
   9897000   0.050475862   -0.31002841     0.035582377   -0.19873713     1.1238174e-05
   9898000   0.050030145   -0.30963252     0.034971758   -0.19962038    -0.00027210144
   9899000   0.049846368   -0.31014395     0.035585114   -0.1997941      2.0171016e-05
   9900000   0.050507756   -0.30991931     0.035981752   -0.19818081     0.00020795299
   9901000   0.050023033   -0.3100248      0.036052775   -0.19894231    -0.00021336891
   9902000   0.049991915   -0.30982078     0.035744358   -0.19909338    -0.00029724697
   9903000   0.050416773   -0.30998598     0.035744341   -0.19862136    -0.00017960729
   9904000   0.050237085   -0.31003712     0.035912599   -0.19877375    -0.00012048213
   9905000   0.050074135   -0.30979718     0.035632259   -0.19905857    -0.00012624748
   9906000   0.049814791   -0.31025492     0.035688757   -0.19984879     0.00042395604
   9907000   0.049585564   -0.3100624      0.035942107   -0.19974674     0.00010112204
   9908000   0.050232493   -0.31027507     0.035659001   -0.19927219     0.00010480362
   9909000   0.049911439   -0.31048809     0.03613442    -0.19949134    -8.853826e-05 
   9910000   0.050776649   -0.30983347     0.035828241   -0.19784517    -8.7129863e-05
   9911000   0.049964624   -0.30997515     0.036212915   -0.19882014     0.00053707855
   9912000   0.050083216   -0.31048506     0.035755705   -0.19960938    -0.00011029498
   9913000   0.050163924   -0.31012196     0.036009402   -0.19887152    -1.6043808e-05
   9914000   0.050200405   -0.3099852      0.035826993   -0.19886246     0.00049066844
   9915000   0.050547844   -0.31003847     0.035870984   -0.19835061     0.00013219624
   9916000   0.050108022   -0.31074101     0.035539288   -0.20004454    -6.9943583e-05
   9917000   0.049251201   -0.31023274     0.036365453   -0.19999525    -2.2314221e-05
   9918000   0.04989777    -0.31031705     0.035747107   -0.19972812    -0.00021869784
   9919000   0.050369917   -0.3102588      0.035838545   -0.19887025     0.00025970529
   9920000   0.05002407    -0.30995815     0.035532959   -0.19939393    -0.00025930457
   9921000   0.050402059   -0.31031058     0.035821372   -0.198891       4.2393116e-05
   9922000   0.049870793   -0.30979373     0.035476744   -0.19951563     0.00034194032
   9923000   0.049717243   -0.31026463     0.035956597   -0.19973699    -9.038729e-05 
   9924000   0.050558094   -0.30996721     0.035401285   -0.19873368    -0.00022514855
   9925000   0.049599397   -0.30994069     0.035997034   -0.19954936     0.00011076019
   9926000   0.049746553   -0.30979382     0.036223527   -0.19895527     0.00032487868
   9927000   0.050024114   -0.31018162     0.036375005   -0.19877528     0.00019019718
   9928000   0.050157647   -0.31001963     0.036021754   -0.19876626     0.00019503155
   9929000   0.050270817   -0.30989123     0.035943958   -0.19854591     0.00039986924
   9930000   0.049524411   -0.3100958      0.035977733   -0.19983624     0.00017678023
   9931000   0.050057764   -0.31029516     0.035519222   -0.19969413     0.00012811552
   9932000   0.050251821   -0.31027435     0.035221223   -0.19968026    -0.00032177201
   9933000   0.049921076   -0.31007084     0.03556068    -0.19963338     4.7805842e-05
   9934000   0.049908394   -0.31012482     0.0358894     -0.19937766    -0.00016312651
   9935000   0.049761202   -0.31050748     0.035215368   -0.20065512    -0.00039831988
   9936000   0.049893702   -0.31021875     0.035531848   -0.19985117     3.8425042e-05
   9937000   0.04969964    -0.30990401     0.035546942   -0.19981242     0.00024473265
   9938000   0.049966458   -0.30966603     0.035514456   -0.19920672     0.00064601451
   9939000   0.04996415    -0.31003855     0.036260459   -0.1988367     -0.00019052959
   9940000   0.049828836   -0.31028711     0.035928107   -0.19962057     2.1892511e-05
   9941000   0.050367934   -0.3100898      0.036091355   -0.19845142    -7.268177e-05 
   9942000   0.050090486   -0.31039625     0.035917027   -0.19934834    -0.00012605059
   9943000   0.04955286    -0.3106303      0.035591769   -0.20071404    -0.00015196409
   9944000   0.050330612   -0.31018482     0.035943538   -0.19875023    -0.00031660531
   9945000   0.049998107   -0.31006341     0.035575233   -0.19949586     9.0571882e-05
   9946000   0.050290142   -0.31006501     0.035555304   -0.19907936     7.6344191e-05
   9947000   0.050335694   -0.31008925     0.035391062   -0.19919952     0.00014927276
   9948000   0.049770241   -0.30998473     0.036005846   -0.19932834     7.3266616e-05
   9949000   0.050291076   -0.30997909     0.035527402   -0.19901994     9.9076669e-05
   9950000   0.050000456   -0.31025215     0.035523303   -0.199733      -1.6103022e-05
   9951000   0.050366507   -0.31049627     0.035870686   -0.1990807     -0.00027028839
   9952000   0.050472542   -0.31000197     0.036283682   -0.19801436     6.3077367e-05
   9953000   0.049864852   -0.30990027     0.035996945   -0.19911087    -0.00018889507
   9954000   0.05010691    -0.31026119     0.035636305   -0.19946937    -0.00029382796
   9955000   0.049847287   -0.3105549      0.035518702   -0.20027009     9.7945616e-05
   9956000   0.049766455   -0.31043447     0.036060436   -0.19972917    -4.2078702e-05
   9957000   0.049551072   -0.31026383     0.036025808   -0.19991621     3.4178638e-05
   9958000   0.050192539   -0.31019137     0.036123739   -0.19878368    -0.00018459913
   9959000   0.049889218   -0.31033887     0.036408958   -0.19910092    -8.3945822e-05
   9960000   0.049771653   -0.31016739     0.036010959   -0.19950377     0.00032453384
   9961000   0.049966351   -0.31046571     0.035747557   -0.19977346    -0.00012416995
   9962000   0.050004018   -0.30983125     0.036315153   -0.1985149      1.2728525e-05
   9963000   0.050397978   -0.31023459     0.03519483    -0.19944767    -0.00035418395
   9964000   0.050206668   -0.31024052     0.035419493   -0.19951589     0.00048240649
   9965000   0.049637688   -0.31038814     0.036255489   -0.19968092    -0.00037196555
   9966000   0.049371249   -0.31006286     0.035476672   -0.20053409     0.00014595396
   9967000   0.050339432   -0.31064513     0.035928303   -0.19921255    -0.00036938234
   9968000   0.050266344   -0.31010429     0.036055806   -0.19865383    -0.00016530887
   9969000   0.050049276   -0.30962607     0.035213388   -0.19934361     0.00045945365
   9970000   0.049760008   -0.31053297     0.0357197     -0.20017808    -0.00039405393
   9971000   0.05008132    -0.31017333     0.035904007   -0.19915219    -0.0001119402 
   9972000   0.049821287   -0.31013865     0.035183948   -0.2002276     -0.00027815292
   9973000   0.049872571   -0.30961519     0.035557251   -0.19925391     8.9473116e-05
   9974000   0.050052983   -0.31036005     0.035258028   -0.20002739     0.00065124163
   9975000   0.050080074   -0.31027        0.035874452   -0.19928028    -8.5061725e-05
   9976000   0.050380774   -0.31012303     0.035771493   -0.19878525     0.00032557655
   9977000   0.050121101   -0.3100755      0.035577775   -0.19932093    -0.00024997632
   9978000   0.049921962   -0.3101783      0.035849669   -0.19945052    -3.6424036e-05
   9979000   0.050017606   -0.30989658     0.035490039   -0.19938498     0.00024746084
   9980000   0.049953205   -0.31049015     0.035385187   -0.20017999    -0.00054709682
   9981000   0.049930562   -0.31081991     0.036097659   -0.19983124     6.7056057e-05
   9982000   0.050244419   -0.31054708     0.035805361   -0.19937996     5.0301384e-05
   9983000   0.049786342   -0.31064551     0.035672466   -0.20029835     0.00023979409
   9984000   0.05018776    -0.31047918     0.035904385   -0.19929801     0.00030868292
   9985000   0.049332653   -0.31065511     0.035689484   -0.20097142    -3.3979541e-05
   9986000   0.04967784    -0.31054236     0.036144087   -0.19988632    -0.00017839474
   9987000   0.049672407   -0.31062411     0.035477422   -0.20064288     0.00023457524
   9988000   0.049702726   -0.31034232     0.036111886   -0.19968115    -0.00016433675
   9989000   0.050055088   -0.31036814     0.035583349   -0.199707       0.00021857986
   9990000   0.050116843   -0.3103981      0.035993735   -0.19923395    -0.00011164778
   9991000   0.049980387   -0.3102983      0.035435473   -0.19989708     0.00040043291
   9992000   0.050025814   -0.31015026     0.036000431   -0.19911595     9.3335646e-05
   9993000   0.049920041   -0.31036876     0.036434822   -0.1990587     -0.00022804125
   9994000   0.04974771    -0.31074755     0.03594389    -0.20018691     0.00047903317
   9995000   0.049943817   -0.31044949     0.036618873   -0.19891972    -0.00019622659
   9996000   0.049943086   -0.31041177     0.036731823   -0.19877016    -0.0001502002 
   9997000   0.04992924    -0.31043072     0.036224568   -0.19931713     0.00015106291
   9998000   0.050242751   -0.31066491     0.036238933   -0.19906671    -8.0774821e-05
   9999000   0.050072178   -0.31063495     0.035773552   -0.19975798     0.0003340131 
  10000000   0.049476517   -0.31049537     0.036072233   -0.20021315    -0.00010196262
Loop time of 9663.7 on 8 procs for 9500000 steps with 15500 atoms

Performance: 84936.388 tau/day, 983.060 timesteps/s, 15.237 Matom-step/s
95.0% CPU use with 8 MPI tasks x 1 OpenMP threads

MPI task timing breakdown:
Section |  min time  |  avg time  |  max time  |%varavg| %total
---------------------------------------------------------------
Pair    | 1889.9     | 2067.4     | 2206.4     | 251.3 | 21.39
Bond    | 801.08     | 878.27     | 941.9      | 169.8 |  9.09
Neigh   | 16.326     | 16.386     | 16.427     |   0.8 |  0.17
Comm    | 564.69     | 760.24     | 1011.5     | 597.4 |  7.87
Output  | 122.63     | 124.92     | 127.17     |  13.6 |  1.29
Modify  | 5676.8     | 5700.7     | 5721.8     |  18.4 | 58.99
Other   |            | 115.7      |            |       |  1.20

Nlocal:         1937.5 ave        2151 max        1753 min
Histogram: 2 0 1 1 1 0 0 2 0 1
Nghost:          900.5 ave         955 max         785 min
Histogram: 1 0 0 1 0 0 0 3 0 3
Neighs:              0 ave           0 max           0 min
Histogram: 8 0 0 0 0 0 0 0 0 0
FullNghs:        15989 ave       17617 max       14323 min
Histogram: 1 0 3 0 1 0 0 0 1 2

Total # of neighbors = 127912
Ave neighs/atom = 8.2523871
Ave special neighs/atom = 2.1612903
Neighbor list builds = 10774
Dangerous builds = 0

# Write data for deformation

write_restart ${Dir}/${file4_name}
write_restart /home/franvt/GitRepos/molDynLammps/polymericGels/gel-batch-1/data/2026-03-27-180301_3/${file4_name}
write_restart /home/franvt/GitRepos/molDynLammps/polymericGels/gel-batch-1/data/2026-03-27-180301_3/data.hydrogel
System init for write_restart ...
WARNING: Using a manybody potential with bonds/angles/dihedrals and special_bond exclusions (src/pair.cpp:250)
Hybrid pair style last /omp style table/omp
Last active /omp style is angle_style harmonic/omp
Total wall time: 2:49:36
