# Script with the pair-wise interaction and bonds between particles

pair_coeff 1 1 zero 0.5
pair_coeff 1 2 table/omp sysFiles/pachTab.table POT 0.6 # sw/omp sysFiles/patchyPot.sw NULL NULL PA PB
pair_coeff 2 2 table/omp sysFiles/pachTab.table POT 0.6 # sw/omp sysFiles/patchyPot.sw NULL NULL PA PB 
pair_coeff * * threebody/table swapMech.3b PA PB

