LAMMPS (22 Jul 2025)
OMP_NUM_THREADS environment is not set. Defaulting to 1 thread.
  using 1 OpenMP thread(s) per MPI task
package omp 0
using multi-threaded neighbor list subroutines
# Input Script of lammps for assembly simulation of polimeric gel network.
# Patchy particle script by Felipe Benavides: https://github.com/PipeB62/Hydrogel-Simulation
# Assembly protocolo based on: https://doi.org/10.1021/acs.macromol.7b01600
# Last Main modification: March 5, 2026 | Threebody interaction

# Initialization
units lj
dimension 3
boundary p p p

# Styles of atoms and that stuff
atom_style full
bond_style harmonic
angle_style harmonic
pair_style hybrid/overlay zero 0.0 lj/cut/omp ${r_cWCA} table/omp linear ${N_3body} threebody/table
pair_style hybrid/overlay zero 0.0 lj/cut/omp 1.12 table/omp linear ${N_3body} threebody/table
pair_style hybrid/overlay zero 0.0 lj/cut/omp 1.12 table/omp linear 128 threebody/table

newton on

# Create simulaiton box
region simulation_box block -$L $L -$L $L -$L $L
region simulation_box block -2.733404 $L -$L $L -$L $L
region simulation_box block -2.733404 2.733404 -$L $L -$L $L
region simulation_box block -2.733404 2.733404 -2.733404 $L -$L $L
region simulation_box block -2.733404 2.733404 -2.733404 2.733404 -$L $L
region simulation_box block -2.733404 2.733404 -2.733404 2.733404 -2.733404 $L
region simulation_box block -2.733404 2.733404 -2.733404 2.733404 -2.733404 2.733404
# N-atom-types region-ID keyword value Is necesesary the extra/special/per/atom (# of special neighbors per atom)
create_box 4 simulation_box     bond/types 1     angle/types 2     extra/bond/per/atom 10     extra/angle/per/atom 6     extra/special/per/atom 10
Created orthogonal box = (-2.733404 -2.733404 -2.733404) to (2.733404 2.733404 2.733404)
  2 by 2 by 2 MPI processor grid

# Atom types
mass 1 ${m_CP}      # CL
mass 1 1.0      
mass 2 ${m_CP}      # MO
mass 2 1.0      
mass 3 ${m_PT}      # PA (CL)
mass 3 1.0      
mass 4 ${m_PT}      # PB (MO)
mass 4 1.0      

# Coefficients
include src_lmp/potential.in
# Script with the pair-wise interaction and bonds between particles

bond_coeff 1 ${E_bondP} ${r_bondP}
bond_coeff 1 100.0 ${r_bondP}
bond_coeff 1 100.0 0.4
angle_coeff 1 ${E_bondP} ${theta_PB}
angle_coeff 1 100.0 ${theta_PB}
angle_coeff 1 100.0 180.0
angle_coeff 2 ${E_bondP} ${theta_PA}
angle_coeff 2 100.0 ${theta_PA}
angle_coeff 2 100.0 109.4712
pair_coeff 1 3 zero ${r_noInter}
pair_coeff 1 3 zero 0.5
pair_coeff 1 4 zero ${r_noInter}
pair_coeff 1 4 zero 0.5
pair_coeff 2 3 zero ${r_noInter}
pair_coeff 2 3 zero 0.5
pair_coeff 2 4 zero ${r_noInter}
pair_coeff 2 4 zero 0.5
pair_coeff 3 3 zero ${r_noInter}
pair_coeff 3 3 zero 0.5
pair_coeff 1 1 lj/cut/omp ${E_CP} ${r_CP} ${r_cWCA}
pair_coeff 1 1 lj/cut/omp 1.0 ${r_CP} ${r_cWCA}
pair_coeff 1 1 lj/cut/omp 1.0 1.0 ${r_cWCA}
pair_coeff 1 1 lj/cut/omp 1.0 1.0 1.12
pair_coeff 2 2 lj/cut/omp ${E_CP} ${r_CP} ${r_cWCA}
pair_coeff 2 2 lj/cut/omp 1.0 ${r_CP} ${r_cWCA}
pair_coeff 2 2 lj/cut/omp 1.0 1.0 ${r_cWCA}
pair_coeff 2 2 lj/cut/omp 1.0 1.0 1.12
pair_coeff 1 2 lj/cut/omp ${E_CP} ${r_CP} ${r_cWCA}
pair_coeff 1 2 lj/cut/omp 1.0 ${r_CP} ${r_cWCA}
pair_coeff 1 2 lj/cut/omp 1.0 1.0 ${r_cWCA}
pair_coeff 1 2 lj/cut/omp 1.0 1.0 1.12
pair_coeff 3 4 table/omp src_lmp/sysFiles/pachTab.table POT ${r_cPP} # sw/omp sysFiles/patchyPot.sw NULL NULL PA PB
pair_coeff 3 4 table/omp src_lmp/sysFiles/pachTab.table POT 0.6 
Reading pair table potential file src_lmp/sysFiles/pachTab.table with DATE: 2025-02-09
WARNING: 1 of 128 force values in table POT are inconsistent with -dE/dr.
WARNING:  Should only be flagged at inflection points (src/pair_table.cpp:469)
pair_coeff 4 4 table/omp src_lmp/sysFiles/pachTab.table POT ${r_cPP} # sw/omp sysFiles/patchyPot.sw NULL NULL PA PB
pair_coeff 4 4 table/omp src_lmp/sysFiles/pachTab.table POT 0.6 
Reading pair table potential file src_lmp/sysFiles/pachTab.table with DATE: 2025-02-09
WARNING: 1 of 128 force values in table POT are inconsistent with -dE/dr.
WARNING:  Should only be flagged at inflection points (src/pair_table.cpp:469)
pair_coeff * * threebody/table src_lmp/swapMech.3b NULL NULL PA PB
pair_modify pair lj/cut/omp shift yes


# Molecules
include src_lmp/molecules.in
# Script with all molecule information and create groups for computes

# Read the molecule information
molecule CL src_lmp/sysFiles/molecule.patchy.CL
Read molecule template CL:
# Patchy Cross-Linker
  1 molecules
  0 fragments
  0 bodies
  5 atoms with max type 3
  4 bonds with max type 1
  6 angles with max type 2
  0 dihedrals with max type 0
  0 impropers with max type 0
molecule MO src_lmp/sysFiles/molecule.patchy.MO
Read molecule template MO:
# Patchy Monomer
  1 molecules
  0 fragments
  0 bodies
  3 atoms with max type 4
  2 bonds with max type 1
  1 angles with max type 1
  0 dihedrals with max type 0
  0 impropers with max type 0

# Introduce the molecules
# ID style args keyword arg
region spawn_box block -$L $L -$L $L -$L $L
region spawn_box block -2.733404 $L -$L $L -$L $L
region spawn_box block -2.733404 2.733404 -$L $L -$L $L
region spawn_box block -2.733404 2.733404 -2.733404 $L -$L $L
region spawn_box block -2.733404 2.733404 -2.733404 2.733404 -$L $L
region spawn_box block -2.733404 2.733404 -2.733404 2.733404 -2.733404 $L
region spawn_box block -2.733404 2.733404 -2.733404 2.733404 -2.733404 2.733404

# create_atoms type style args keyword values
# style_random: N seed region-ID
# keyword_mol: template-ID seed
# keyword_overlap: overlap value = only insert if at least this distance from all existing atoms
# keyword_maxtry: maxtry value = number of attempts to insert a particle before failure
create_atoms 0 random ${N_pCL} ${seed1} spawn_box mol CL ${seed1} overlap 1.0 maxtry 5000 #xls
create_atoms 0 random 3 ${seed1} spawn_box mol CL ${seed1} overlap 1.0 maxtry 5000 
create_atoms 0 random 3 46 spawn_box mol CL ${seed1} overlap 1.0 maxtry 5000 
create_atoms 0 random 3 46 spawn_box mol CL 46 overlap 1.0 maxtry 5000 
Created 15 atoms
  using lattice units in orthogonal box = (-2.733404 -2.733404 -2.733404) to (2.733404 2.733404 2.733404)
  create_atoms CPU = 0.004 seconds
create_atoms 0 random ${N_pMO} ${seed2} spawn_box mol MO ${seed2} overlap 1.0 maxtry 5000 #mon
create_atoms 0 random 3 ${seed2} spawn_box mol MO ${seed2} overlap 1.0 maxtry 5000 
create_atoms 0 random 3 47 spawn_box mol MO ${seed2} overlap 1.0 maxtry 5000 
create_atoms 0 random 3 47 spawn_box mol MO 47 overlap 1.0 maxtry 5000 
Created 9 atoms
  using lattice units in orthogonal box = (-2.733404 -2.733404 -2.733404) to (2.733404 2.733404 2.733404)
  create_atoms CPU = 0.003 seconds

# Create groups for computes
group CrossLinker type 1 3
15 atoms in group CrossLinker
group Monomer type 2 4
9 atoms in group Monomer
group Patches type 3 4
18 atoms in group Patches
group CL type 1
3 atoms in group CL
group MO type 2
3 atoms in group MO
group PA type 3
12 atoms in group PA
group PB type 4
6 atoms in group PB
group CM type 1 2
6 atoms in group CM

# Neighbor list
neighbor ${r_cWCA} bin # extra-distance style
neighbor 1.12 bin 

# COMPUTES

# Compute global kinetic and potential energy and temperature
compute t all temp
compute p all pressure t
compute ep all pe
compute ek all ke
variable eT equal etotal
variable eB equal ebond
variable eA equal eangle
variable eM equal emol
variable ec equal ecouple
variable eC equal econserve

# Potencial energy per pair-wise interaction
compute wcaPair all pair lj/cut/omp epair
compute patchPair all pair table/omp epair
compute swapPair all pair threebody/table epair

# Compute the pressure
compute press all pressure t ke virial
compute pressVirial all pressure t virial
compute pressVirialMod all pressure t pair bond angle

# Computes for the stress
compute cstress all stress/atom t ke pair bond angle
compute cstressVirial all stress/atom t virial
compute cstressVirialMod all stress/atom t pair bond angle
compute stress all reduce sum c_cstress[*]
compute stressVirial all reduce sum c_cstressVirial[*]
compute stressVirialMod all reduce sum c_cstressVirialMod[*]

# Get the number of central particles per cluster
compute clusters all aggregate/atom ${r_cPP}                             # Create the clusters
compute clusters all aggregate/atom 0.6                             

# DUMPS and FIXES

thermo ${N_dump}
thermo 2000

# Save global energies and temperature
fix Energy all ave/time 1 ${N_save} ${N_save} c_t c_wcaPair c_patchPair c_swapPair c_ep c_ek v_eT v_ec v_eC c_p v_eB v_eA v_eM file ${Dir}/${file1_name}
fix Energy all ave/time 1 1000 ${N_save} c_t c_wcaPair c_patchPair c_swapPair c_ep c_ek v_eT v_ec v_eC c_p v_eB v_eA v_eM file ${Dir}/${file1_name}
fix Energy all ave/time 1 1000 1000 c_t c_wcaPair c_patchPair c_swapPair c_ep c_ek v_eT v_ec v_eC c_p v_eB v_eA v_eM file ${Dir}/${file1_name}
fix Energy all ave/time 1 1000 1000 c_t c_wcaPair c_patchPair c_swapPair c_ep c_ek v_eT v_ec v_eC c_p v_eB v_eA v_eM file /home/franvt/GitRepos/molDynLammps/polymericGels/gel-batch-3/data/2026-06-16-160241_2_phi0.02_chi0.5/${file1_name}
fix Energy all ave/time 1 1000 1000 c_t c_wcaPair c_patchPair c_swapPair c_ep c_ek v_eT v_ec v_eC c_p v_eB v_eA v_eM file /home/franvt/GitRepos/molDynLammps/polymericGels/gel-batch-3/data/2026-06-16-160241_2_phi0.02_chi0.5/system_assembly.fixf

# Save Pressure and Stress tensor
fix fixStress5 all ave/time 1 ${N_save} ${N_save} c_p c_press[*] c_pressVirial[*] c_pressVirialMod[*] c_stress[*] c_stressVirial[*] c_stressVirialMod[*] file ${Dir}/${file2_name}
fix fixStress5 all ave/time 1 1000 ${N_save} c_p c_press[*] c_pressVirial[*] c_pressVirialMod[*] c_stress[*] c_stressVirial[*] c_stressVirialMod[*] file ${Dir}/${file2_name}
fix fixStress5 all ave/time 1 1000 1000 c_p c_press[*] c_pressVirial[*] c_pressVirialMod[*] c_stress[*] c_stressVirial[*] c_stressVirialMod[*] file ${Dir}/${file2_name}
fix fixStress5 all ave/time 1 1000 1000 c_p c_press[*] c_pressVirial[*] c_pressVirialMod[*] c_stress[*] c_stressVirial[*] c_stressVirialMod[*] file /home/franvt/GitRepos/molDynLammps/polymericGels/gel-batch-3/data/2026-06-16-160241_2_phi0.02_chi0.5/${file2_name}
fix fixStress5 all ave/time 1 1000 1000 c_p c_press[*] c_pressVirial[*] c_pressVirialMod[*] c_stress[*] c_stressVirial[*] c_stressVirialMod[*] file /home/franvt/GitRepos/molDynLammps/polymericGels/gel-batch-3/data/2026-06-16-160241_2_phi0.02_chi0.5/stress_assembly.fixf

# Save atom positions with cluster id
dump dumpID all custom ${N_dump} ${Dir}/traj/${file3_name} id mol c_clusters type x y z vx vy vz
dump dumpID all custom 2000 ${Dir}/traj/${file3_name} id mol c_clusters type x y z vx vy vz
dump dumpID all custom 2000 /home/franvt/GitRepos/molDynLammps/polymericGels/gel-batch-3/data/2026-06-16-160241_2_phi0.02_chi0.5/traj/${file3_name} id mol c_clusters type x y z vx vy vz
dump dumpID all custom 2000 /home/franvt/GitRepos/molDynLammps/polymericGels/gel-batch-3/data/2026-06-16-160241_2_phi0.02_chi0.5/traj/traj_assembly.*.dumpf id mol c_clusters type x y z vx vy vz
dump_modify dumpID pbc yes # remap atoms via periodic boundary conditions

# RUN SIMULATION

# Brownian Dynamics using Langevin Thermostat

timestep ${tstep}
timestep 0.001

fix VelVerlet all nve # Use Velocity Verlet integrator

# First elevate the temperature
fix ThermoLng all langevin 0.0 ${temp} ${damp} ${seed3} tally yes zero yes # Brownian Dynamics: langevin + nve
fix ThermoLng all langevin 0.0 0.05 ${damp} ${seed3} tally yes zero yes 
fix ThermoLng all langevin 0.0 0.05 1.0 ${seed3} tally yes zero yes 
fix ThermoLng all langevin 0.0 0.05 1.0 48 tally yes zero yes 
run ${N_heat}
run 5000
WARNING: Using a manybody potential with bonds/angles/dihedrals and special_bond exclusions (src/pair.cpp:250)
Hybrid pair style last /omp style table/omp
Last active /omp style is angle_style harmonic/omp
Neighbor list info ...
  update: every = 1 steps, delay = 0 steps, check = yes
  max neighbors/atom: 2000, page size: 100000
  master list distance cutoff = 2.24
  ghost atom cutoff = 2.24
  binsize = 1.12, bins = 5 5 5
  7 neighbor lists, perpetual/occasional/extra = 6 1 0
  (1) pair zero, perpetual, skip from (7)
      attributes: half, newton on, omp
      pair build: skip/omp
      stencil: none
      bin: none
  (2) pair lj/cut/omp, perpetual, skip from (7)
      attributes: half, newton on, omp
      pair build: skip/omp
      stencil: none
      bin: none
  (3) pair table/omp, perpetual, skip from (7)
      attributes: half, newton on, omp
      pair build: skip/omp
      stencil: none
      bin: none
  (4) pair threebody/table, perpetual, skip from (6)
      attributes: full, newton on, omp
      pair build: skip/omp
      stencil: none
      bin: none
  (5) compute aggregate/atom, occasional, copy from (6)
      attributes: full, newton on, omp
      pair build: copy
      stencil: none
      bin: none
  (6) neighbor class addition, perpetual
      attributes: full, newton on, omp
      pair build: full/bin/omp
      stencil: full/bin/3d
      bin: standard
  (7) neighbor class addition, perpetual, half/full from (6)
      attributes: half, newton on, omp
      pair build: halffull/newton/omp
      stencil: none
      bin: none
Per MPI rank memory allocation (min/avg/max) = 16.53 | 18.16 | 19.24 Mbytes
   Step          Temp          E_pair         E_mol          TotEng         Press     
         0   0              0              21.541472      21.541472      0.00095632489
      2000   1.0345828      0              1.7128777      3.2000905     -0.14246481   
      4000   0.13644029     0              0.28599181     0.48212473     0.056017444  
      5000   0.085423563    0              0.10617543     0.2289718     -0.02501389   
Loop time of 0.414919 on 8 procs for 5000 steps with 24 atoms

Performance: 1041166.512 tau/day, 12050.538 timesteps/s, 289.213 katom-step/s
96.9% CPU use with 8 MPI tasks x 1 OpenMP threads

MPI task timing breakdown:
Section |  min time  |  avg time  |  max time  |%varavg| %total
---------------------------------------------------------------
Pair    | 0.019921   | 0.022478   | 0.02748    |   1.6 |  5.42
Bond    | 0.012864   | 0.015131   | 0.020757   |   2.0 |  3.65
Neigh   | 5.692e-05  | 6.842e-05  | 7.1337e-05 |   0.0 |  0.02
Comm    | 0.029198   | 0.039392   | 0.046519   |   3.0 |  9.49
Output  | 0.00034041 | 0.00035546 | 0.00038192 |   0.0 |  0.09
Modify  | 0.32332    | 0.32735    | 0.33399    |   0.7 | 78.89
Other   |            | 0.01015    |            |       |  2.45

Nlocal:              3 ave           8 max           0 min
Histogram: 3 0 0 2 0 0 2 0 0 1
Nghost:         52.875 ave          79 max          32 min
Histogram: 1 2 1 0 0 1 1 0 1 1
Neighs:              0 ave           0 max           0 min
Histogram: 8 0 0 0 0 0 0 0 0 0
FullNghs:         4.75 ave          12 max           0 min
Histogram: 3 1 0 0 0 2 0 0 0 2

Total # of neighbors = 38
Ave neighs/atom = 1.5833333
Ave special neighs/atom = 3.25
Neighbor list builds = 3
Dangerous builds = 0

unfix ThermoLng

# Now we let the system to create the polymeric network
fix ThermoLng all langevin ${temp} ${temp} ${damp} ${seed3} tally yes zero yes # Brownian Dynamics: langevin + nve
fix ThermoLng all langevin 0.05 ${temp} ${damp} ${seed3} tally yes zero yes 
fix ThermoLng all langevin 0.05 0.05 ${damp} ${seed3} tally yes zero yes 
fix ThermoLng all langevin 0.05 0.05 1.0 ${seed3} tally yes zero yes 
fix ThermoLng all langevin 0.05 0.05 1.0 48 tally yes zero yes 
run ${N_isothermal}
run 10000
WARNING: Using a manybody potential with bonds/angles/dihedrals and special_bond exclusions (src/pair.cpp:250)
Hybrid pair style last /omp style table/omp
Last active /omp style is angle_style harmonic/omp
Per MPI rank memory allocation (min/avg/max) = 19.54 | 21.79 | 23.25 Mbytes
   Step          Temp          E_pair         E_mol          TotEng         Press     
      5000   0.085423563    0              0.10617543     0.2289718     -0.02501389   
      6000   0.06395464     0              0.064414504    0.1563493     -0.02511665   
      8000   0.057907392    0              0.062516806    0.14575868     0.017641013  
     10000   0.052209349    0              0.038328476    0.11337942     0.0076178142 
     12000   0.050991001    0              0.032156614    0.10545618    -0.0079667606 
     14000   0.059170921    0              0.047127895    0.13218609     0.0036194252 
     15000   0.042296215    0              0.042100367    0.10290118     0.0044082326 
Loop time of 0.849641 on 8 procs for 10000 steps with 24 atoms

Performance: 1016900.492 tau/day, 11769.682 timesteps/s, 282.472 katom-step/s
97.5% CPU use with 8 MPI tasks x 1 OpenMP threads

MPI task timing breakdown:
Section |  min time  |  avg time  |  max time  |%varavg| %total
---------------------------------------------------------------
Pair    | 0.040548   | 0.045482   | 0.057787   |   2.4 |  5.35
Bond    | 0.026225   | 0.030656   | 0.04203    |   2.8 |  3.61
Neigh   | 0.0002266  | 0.00022742 | 0.0002288  |   0.0 |  0.03
Comm    | 0.056314   | 0.080057   | 0.097707   |   5.4 |  9.42
Output  | 0.00077219 | 0.00081573 | 0.00088908 |   0.0 |  0.10
Modify  | 0.66115    | 0.67152    | 0.69574    |   1.4 | 79.04
Other   |            | 0.02089    |            |       |  2.46

Nlocal:              3 ave           8 max           0 min
Histogram: 3 1 0 1 0 0 1 0 1 1
Nghost:         53.625 ave          69 max          39 min
Histogram: 3 0 0 1 0 0 0 1 1 2
Neighs:              0 ave           0 max           0 min
Histogram: 8 0 0 0 0 0 0 0 0 0
FullNghs:          4.5 ave          14 max           0 min
Histogram: 4 0 0 0 1 2 0 0 0 1

Total # of neighbors = 36
Ave neighs/atom = 1.5
Ave special neighs/atom = 3.25
Neighbor list builds = 6
Dangerous builds = 0

# Write data for deformation

write_restart ${Dir}/${file4_name}
write_restart /home/franvt/GitRepos/molDynLammps/polymericGels/gel-batch-3/data/2026-06-16-160241_2_phi0.02_chi0.5/${file4_name}
write_restart /home/franvt/GitRepos/molDynLammps/polymericGels/gel-batch-3/data/2026-06-16-160241_2_phi0.02_chi0.5/data.hydrogel
System init for write_restart ...
WARNING: Using a manybody potential with bonds/angles/dihedrals and special_bond exclusions (src/pair.cpp:250)
Hybrid pair style last /omp style table/omp
Last active /omp style is angle_style harmonic/omp
Total wall time: 0:01:00
