LAMMPS (22 Jul 2025)
OMP_NUM_THREADS environment is not set. Defaulting to 1 thread.
  using 1 OpenMP thread(s) per MPI task
package omp 0
using multi-threaded neighbor list subroutines
# Input Script of lammps for assembly simulation of polimeric gel network.
# Patchy particle script by Felipe Benavides: https://github.com/PipeB62/Hydrogel-Simulation
# Assembly protocolo based on: https://doi.org/10.1021/acs.macromol.7b01600
# Last Main modification: March 5, 2026 | Threebody interaction

# Initialization
units lj
dimension 3
boundary p p p

# Styles of atoms and that stuff
atom_style full
bond_style harmonic
angle_style harmonic
pair_style hybrid/overlay zero 0.0 lj/cut/omp 1.12 table/omp linear 128 threebody/table

newton on

# Create simulaiton box
region simulation_box block -$L $L -$L $L -$L $L
region simulation_box block -22.383449 $L -$L $L -$L $L
region simulation_box block -22.383449 22.383449 -$L $L -$L $L
region simulation_box block -22.383449 22.383449 -22.383449 $L -$L $L
region simulation_box block -22.383449 22.383449 -22.383449 22.383449 -$L $L
region simulation_box block -22.383449 22.383449 -22.383449 22.383449 -22.383449 $L
region simulation_box block -22.383449 22.383449 -22.383449 22.383449 -22.383449 22.383449
# N-atom-types region-ID keyword value Is necesesary the extra/special/per/atom (# of special neighbors per atom)
create_box 4 simulation_box     bond/types 1     angle/types 2     extra/bond/per/atom 10     extra/angle/per/atom 6     extra/special/per/atom 10
Created orthogonal box = (-22.383449 -22.383449 -22.383449) to (22.383449 22.383449 22.383449)
  2 by 2 by 2 MPI processor grid

# Atom types
mass 1 1.0      # CL
mass 2 1.0      # MO
mass 3 1.0      # PA (CL)
mass 4 1.0      # PB (MO)

# Coefficients
include potential.in
# Script with the pair-wise interaction and bonds between particles

bond_coeff 1 100.0 0.4
angle_coeff 1 100.0 180
angle_coeff 2 100.0 109.4712
pair_coeff 1 3 zero 0.5
pair_coeff 1 4 zero 0.5
pair_coeff 2 3 zero 0.5
pair_coeff 2 4 zero 0.5
pair_coeff 3 3 zero 0.5
pair_coeff 1 1 lj/cut/omp 1.0 1.0 1.12
pair_coeff 2 2 lj/cut/omp 1.0 1.0 1.12
pair_coeff 1 2 lj/cut/omp 1.0 1.0 1.12
pair_coeff 3 4 table/omp sysFiles/pachTab.table POT 0.6 # sw/omp sysFiles/patchyPot.sw NULL NULL PA PB
Reading pair table potential file sysFiles/pachTab.table with DATE: 2025-02-09
WARNING: 1 of 128 force values in table POT are inconsistent with -dE/dr.
WARNING:  Should only be flagged at inflection points (src/pair_table.cpp:469)
pair_coeff 4 4 table/omp sysFiles/pachTab.table POT 0.6 # sw/omp sysFiles/patchyPot.sw NULL NULL PA PB
Reading pair table potential file sysFiles/pachTab.table with DATE: 2025-02-09
WARNING: 1 of 128 force values in table POT are inconsistent with -dE/dr.
WARNING:  Should only be flagged at inflection points (src/pair_table.cpp:469)
pair_coeff * * threebody/table swapMech.3b NULL NULL PA PB
pair_modify pair lj/cut/omp shift yes


# Molecules
include molecules.in
# Script with all molecule information and create groups for computes

# Read the molecule information
molecule CL sysFiles/molecule.patchy.CL
Read molecule template CL:
# Patchy Cross-Linker
  1 molecules
  0 fragments
  0 bodies
  5 atoms with max type 3
  4 bonds with max type 1
  6 angles with max type 2
  0 dihedrals with max type 0
  0 impropers with max type 0
molecule MO sysFiles/molecule.patchy.MO
Read molecule template MO:
# Patchy Monomer
  1 molecules
  0 fragments
  0 bodies
  3 atoms with max type 4
  2 bonds with max type 1
  1 angles with max type 1
  0 dihedrals with max type 0
  0 impropers with max type 0

# Introduce the molecules
# ID style args keyword arg
region spawn_box block -$L $L -$L $L -$L $L
region spawn_box block -22.383449 $L -$L $L -$L $L
region spawn_box block -22.383449 22.383449 -$L $L -$L $L
region spawn_box block -22.383449 22.383449 -22.383449 $L -$L $L
region spawn_box block -22.383449 22.383449 -22.383449 22.383449 -$L $L
region spawn_box block -22.383449 22.383449 -22.383449 22.383449 -22.383449 $L
region spawn_box block -22.383449 22.383449 -22.383449 22.383449 -22.383449 22.383449

# create_atoms type style args keyword values
# style_random: N seed region-ID
# keyword_mol: template-ID seed
# keyword_overlap: overlap value = only insert if at least this distance from all existing atoms
# keyword_maxtry: maxtry value = number of attempts to insert a particle before failure
create_atoms 0 random ${NCL} ${seed1} spawn_box mol CL ${seed1} overlap 1.0 maxtry 5000 #xls
create_atoms 0 random 250 ${seed1} spawn_box mol CL ${seed1} overlap 1.0 maxtry 5000 
create_atoms 0 random 250 14 spawn_box mol CL ${seed1} overlap 1.0 maxtry 5000 
create_atoms 0 random 250 14 spawn_box mol CL 14 overlap 1.0 maxtry 5000 
Created 1250 atoms
  using lattice units in orthogonal box = (-22.383449 -22.383449 -22.383449) to (22.383449 22.383449 22.383449)
  create_atoms CPU = 0.014 seconds
create_atoms 0 random ${NMO} ${seed2} spawn_box mol MO ${seed2} overlap 1.0 maxtry 5000 #mon
create_atoms 0 random 4750 ${seed2} spawn_box mol MO ${seed2} overlap 1.0 maxtry 5000 
create_atoms 0 random 4750 17 spawn_box mol MO ${seed2} overlap 1.0 maxtry 5000 
create_atoms 0 random 4750 17 spawn_box mol MO 17 overlap 1.0 maxtry 5000 
Created 14250 atoms
  using lattice units in orthogonal box = (-22.383449 -22.383449 -22.383449) to (22.383449 22.383449 22.383449)
  create_atoms CPU = 0.573 seconds

# Create patchy particles
group CrossLinker type 1 3
1250 atoms in group CrossLinker
group Monomer type 2 4
14250 atoms in group Monomer
group Patches type 3 4
10500 atoms in group Patches
group CL type 1
250 atoms in group CL
group MO type 2
4750 atoms in group MO
group PA type 3
1000 atoms in group PA
group PB type 4
9500 atoms in group PB
group CM type 1 2
5000 atoms in group CM

# Neighbor list
neighbor 1.2 bin # extra-distance style
#neigh_modify delay 0 every 1 check no
#neigh_modify exclude molecule/intra CrossLinker
#neigh_modify exclude molecule/intra Monomer

# COMPUTES

# Compute global kinetic and potential energy and temperature
compute t all temp
compute p all pressure t
compute ep all pe
compute ek all ke
variable eT equal etotal
variable eB equal ebond
variable eA equal eangle
variable eM equal emol
variable ec equal ecouple
variable eC equal econserve

# Potencial energy per pair-wise interaction
compute wcaPair all pair lj/cut/omp epair
compute patchPair all pair table/omp epair
compute swapPair all pair threebody/table epair

# Compute the pressure
compute press all pressure t ke virial
compute pressVirial all pressure t virial
compute pressVirialMod all pressure t pair bond angle

# Computes for the stress
compute cstress all stress/atom t ke pair bond angle
compute cstressVirial all stress/atom t virial
compute cstressVirialMod all stress/atom t pair bond angle
compute stress all reduce sum c_cstress[*]
compute stressVirial all reduce sum c_cstressVirial[*]
compute stressVirialMod all reduce sum c_cstressVirialMod[*]

# Get the number of central particles per cluster
compute clusters all aggregate/atom 0.6                             # Create the clusters

# DUMPS and FIXES

thermo ${Ndump}
thermo 1000

# Save global energies and temperature
fix Energy all ave/time 1 ${Nsave} ${Nsave} c_t c_wcaPair c_patchPair c_swapPair c_ep c_ek v_eT v_ec v_eC c_p v_eB v_eA v_eM file ${Dir}/${file1_name}
fix Energy all ave/time 1 100000 ${Nsave} c_t c_wcaPair c_patchPair c_swapPair c_ep c_ek v_eT v_ec v_eC c_p v_eB v_eA v_eM file ${Dir}/${file1_name}
fix Energy all ave/time 1 100000 100000 c_t c_wcaPair c_patchPair c_swapPair c_ep c_ek v_eT v_ec v_eC c_p v_eB v_eA v_eM file ${Dir}/${file1_name}
fix Energy all ave/time 1 100000 100000 c_t c_wcaPair c_patchPair c_swapPair c_ep c_ek v_eT v_ec v_eC c_p v_eB v_eA v_eM file /home/franvt/GitRepos/molDynLammps/polymericGels/gel-batch-1/data/2026-04-09-051002_2/${file1_name}
fix Energy all ave/time 1 100000 100000 c_t c_wcaPair c_patchPair c_swapPair c_ep c_ek v_eT v_ec v_eC c_p v_eB v_eA v_eM file /home/franvt/GitRepos/molDynLammps/polymericGels/gel-batch-1/data/2026-04-09-051002_2/system_assembly.fixf

# Save Pressure and Stress tensor
fix fixStress5 all ave/time 1 ${NsaveStress} ${NsaveStress} c_p c_press[*] c_pressVirial[*] c_pressVirialMod[*] c_stress[*] c_stressVirial[*] c_stressVirialMod[*] file ${Dir}/${file2_name}
fix fixStress5 all ave/time 1 100000 ${NsaveStress} c_p c_press[*] c_pressVirial[*] c_pressVirialMod[*] c_stress[*] c_stressVirial[*] c_stressVirialMod[*] file ${Dir}/${file2_name}
fix fixStress5 all ave/time 1 100000 100000 c_p c_press[*] c_pressVirial[*] c_pressVirialMod[*] c_stress[*] c_stressVirial[*] c_stressVirialMod[*] file ${Dir}/${file2_name}
fix fixStress5 all ave/time 1 100000 100000 c_p c_press[*] c_pressVirial[*] c_pressVirialMod[*] c_stress[*] c_stressVirial[*] c_stressVirialMod[*] file /home/franvt/GitRepos/molDynLammps/polymericGels/gel-batch-1/data/2026-04-09-051002_2/${file2_name}
fix fixStress5 all ave/time 1 100000 100000 c_p c_press[*] c_pressVirial[*] c_pressVirialMod[*] c_stress[*] c_stressVirial[*] c_stressVirialMod[*] file /home/franvt/GitRepos/molDynLammps/polymericGels/gel-batch-1/data/2026-04-09-051002_2/stress_assembly.fixf

# Save atom positions with cluster id
dump dumpID all custom ${Ndump} ${Dir}/traj/${file3_name} id mol c_clusters type x y z vx vy vz
dump dumpID all custom 1000 ${Dir}/traj/${file3_name} id mol c_clusters type x y z vx vy vz
dump dumpID all custom 1000 /home/franvt/GitRepos/molDynLammps/polymericGels/gel-batch-1/data/2026-04-09-051002_2/traj/${file3_name} id mol c_clusters type x y z vx vy vz
dump dumpID all custom 1000 /home/franvt/GitRepos/molDynLammps/polymericGels/gel-batch-1/data/2026-04-09-051002_2/traj/traj_assembly.*.dumpf id mol c_clusters type x y z vx vy vz
dump_modify dumpID pbc yes # remap atoms via periodic boundary conditions

# RUN SIMULATION

# Brownian Dynamics using Langevin Thermostat

timestep ${tstep}
timestep 0.001

fix VelVerlet all nve # Use Velocity Verlet integrator

# First elevate the temperature
fix ThermoLng all langevin 0.0 ${temp} ${damp} ${seed3} tally yes zero yes # Brownian Dynamics: langevin + nve
fix ThermoLng all langevin 0.0 0.05 ${damp} ${seed3} tally yes zero yes 
fix ThermoLng all langevin 0.0 0.05 1 ${seed3} tally yes zero yes 
fix ThermoLng all langevin 0.0 0.05 1 31 tally yes zero yes 
run ${stepsheat}
run 500000
WARNING: Using a manybody potential with bonds/angles/dihedrals and special_bond exclusions (src/pair.cpp:250)
Hybrid pair style last /omp style table/omp
Last active /omp style is angle_style harmonic/omp
Neighbor list info ...
  update: every = 1 steps, delay = 0 steps, check = yes
  max neighbors/atom: 2000, page size: 100000
  master list distance cutoff = 2.32
  ghost atom cutoff = 2.32
  binsize = 1.16, bins = 39 39 39
  7 neighbor lists, perpetual/occasional/extra = 6 1 0
  (1) pair zero, perpetual, skip from (7)
      attributes: half, newton on, omp
      pair build: skip/omp
      stencil: none
      bin: none
  (2) pair lj/cut/omp, perpetual, skip from (7)
      attributes: half, newton on, omp
      pair build: skip/omp
      stencil: none
      bin: none
  (3) pair table/omp, perpetual, skip from (7)
      attributes: half, newton on, omp
      pair build: skip/omp
      stencil: none
      bin: none
  (4) pair threebody/table, perpetual, skip from (6)
      attributes: full, newton on, omp
      pair build: skip/omp
      stencil: none
      bin: none
  (5) compute aggregate/atom, occasional, copy from (6)
      attributes: full, newton on, omp
      pair build: copy
      stencil: none
      bin: none
  (6) neighbor class addition, perpetual
      attributes: full, newton on, omp
      pair build: full/bin/omp
      stencil: full/bin/3d
      bin: standard
  (7) neighbor class addition, perpetual, half/full from (6)
      attributes: half, newton on, omp
      pair build: halffull/newton/omp
      stencil: none
      bin: none
Per MPI rank memory allocation (min/avg/max) = 19.19 | 19.2 | 19.2 Mbytes
   Step          Temp          E_pair         E_mol          TotEng         Press     
         0   0              9.9559871e-05  2.7795448      2.7796443      0.0004107774 
      1000   0.48525987    -8.9473594e-06  0.37911352     1.1069474      0.050046523  
      2000   0.13057553    -3.4977842e-05  0.22667991     0.4224956     -0.0120825    
      3000   0.058658626   -0.00010256384  0.071262796    0.15914249     0.00096142701
      4000   0.020006599   -0.00012808094  0.029360229    0.05924011     0.0071437513 
      5000   0.0058808714  -0.00012582585  0.013769113    0.022464025   -0.0020461975 
      6000   0.0025622031  -0.0001281097   0.0053539866   0.0090689336  -0.0024409734 
      7000   0.0019045114  -0.0001288584   0.0014355011   0.0041632254   0.0008096179 
      8000   0.0010796129  -0.00012898026  0.001052738    0.0025430726   0.00081213858
      9000   0.00098047196 -0.00012887314  0.00071348833  0.0020552282  -0.00017443459
     10000   0.00096100139 -0.0001288446   0.0007184426   0.0020310071  -0.00012234941
     11000   0.0010580864  -0.00012878553  0.00071165981  0.0021699014   0.00010448604
     12000   0.001125971   -0.00012879483  0.00076794779  0.0023280004   9.2987993e-05
     13000   0.0012221389  -0.00012890207  0.00083856279  0.0025427508   9.864975e-05 
     14000   0.0013264137  -0.00012886575  0.00089424636  0.0027548728  -1.2850263e-05
     15000   0.0014334669  -0.00012867575  0.00095517353  0.0029765594   2.4228374e-05
     16000   0.0015317909  -0.00012863608  0.0010308584   0.0031997604  -1.5779428e-05
     17000   0.001636374   -0.00012853959  0.0011036555   0.0034295185   4.1978174e-05
     18000   0.0017429947  -0.00012847128  0.0011735474   0.0036593995  -5.6041189e-05
     19000   0.0018135175  -0.00012881883  0.0012342017   0.0038254836   0.00024849706
     20000   0.0019106282  -0.00012886074  0.0012988575   0.0040357541   0.0002664654 
     21000   0.0020324166  -0.00018876123  0.0013838122   0.0042434792   4.4373441e-06
     22000   0.0021350658  -0.00019131432  0.0014345887   0.0044456665   7.5290976e-05
     23000   0.0022360625  -0.00019218101  0.0015196742   0.0046813705   0.00024866436
     24000   0.0023413753  -0.00025690406  0.0016010502   0.0048559825   0.00016913843
     25000   0.0024258268  -0.00027311964  0.0016398815   0.0050052673   4.8899606e-05
     26000   0.0025586761  -0.00031857765  0.0017177729   0.0052369617  -3.4019361e-05
     27000   0.0026304962  -0.00044905151  0.001813461    0.0053098993  -2.0717509e-05
     28000   0.0027861631  -0.00051220686  0.0018692017   0.0055359698   0.00039549248
     29000   0.002854881   -0.00051183587  0.0019552261   0.0057254355   0.00037938308
     30000   0.002953455   -0.0005139055   0.0019640511   0.0058800422   0.00012392093
     31000   0.0030534131  -0.00056808367  0.0020619936   0.0060737341   0.00016323927
     32000   0.0031608169  -0.00064093185  0.0021623745   0.0062623621   0.00033669969
     33000   0.0032889758  -0.00084032612  0.0022665907   0.00635941     0.00030112069
     34000   0.0034285097  -0.001097114    0.0023205594   0.0063658781   5.495306e-05 
     35000   0.0035345618  -0.0013364108   0.0023930713   0.0063581611   2.5547228e-05
     36000   0.0035937094  -0.0014550567   0.0024491975   0.0063843571   0.00030959886
     37000   0.003738409   -0.0016547393   0.0025373252   0.0064898376   0.00034958878
     38000   0.0037998839  -0.0017325791   0.0025739536   0.0065408326   0.00032209123
     39000   0.0039308187  -0.0019649149   0.002639343    0.0065702758   0.00027784157
     40000   0.0040718569  -0.0021976501   0.0027323147   0.0066420559   0.00037071931
     41000   0.0040856893  -0.0023004178   0.0027885906   0.0066163114   0.0001745863 
     42000   0.004225174   -0.0025312796   0.0028096472   0.0066157198   0.00017387817
     43000   0.0043040491  -0.0027335185   0.0029523111   0.0066744497   0.00017778682
     44000   0.0044373972  -0.0031749466   0.0030570167   0.0065377366   0.00020334885
     45000   0.0045248733  -0.0034851821   0.0031414216   0.0064431115  -3.2322075e-05
     46000   0.0046233566  -0.0036972397   0.0031581932   0.0063955411   0.00033100872
     47000   0.0046691685  -0.0038939178   0.0032461229   0.0063555059   0.00065364315
     48000   0.0047880374  -0.0040661611   0.0032681644   0.006383596    0.0002966523 
     49000   0.0049821525  -0.0046091308   0.0034323349   0.0062959508   4.7534718e-05
     50000   0.0050986266  -0.0050273156   0.0034603136   0.0060804444   0.00039096561
     51000   0.0051312973  -0.0052887671   0.003504897    0.0059125793   0.00020154674
     52000   0.0051970455  -0.0057430233   0.00359711     0.0056491521   0.00015063482
     53000   0.0053361414  -0.0059991576   0.003615106    0.0056196441   0.00020790068
     54000   0.005385673   -0.0061576243   0.0036521778   0.0055725417   0.00016454709
     55000   0.0055189015  -0.0064542406   0.0037726783   0.0055962558   0.00030620344
     56000   0.005535753   -0.0065337591   0.0037856699   0.0055550046   0.00035775936
     57000   0.0056741773  -0.0066545009   0.0038939133   0.0057501291   0.00038727274
     58000   0.005814993   -0.0070574322   0.0039975723   0.0056620668   0.00019977333
     59000   0.005958372   -0.0075289339   0.0040895825   0.0054976299   0.00033105668
     60000   0.0060187986  -0.0077426839   0.0040700306   0.0053549622   0.00065124704
     61000   0.006194752   -0.0080376078   0.0041723692   0.0054262898   0.00031276266
     62000   0.0062605967  -0.0083829147   0.0041902304   0.0051976048   0.00031448783
     63000   0.0063642757  -0.0087999162   0.004266932    0.0050128135   0.00033955353
     64000   0.0064967818  -0.0094633856   0.0043873842   0.0046685425   0.00042095138
     65000   0.006602726   -0.0098862952   0.0044810247   0.0044981795   0.00046370537
     66000   0.0066693437  -0.010226339    0.004595802    0.0043728328   0.00052599514
     67000   0.0067926592  -0.010557942    0.0045010947   0.0041314845   0.00092623067
     68000   0.0068336992  -0.010777147    0.0046809422   0.0041536825   0.00042906388
     69000   0.0069708727  -0.011229462    0.0048011768   0.0040273496   0.00023126266
     70000   0.0070128444  -0.011850583    0.0049893901   0.0036573947   0.00048710068
     71000   0.0071876596  -0.012317023    0.004831533    0.0032953035   0.00066003352
     72000   0.0072289289  -0.012711521    0.0049508285   0.0030820008   0.00024453956
     73000   0.007246307   -0.012934182    0.0049246117   0.0028591894   0.00037300899
     74000   0.0073959686  -0.013101826    0.0050256495   0.0030170601   0.00034403152
     75000   0.007509107   -0.013451917    0.0052258854   0.0030369024   0.0006029915 
     76000   0.0076550023  -0.01368283     0.0052271284   0.0030260609   0.00036230714
     77000   0.007667035   -0.013931658    0.0053562573   0.0029244098   0.00042999114
     78000   0.007794163   -0.014104253    0.0053495791   0.0029358162   0.00030280353
     79000   0.0079835122  -0.01452862     0.0054019785   0.0028478545   0.00060673614
     80000   0.0078827806  -0.014836521    0.0055801525   0.0025670393   0.00011071119
     81000   0.0080475044  -0.015071965    0.0055017323   0.0025002453   0.00041506435
     82000   0.0081943159  -0.015354976    0.0056136119   0.0025493166   0.00048952463
     83000   0.008403044   -0.015759597    0.0057252986   0.0025694548   0.00080595204
     84000   0.0084661742  -0.016094287    0.0057358829   0.0023400375   0.00056412415
     85000   0.008715482   -0.016809489    0.0059120668   0.002174957    0.00061117184
     86000   0.0087461245  -0.017341294    0.0059686912   0.0017457378   0.00066149393
     87000   0.0088704356  -0.018051532    0.0061076036   0.0013608666   0.00036345318
     88000   0.0088861919  -0.018312859    0.0060675112   0.0010830803   0.00076413206
     89000   0.0088411387  -0.018544039    0.0062043716   0.0009211847   0.00068409988
     90000   0.0090844008  -0.018950673    0.0061904038   0.00086545323  0.00072000068
     91000   0.0090990311  -0.019361675    0.006199248    0.00048523871  0.00027853173
     92000   0.0092682069  -0.019572217    0.006203514    0.0005327101   0.00055973018
     93000   0.0092919808  -0.019748736    0.0063521098   0.00054044561  0.00041772332
     94000   0.0095625255  -0.020144886    0.0064443435   0.00064232046  0.00068070421
     95000   0.0095759974  -0.020939636    0.0066328152   5.6248269e-05  0.00090254913
     96000   0.0098265452  -0.021455278    0.0065961867  -0.00012022467  0.00029314073
     97000   0.0097357221  -0.021864046    0.0068244655  -0.00043693986  0.00042797027
     98000   0.0098665734  -0.022424496    0.0069319361  -0.00069365441  0.00055506538
     99000   0.010114931   -0.023161031    0.0069099856  -0.001079627    0.0005633012 
    100000   0.010197487   -0.023673493    0.0070711159  -0.0013071328   0.00046228166
    101000   0.01020899    -0.024007674    0.0070616064  -0.0016335707   0.00052654753
    102000   0.0102941     -0.024329375    0.0071117112  -0.0017775108   0.00053446155
    103000   0.010286592   -0.02479251     0.0071772646  -0.0021863532   0.00053033315
    104000   0.010509163   -0.025285838    0.0070957259  -0.0024273845   0.00029858929
    105000   0.010492148   -0.02567972     0.0071371814  -0.0028053321   0.0011128996 
    106000   0.0105327     -0.026109774    0.0073903098  -0.0029214336   0.00063764082
    107000   0.010784784   -0.026561321    0.0074270331  -0.0029581551   0.00071609629
    108000   0.010716113   -0.02693067     0.0074973402  -0.0033601973   0.00061639744
    109000   0.010793823   -0.027117307    0.0072979253  -0.0036296918   0.00048303947
    110000   0.010886366   -0.027361109    0.007604777   -0.0034278369   0.00035907848
    111000   0.011152601   -0.027903337    0.0076606181  -0.0035148957   0.00042837067
    112000   0.011169118   -0.028526334    0.0077685439  -0.0040051939   0.0005325656 
    113000   0.011353382   -0.02874941     0.0077823649  -0.0039380704   0.0006568411 
    114000   0.011462142   -0.029325541    0.0078540924  -0.0042793444   0.00059078111
    115000   0.011584655   -0.029835431    0.008020413   -0.0044391567   0.00024539701
    116000   0.011690822   -0.029993342    0.0079209342  -0.0045373065   0.00059969006
    117000   0.011913039   -0.030616298    0.0081097345  -0.0046381568   0.0012573857 
    118000   0.011917689   -0.031184097    0.0081442177  -0.0051644993   0.00061649069
    119000   0.011975535   -0.0315198      0.0080983294  -0.0054593263   0.00083472072
    120000   0.01209569    -0.031972124    0.008360962   -0.0054687972   0.00075336461
    121000   0.012095652   -0.032340079    0.0082934112  -0.0059043606   0.00012884631
    122000   0.012176775   -0.032630976    0.0083276695  -0.0060393225   0.0010879716 
    123000   0.012340901   -0.033026576    0.0084049553  -0.0061114623   0.0010066794 
    124000   0.012322211   -0.033210635    0.0085482333  -0.0061802776   0.00043479587
    125000   0.012730494   -0.033685663    0.0087556525  -0.0058355023   0.00034837433
    126000   0.012572405   -0.034240169    0.0088084867  -0.0065742914   0.00092026333
    127000   0.012843317   -0.034817254    0.008788443   -0.0067650791   0.00077364895
    128000   0.012935629   -0.035374653    0.0091186604  -0.0068538021   0.00045793057
    129000   0.012859392   -0.035864362    0.00901714    -0.0075593778   0.00081515479
    130000   0.01296185    -0.036088924    0.0089621325  -0.0076852704   0.00065757057
    131000   0.013210257   -0.036723564    0.0091923945  -0.0077170625   0.00097530991
    132000   0.01325672    -0.036926172    0.0090856156  -0.007956759    0.00022718218
    133000   0.013401905   -0.037390491    0.0091655097  -0.0081234202   0.0010875734 
    134000   0.013456528   -0.037957393    0.0092942797  -0.0084796239   0.001117068  
    135000   0.013689958   -0.038735234    0.0093566624  -0.00884496     0.0011544304 
    136000   0.013532643   -0.039069534    0.0092677378  -0.0095041412   0.00040209062
    137000   0.013813111   -0.039569192    0.0094136556  -0.0094372061   0.00035104513
    138000   0.013745596   -0.039935373    0.0095714237  -0.0097468845   0.00088917568
    139000   0.014058078   -0.04028696     0.0096132147  -0.0095879896   0.00049177542
    140000   0.014057908   -0.040636282    0.0096352983  -0.009915483    0.00064755854
    141000   0.014254661   -0.041113176    0.0096349381  -0.010097626    0.0009380069 
    142000   0.014179343   -0.041731302    0.0098875928  -0.010576068    0.0010892591 
    143000   0.014324623   -0.042138989    0.0098666789  -0.010786761    0.00036211685
    144000   0.014329785   -0.042541547    0.0099384723  -0.011109785    0.00050174461
    145000   0.014619235   -0.043341418    0.010022462   -0.011391518    0.00099571507
    146000   0.014618866   -0.043849167    0.010269668   -0.011652615    0.00097710751
    147000   0.014740676   -0.04430971     0.010272252   -0.011927871    0.00082904442
    148000   0.014748051   -0.044612881    0.010164938   -0.012327295    0.00070614907
    149000   0.014836829   -0.045027992    0.010252552   -0.012521632    0.00063546655
    150000   0.014941053   -0.045366373    0.010386512   -0.012569727    0.00064088187
    151000   0.015193766   -0.045749943    0.010512041   -0.012448723    0.00020298013
    152000   0.015455767   -0.046454767    0.010568576   -0.012704036    0.0011069069 
    153000   0.015512845   -0.046833274    0.010641065   -0.012924443    0.00085598212
    154000   0.015514928   -0.047145655    0.010592062   -0.013282703    0.00075543245
    155000   0.015790175   -0.048176576    0.01073919    -0.013753652    0.00075261721
    156000   0.015833586   -0.049055405    0.010871275   -0.014435284    0.00088390415
    157000   0.015695895   -0.049264808    0.010915665   -0.014806818    0.00083683846
    158000   0.015896851   -0.049488688    0.010706433   -0.014938517    0.00076611196
    159000   0.016140809   -0.050180454    0.010873042   -0.015097759    0.0010777696 
    160000   0.015931759   -0.050894753    0.01119424    -0.015804416    0.0011152614 
    161000   0.016100494   -0.051458056    0.011042944   -0.016265928    0.00044635284
    162000   0.016124237   -0.052025872    0.011321473   -0.016519604    0.00070038018
    163000   0.016559914   -0.052479798    0.011147304   -0.016494226    0.0013093803 
    164000   0.016567373   -0.05295287     0.01131061    -0.016792803    0.0008514335 
    165000   0.016541381   -0.05323059     0.011201227   -0.017218892    0.00082471948
    166000   0.016354753   -0.053646843    0.011401392   -0.017714904    0.00078811614
    167000   0.016638768   -0.053934512    0.011519139   -0.017458831    0.0013575663 
    168000   0.016726247   -0.05450106     0.011531792   -0.017881515    0.0011181819 
    169000   0.01690966    -0.054881483    0.011664879   -0.01785375     0.00067280765
    170000   0.017250867   -0.055667859    0.011882721   -0.017910508    0.00076691725
    171000   0.017220851   -0.056039655    0.011897515   -0.01831253     0.0014765502 
    172000   0.017278735   -0.056542424    0.011890863   -0.01873513     0.00083594206
    173000   0.017396475   -0.056970572    0.01197942    -0.018898124    0.00073753378
    174000   0.017570567   -0.057332879    0.011809108   -0.01916962     0.0012521415 
    175000   0.017428469   -0.057592939    0.012012304   -0.019439618    0.00044335411
    176000   0.017651424   -0.057844927    0.011955103   -0.019414397    0.001188907  
    177000   0.017699067   -0.058501319    0.011941599   -0.020012833    0.0015385651 
    178000   0.017681177   -0.05892489     0.012278413   -0.020126423    0.00060349537
    179000   0.017886202   -0.059466643    0.012442526   -0.020196545    0.00050529295
    180000   0.01838571    -0.059905744    0.012336947   -0.01999201     0.0013739875 
    181000   0.018138849   -0.060568045    0.012698064   -0.020663463    0.00046809348
    182000   0.018136933   -0.060780296    0.012384746   -0.021191906    0.0012800388 
    183000   0.018383921   -0.061119184    0.012371324   -0.021173758    0.0014805207 
    184000   0.018549309   -0.061750168    0.012770262   -0.021157737    0.0009881729 
    185000   0.018793949   -0.062329413    0.012868447   -0.021271862    0.0015042818 
    186000   0.018682667   -0.062979738    0.012851493   -0.022106053    0.00057166859
    187000   0.018896854   -0.063360395    0.012841957   -0.022174985    0.0016975119 
    188000   0.018821383   -0.063903751    0.013171058   -0.02250244     0.0012652654 
    189000   0.019387967   -0.064577525    0.013084971   -0.022412479    0.00022893923
    190000   0.019165046   -0.06516947     0.013143687   -0.023280068    0.00080442812
    191000   0.019114545   -0.065718291    0.013205262   -0.023843061    0.0014494763 
    192000   0.019425224   -0.066289079    0.013339658   -0.023813464    0.00095535794
    193000   0.019215491   -0.066495444    0.013298112   -0.024375956    0.0010578724 
    194000   0.019653549   -0.067140563    0.013208667   -0.024453475    0.0017935233 
    195000   0.019693303   -0.067922235    0.01343292    -0.024951266    0.00093027896
    196000   0.019620408   -0.068549605    0.013533868   -0.025587025    0.0014569765 
    197000   0.019590046   -0.068982499    0.013507434   -0.026091892    0.00044504818
    198000   0.019991864   -0.069652175    0.013545565   -0.026120749    0.0011419047 
    199000   0.020326191   -0.070008104    0.013898562   -0.025622223    0.0012255936 
    200000   0.020313415   -0.070429822    0.013699822   -0.026261844    0.0011419756 
    201000   0.020071724   -0.07104471     0.013989994   -0.026949072    0.00065264622
    202000   0.020267828   -0.0715584      0.013944945   -0.027213674    0.0013094086 
    203000   0.020459751   -0.072062596    0.014051412   -0.027323538    0.00025773503
    204000   0.020448674   -0.072573863    0.014117617   -0.027785214    0.00078662289
    205000   0.020390849   -0.072878445    0.014235132   -0.028059014    0.00064537396
    206000   0.020452957   -0.07325705     0.014393418   -0.028186177    0.00051348145
    207000   0.020743707   -0.073560078    0.014512201   -0.027934324    0.0013759078 
    208000   0.020752556   -0.074074099    0.014520081   -0.028427192    0.00029672696
    209000   0.020796266   -0.074443983    0.014627258   -0.028624339    0.0016064145 
    210000   0.021175639   -0.075111815    0.014510395   -0.02884001     0.00058090242
    211000   0.021181794   -0.075453918    0.01450447    -0.029178806    0.0013690857 
    212000   0.021284943   -0.075855289    0.014699935   -0.029230001    0.00038165858
    213000   0.021771283   -0.076586843    0.015068334   -0.02886369     0.0011653777 
    214000   0.021570307   -0.077124386    0.015009744   -0.029761269    0.00092836082
    215000   0.021707939   -0.077449513    0.014872738   -0.030016967    0.0012953347 
    216000   0.021820506   -0.077679464    0.015057601   -0.029893214    0.00099819761
    217000   0.021827143   -0.078083971    0.015240891   -0.030104478    0.0010556341 
    218000   0.021742819   -0.078593295    0.014999474   -0.030981696    0.00094781813
    219000   0.022150731   -0.079499101    0.014773993   -0.031501156    0.00072147942
    220000   0.022038948   -0.079941912    0.015159885   -0.031725738    0.00099618659
    221000   0.021947106   -0.080548662    0.015513031   -0.032117097    0.00015644042
    222000   0.022265609   -0.080983335    0.015248591   -0.032338486    0.00072022259
    223000   0.022248313   -0.081319686    0.01525569    -0.032693679    0.0018083871 
    224000   0.022413026   -0.081897934    0.01527837    -0.033002193    0.0010798034 
    225000   0.022620837   -0.082406297    0.01587789    -0.032599339    0.0011384343 
    226000   0.022895046   -0.08268856     0.015451597   -0.032896609    0.0012136823 
    227000   0.022671206   -0.083007214    0.015943205   -0.033059395    0.00056790798
    228000   0.022874519   -0.083594379    0.015645166   -0.033639648    0.0004107685 
    229000   0.023121302   -0.084202632    0.015783023   -0.033739894    0.0011092587 
    230000   0.023104822   -0.084628945    0.016033417   -0.03394053     0.0016747872 
    231000   0.022899436   -0.084973738    0.015909943   -0.034716857    0.00096682656
    232000   0.023355237   -0.085415534    0.016283241   -0.034101698    0.00062203504
    233000   0.023536609   -0.086407424    0.016280529   -0.03482426     0.0012548436 
    234000   0.023411119   -0.087010308    0.016275149   -0.035620746    0.00083839   
    235000   0.023649893   -0.087636365    0.015969743   -0.036194071    0.0013270705 
    236000   0.023622707   -0.088182968    0.016103248   -0.036647945    0.00099781736
    237000   0.023680346   -0.08838101     0.016628598   -0.036234183    0.0018764878 
    238000   0.024142307   -0.088895313    0.01615155    -0.036532639    0.0011439572 
    239000   0.02390366    -0.089291054    0.016699205   -0.036738673    0.0017003091 
    240000   0.02420421    -0.089771742    0.016679531   -0.036788239    0.0015881517 
    241000   0.02414256    -0.090313677    0.016889475   -0.037212699    0.0012632074 
    242000   0.024393464   -0.090685317    0.017007082   -0.0370904      0.0014252811 
    243000   0.024468595   -0.091195626    0.016713159   -0.037781943    0.00092491775
    244000   0.024421532   -0.091867006    0.016511842   -0.038725229    0.0015122714 
    245000   0.02431005    -0.09208999     0.016634835   -0.038992433    0.0015436147 
    246000   0.024190464   -0.092383831    0.017052839   -0.039047637    0.00092673894
    247000   0.024648121   -0.092726354    0.016960768   -0.03879579     0.0010528066 
    248000   0.024701908   -0.093287682    0.017150899   -0.039086312    0.00080731698
    249000   0.025027678   -0.093463207    0.017094871   -0.038829241    0.0010071952 
    250000   0.025051575   -0.094090598    0.017242817   -0.039272842    0.00081138792
    251000   0.025023423   -0.094424562    0.017097608   -0.039794242    0.00070417635
    252000   0.025128609   -0.094550863    0.017372818   -0.039487563    0.00094108227
    253000   0.025475342   -0.094966414    0.017411728   -0.039344139    0.0013181628 
    254000   0.025111144   -0.095366512    0.017469934   -0.040232292    0.00010034685
    255000   0.025239106   -0.095764592    0.017604696   -0.040303679    0.0015036027 
    256000   0.025556206   -0.096452252    0.017624938   -0.040495478    0.0018873358 
    257000   0.025733982   -0.096720525    0.017731395   -0.040390646    0.0013899301 
    258000   0.026021916   -0.097150526    0.018020981   -0.040099189    0.00069481758
    259000   0.025855412   -0.097264849    0.017675996   -0.040808238    0.001272134  
    260000   0.025933626   -0.097659121    0.017693695   -0.041067496    0.00096105722
    261000   0.026002412   -0.097828622    0.018023563   -0.040803956    0.0012392024 
    262000   0.026159407   -0.098377962    0.017994207   -0.041147176    0.0011521025 
    263000   0.026481985   -0.098686316    0.018217796   -0.040748105    0.0014167928 
    264000   0.026191888   -0.099169437    0.01848372    -0.04140042     0.0010796994 
    265000   0.026741136   -0.099666501    0.018430939   -0.041126446    0.0015202387 
    266000   0.026971118   -0.10013831     0.018531792   -0.041152449    0.0012163488 
    267000   0.027053905   -0.10054288     0.018546156   -0.04141848     0.0016366724 
    268000   0.027054234   -0.10106057     0.01850374    -0.041978097    0.00053652913
    269000   0.027025426   -0.10147466     0.018306666   -0.042632471    0.00099208336
    270000   0.027095034   -0.10190491     0.018835459   -0.042429521    0.00048450674
    271000   0.027361993   -0.10263405     0.018882685   -0.042711027    0.0016232269 
    272000   0.027264538   -0.10324238     0.01920673    -0.043141482    0.0011806772 
    273000   0.02739888    -0.103629       0.018731052   -0.043802281    0.0012287169 
    274000   0.027535358   -0.1044819      0.019213844   -0.043967684    0.0012561878 
    275000   0.027613849   -0.10495216     0.019016602   -0.044517461    0.0013441516 
    276000   0.027370141   -0.10523433     0.019078983   -0.045102781    0.0015542643 
    277000   0.027731941   -0.10573172     0.019101009   -0.045035484    0.00059166236
    278000   0.028198772   -0.10646349     0.018712607   -0.045455454    0.0025881009 
    279000   0.028159127   -0.10704496     0.019065373   -0.045743618    0.0016407725 
    280000   0.028137403   -0.10761715     0.019278181   -0.04613559     0.0012314935 
    281000   0.028282774   -0.10800241     0.019410164   -0.046170817    0.00087085866
    282000   0.028435061   -0.10817856     0.019677982   -0.045850735    0.00095631497
    283000   0.028463152   -0.10827874     0.019879584   -0.045707185    0.0017157411 
    284000   0.028481225   -0.10884337     0.019675024   -0.046449271    0.00091496868
    285000   0.028740245   -0.10935867     0.020037469   -0.046213611    0.0014137    
    286000   0.028896898   -0.1099491      0.02006037    -0.046546178    0.0013999701 
    287000   0.028604736   -0.11033379     0.019746483   -0.047682973    0.00099522775
    288000   0.028682022   -0.11075563     0.019680571   -0.048054798    0.0011625567 
    289000   0.029228769   -0.11125337     0.020264301   -0.047148747    0.0011704922 
    290000   0.029249087   -0.11185065     0.020271148   -0.047708703    0.00069901764
    291000   0.029249321   -0.11223995     0.020530665   -0.047838138    0.00078425763
    292000   0.0293415     -0.11290981     0.02027672    -0.048623682    0.0006908099 
    293000   0.029552272   -0.1129992      0.020270827   -0.048402829    0.0027535472 
    294000   0.02952463    -0.11335848     0.02064542    -0.048428971    0.0016936173 
    295000   0.029514061   -0.11358004     0.020533697   -0.048778112    0.00066861299
    296000   0.029546545   -0.11405753     0.020502028   -0.04923854     0.0013888987 
    297000   0.029620092   -0.11436603     0.020622974   -0.049315787    0.00095459719
    298000   0.029924535   -0.11498698     0.020895023   -0.049208048    0.0010352167 
    299000   0.02983995    -0.11511411     0.020337073   -0.050019995    0.0011444697 
    300000   0.030195904   -0.11570996     0.020781415   -0.049637612    0.0012895681 
    301000   0.030464847   -0.11603604     0.020865177   -0.049476541    0.0012057992 
    302000   0.030341708   -0.11644061     0.021084339   -0.049846642    0.0010708056 
    303000   0.030483451   -0.11676704     0.02058918    -0.050455633    0.0019215243 
    304000   0.030625958   -0.11740381     0.021375939   -0.050091899    0.0011120048 
    305000   0.03085325    -0.11810689     0.021397817   -0.050432188    0.00088473568
    306000   0.030657668   -0.11860089     0.021426095   -0.05119126     0.0010285699 
    307000   0.031067331   -0.11893966     0.021383049   -0.050958617    0.00092106007
    308000   0.031017007   -0.11913955     0.021568113   -0.05104893     0.0011500507 
    309000   0.031143378   -0.11979492     0.021257199   -0.051825671    0.00099739456
    310000   0.03126145    -0.12043127     0.021493247   -0.052048874    0.00097109302
    311000   0.030830788   -0.12080465     0.021697078   -0.052864378    0.0011792411 
    312000   0.031188784   -0.12126193     0.022148478   -0.052333297    0.00051901193
    313000   0.031016203   -0.12177029     0.021700643   -0.053548347    0.0007561379 
    314000   0.031493133   -0.12208009     0.021725318   -0.053118125    0.0017662995 
    315000   0.031448243   -0.12242161     0.021866598   -0.053385694    0.00082780012
    316000   0.031715761   -0.12293576     0.02193099    -0.053434195    0.0016153494 
    317000   0.031858219   -0.12320498     0.022145649   -0.053275085    0.00069079477
    318000   0.03129341    -0.12333776     0.022131348   -0.054269325    0.0018734983 
    319000   0.031411757   -0.12376653     0.022315888   -0.054336045    0.0010220637 
    320000   0.032340408   -0.12403989     0.02187276    -0.053659648    0.0013399685 
    321000   0.031762045   -0.12442246     0.022223607   -0.054558857    0.001373818  
    322000   0.03241446    -0.12498106     0.02237644    -0.053986063    0.00043094805
    323000   0.032380391   -0.1258918      0.022642978   -0.054681371    0.00082493344
    324000   0.032227264   -0.12601411     0.022607403   -0.055068934    0.0018960454 
    325000   0.032579863   -0.1260477      0.022295658   -0.054885401    0.0010285719 
    326000   0.032856097   -0.12638627     0.022541303   -0.054564       0.0015659086 
    327000   0.032967522   -0.12670953     0.022260079   -0.055001355    0.0011759738 
    328000   0.03254125    -0.12688915     0.022246991   -0.055833432    0.0018182346 
    329000   0.033120127   -0.12749817     0.022687064   -0.055134118    0.0019200775 
    330000   0.033019177   -0.12767218     0.02299774    -0.055148867    0.0008512728 
    331000   0.033234566   -0.12797936     0.022993592   -0.055137135    0.0017372616 
    332000   0.033585497   -0.12854739     0.023020432   -0.055151967    0.00082026032
    333000   0.033167819   -0.12864948     0.023341706   -0.055559255    0.0015417107 
    334000   0.033617797   -0.1290179      0.022957411   -0.055637044    0.0018470997 
    335000   0.033441669   -0.12924488     0.0234325     -0.055653109    0.00038635321
    336000   0.034005189   -0.12956618     0.023718514   -0.054843171    0.0017238686 
    337000   0.033943013   -0.13013226     0.023597814   -0.055623216    0.0005392482 
    338000   0.033740558   -0.13030554     0.023261933   -0.056436037    0.0011667118 
    339000   0.033781604   -0.13053172     0.023565558   -0.056297028    0.0015938568 
    340000   0.034301229   -0.13076069     0.023699112   -0.055613052    0.0011449359 
    341000   0.034088047   -0.13114115     0.023719858   -0.056292519    0.00074311988
    342000   0.033830163   -0.13125644     0.023603236   -0.05691123     0.001572055  
    343000   0.034276775   -0.13160515     0.024104572   -0.056088733    0.0014719441 
    344000   0.034702153   -0.13208124     0.023859099   -0.056172268   -8.8455018e-05
    345000   0.034331021   -0.13199219     0.023720439   -0.056778543    0.0025647519 
    346000   0.034485332   -0.13257548     0.02417091    -0.056679912    0.00075096642
    347000   0.03474876    -0.13311275     0.024106687   -0.056886289    0.00031506725
    348000   0.035344832   -0.13356559     0.024001798   -0.056549964    0.0022689412 
    349000   0.035588379   -0.13373476     0.02418566    -0.05616998     0.0014212879 
    350000   0.035047578   -0.13393851     0.024181444   -0.057189088    0.0010569253 
    351000   0.034889701   -0.13440165     0.024203722   -0.057866753    0.001496286  
    352000   0.035132772   -0.13465827     0.024349995   -0.057612513    0.00057024013
    353000   0.035556459   -0.13503206     0.024309017   -0.057391794    0.0010516627 
    354000   0.035250041   -0.1352315      0.024482407   -0.057877444    0.0012212271 
    355000   0.035277156   -0.13554169     0.02493163    -0.057697736    0.0021204357 
    356000   0.036063686   -0.13582308     0.024345298   -0.057385746    0.0015243825 
    357000   0.03536259    -0.13628308     0.024612872   -0.058629749    0.0011014318 
    358000   0.035730043   -0.13671077     0.025119839   -0.057999326    0.00096239873
    359000   0.036377456   -0.13711965     0.024301997   -0.058254992    0.0020925119 
    360000   0.036028587   -0.1373962      0.025112639   -0.058244168    0.001478065  
    361000   0.036179264   -0.13782339     0.025142269   -0.05841573     7.6740182e-05
    362000   0.036024163   -0.13796669     0.025006683   -0.058927244    0.0011038129 
    363000   0.036186064   -0.13830951     0.025354377   -0.058679534    0.001175981  
    364000   0.036036603   -0.13859128     0.025366725   -0.059173142    0.0017812131 
    365000   0.036367177   -0.13916889     0.02531457    -0.059307069    0.0020606778 
    366000   0.036819239   -0.13923518     0.025137      -0.058872882    0.0013011391 
    367000   0.036980106   -0.13990748     0.025133894   -0.059307006    0.0010256444 
    368000   0.036738806   -0.14014957     0.02538246    -0.059662455    0.00034839536
    369000   0.037101077   -0.14066438     0.025216122   -0.059800233    0.0027640859 
    370000   0.036652657   -0.14123755     0.025346986   -0.060915128    0.001985638  
    371000   0.036924254   -0.14173614     0.025766496   -0.060586841    0.0012965342 
    372000   0.036924055   -0.14211129     0.026016946   -0.060711831    0.0012716909 
    373000   0.037234398   -0.14235923     0.025977356   -0.060533886    0.0013638767 
    374000   0.037536556   -0.14320487     0.026667166   -0.060236503    0.00058842056
    375000   0.037519267   -0.14344804     0.026263816   -0.060908955    0.0013136714 
    376000   0.037576356   -0.1437949      0.02654282    -0.060891178    0.0013004227 
    377000   0.037416888   -0.14379524     0.026426436   -0.061247093    0.0018100504 
    378000   0.038317728   -0.14431342     0.026204799   -0.060635737    0.002235468  
    379000   0.037722846   -0.14462978     0.026556493   -0.06149267     0.0011866668 
    380000   0.038232055   -0.14527644     0.025913186   -0.062018873    0.0026369582 
    381000   0.038063323   -0.1456779      0.026708756   -0.061877848    0.00070784284
    382000   0.038583985   -0.14608142     0.026441245   -0.06176793     0.00055359032
    383000   0.038386323   -0.14673584     0.026949551   -0.062210516    0.0014591588 
    384000   0.038645688   -0.14684828     0.026917395   -0.061966095    0.0011416659 
    385000   0.038901837   -0.14702179     0.026430554   -0.062242245    0.001629839  
    386000   0.038127371   -0.14737103     0.027053168   -0.063130497    0.0014498493 
    387000   0.03867625    -0.14774716     0.026751096   -0.062985427    0.0007663698 
    388000   0.038893903   -0.14821955     0.027017277   -0.062865186    0.00094983728
    389000   0.038752025   -0.14875128     0.026896061   -0.063730928    0.0015683756 
    390000   0.039122642   -0.14923132     0.026531564   -0.064019583    0.0012944378 
    391000   0.039428502   -0.1497181      0.027259823   -0.063319337    0.0010512273 
    392000   0.039662778   -0.15001893     0.027268735   -0.063259867    0.0013635608 
    393000   0.039316787   -0.1502315      0.0270641     -0.064196024    0.0017012199 
    394000   0.039356758   -0.15100826     0.027363841   -0.064613091    0.0014683684 
    395000   0.039141616   -0.15131604     0.027454192   -0.065153215    0.0018134513 
    396000   0.039227677   -0.15161822     0.027472284   -0.065308218    7.9921927e-05
    397000   0.039706703   -0.15183808     0.027881989   -0.064399874    0.00062502507
    398000   0.039761576   -0.152256       0.027867797   -0.064749689    0.0017059233 
    399000   0.039684775   -0.15246993     0.027834559   -0.065112053    0.0010339442 
    400000   0.03998411    -0.15286087     0.027631377   -0.065257195    0.0013045509 
    401000   0.040293571   -0.15297868     0.027811123   -0.064731099    0.0018628377 
    402000   0.040234237   -0.15342395     0.028054412   -0.065022076    0.00088510672
    403000   0.040992926   -0.15359368     0.02833128    -0.063776976    0.00087346144
    404000   0.040424993   -0.15393603     0.028102007   -0.065200445    0.0024423315 
    405000   0.039958898   -0.1543767      0.027993374   -0.066448845    0.0015084101 
    406000   0.040575278   -0.15463533     0.027937412   -0.065838927    0.0022280536 
    407000   0.04038436    -0.15461306     0.028318068   -0.065722359    0.0018694943 
    408000   0.040493727   -0.15502756     0.028460741   -0.065830142    0.0014737557 
    409000   0.040725169   -0.1552279      0.028264663   -0.065879422    0.0014385806 
    410000   0.040986265   -0.15580304     0.028552826   -0.065774784    0.0018462399 
    411000   0.041276112   -0.15642682     0.028858256   -0.065658395    0.00093358168
    412000   0.040950122   -0.15666883     0.028943382   -0.066304225    0.0022505144 
    413000   0.041277681   -0.1571173      0.028172786   -0.067031989    0.0023202892 
    414000   0.041090546   -0.15718562     0.029135918   -0.066417859    0.00072127281
    415000   0.041446066   -0.15767014     0.029014829   -0.06649022     0.0011871589 
    416000   0.041673263   -0.15781895     0.029144302   -0.066168791    0.0018741554 
    417000   0.042053709   -0.15853558     0.02873408    -0.066725004   -0.00018370011
    418000   0.041564623   -0.15861493     0.029310749   -0.066961272    0.0018145523 
    419000   0.04192925    -0.15915372     0.029125777   -0.06713813     0.00098589829
    420000   0.04185299    -0.15944771     0.029290081   -0.067382191    0.00090545987
    421000   0.042039473   -0.15984031     0.029619439   -0.06716573     0.0012228296 
    422000   0.042675533   -0.16002091     0.029639463   -0.066372278    0.00043211387
    423000   0.042426953   -0.1604158      0.029537799   -0.067241676    0.0022719378 
    424000   0.042749      -0.16055805     0.029892165   -0.066546524    0.00059986605
    425000   0.042525521   -0.1606217      0.029496087   -0.067341448    0.00077608739
    426000   0.042763769   -0.16078221     0.029691779   -0.066948913    0.0015680284 
    427000   0.042818289   -0.16122484     0.029559251   -0.067442296    0.00096874504
    428000   0.042998884   -0.16134184     0.029577884   -0.067269787    0.0017216729 
    429000   0.042727976   -0.16164828     0.029971564   -0.067588883    0.0020445656 
    430000   0.042577154   -0.16185228     0.030037239   -0.067953428    0.0011727316 
    431000   0.042542196   -0.16199737     0.029989466   -0.068198724    0.0014718909 
    432000   0.042691746   -0.16265599     0.030019929   -0.068602574    0.00061985479
    433000   0.04311851    -0.16346943     0.029765557   -0.069030277    0.0017203535 
    434000   0.043256136   -0.16358148     0.030048221   -0.068653239    0.00152228   
    435000   0.042757566   -0.16369659     0.030464506   -0.069099876    0.00073903285
    436000   0.043605587   -0.16396671     0.03019219    -0.068370358    0.0018845627 
    437000   0.043740972   -0.1644437      0.030441531   -0.068394943   -2.2411704e-05
    438000   0.043467456   -0.1644646      0.030475302   -0.068792324    0.0017824801 
    439000   0.043719018   -0.16491619     0.030427539   -0.068914355    0.0013186107 
    440000   0.043407078   -0.16513881     0.030543559   -0.069488834    0.0010816795 
    441000   0.04433356    -0.16580928     0.030434855   -0.068878375    0.0015735523 
    442000   0.044502719   -0.16591072     0.031047549   -0.0681134      0.0013002259 
    443000   0.044198212   -0.16636344     0.031122552   -0.068947847    0.00068711159
    444000   0.044144937   -0.16666181     0.031378161   -0.06907052     0.00045910476
    445000   0.044254762   -0.16686304     0.031256021   -0.069229161    0.0015167731 
    446000   0.044579861   -0.16716183     0.031121748   -0.069174605    0.00054691779
    447000   0.04542492    -0.1678981      0.031058007   -0.068707106    0.001691895  
    448000   0.045276954   -0.16805719     0.031283667   -0.068862474    0.00045399104
    449000   0.045136539   -0.16833963     0.031188038   -0.069451156    0.002780057  
    450000   0.044914775   -0.16848071     0.031372132   -0.069740766    0.0010612069 
    451000   0.044561244   -0.16900582     0.031589269   -0.070579       0.0010853202 
    452000   0.045399394   -0.16938653     0.031026839   -0.070264998    0.001091543  
    453000   0.045501018   -0.16966538     0.031373463   -0.070044793    0.0009707823 
    454000   0.045680467   -0.16981252     0.031936592   -0.06935965     0.0013523046 
    455000   0.045474101   -0.17021701     0.03151552    -0.070494739    0.0015255516 
    456000   0.045594407   -0.1704423      0.031859654   -0.07019545     0.0011071153 
    457000   0.045327575   -0.17088868     0.031999385   -0.070902319    0.0017325739 
    458000   0.045528532   -0.17074587     0.032115346   -0.070342128    0.0010066064 
    459000   0.045887075   -0.17093462     0.031832589   -0.070275858    0.0013517355 
    460000   0.046063609   -0.17132429     0.031489033   -0.0707443      0.0017678269 
    461000   0.046038066   -0.17161119     0.032156794   -0.070401749    0.0011326411 
    462000   0.046072479   -0.17175794     0.032528136   -0.070125541    0.00094365666
    463000   0.046814337   -0.17221175     0.032157374   -0.069837397    0.0012130238 
    464000   0.046283198   -0.17248092     0.032086253   -0.07097435     0.0025324628 
    465000   0.046303446   -0.17269134     0.032747343   -0.070493306    0.0018557643 
    466000   0.04687086    -0.17323735     0.031870564   -0.071065036    0.001400868  
    467000   0.046194135   -0.17320939     0.032980116   -0.070942537    0.0014964124 
    468000   0.046728175   -0.17370878     0.032741985   -0.070879055    0.0017699905 
    469000   0.046680658   -0.1737743      0.032499884   -0.071257946    0.0014452835 
    470000   0.047035209   -0.17387864     0.032803065   -0.070527317    0.0012789696 
    471000   0.047433985   -0.17427949     0.03308609    -0.070047018    0.0017112112 
    472000   0.047219547   -0.1748713      0.032923262   -0.071123287    0.00082223879
    473000   0.047084151   -0.1744128      0.033132757   -0.070658372    0.0024842431 
    474000   0.047219297   -0.17549749     0.032653264   -0.072019847    0.0010986475 
    475000   0.047533046   -0.17552723     0.033081869   -0.071150395    0.0022487212 
    476000   0.047656324   -0.17602862     0.033043205   -0.071505542   -4.1300676e-05
    477000   0.047519483   -0.17608295     0.033049616   -0.071758711   -0.00097536351
    478000   0.047709311   -0.1764548      0.033046366   -0.071849083    0.0025589957 
    479000   0.048691834   -0.17673382     0.032746682   -0.070954096    0.0023212969 
    480000   0.048460302   -0.17730684     0.033423202   -0.071197876    0.0021400739 
    481000   0.048019326   -0.17735719     0.033350473   -0.071982375    0.0016174103 
    482000   0.048101194   -0.17750693     0.033505723   -0.071854075    0.0020833762 
    483000   0.048129023   -0.17766446     0.034447599   -0.071027981    0.0011550894 
    484000   0.047831138   -0.17768814     0.033433088   -0.072512968    0.0010168408 
    485000   0.048868414   -0.17825101     0.03396116    -0.070991957    0.0015805557 
    486000   0.049303656   -0.17829303     0.033857441   -0.070484877    0.0013355117 
    487000   0.048813854   -0.17850449     0.034563463   -0.070724969    0.0015427531 
    488000   0.049124775   -0.17882398     0.034068882   -0.071072685    0.0016767409 
    489000   0.049217546   -0.17931957     0.034272788   -0.071225224    0.0023594262 
    490000   0.04890395    -0.17945675     0.034231142   -0.07187441     0.0018358507 
    491000   0.049454153   -0.18007095     0.034468486   -0.071426016    0.0014035795 
    492000   0.049068055   -0.18015523     0.034539197   -0.072018696    0.00044274388
    493000   0.049723711   -0.18069006     0.034316195   -0.07179311     0.0016949224 
    494000   0.049551942   -0.18075549     0.034698768   -0.071733606    0.0017607062 
    495000   0.049635649   -0.18124553     0.034531656   -0.0722652      0.0028437534 
    496000   0.0499237     -0.18098381     0.034929756   -0.071173335    0.001650452  
    497000   0.050249535   -0.18171322     0.035186479   -0.071157301    0.0013938244 
    498000   0.049747253   -0.18198754     0.035175682   -0.072195796    0.00093397012
    499000   0.049778661   -0.18201094     0.034767791   -0.072579979    0.00087723029
    500000   0.050190673   -0.18299297     0.035361206   -0.072350614    0.0010903578 
Loop time of 539.273 on 8 procs for 500000 steps with 15500 atoms

Performance: 80107.861 tau/day, 927.174 timesteps/s, 14.371 Matom-step/s
93.4% CPU use with 8 MPI tasks x 1 OpenMP threads

MPI task timing breakdown:
Section |  min time  |  avg time  |  max time  |%varavg| %total
---------------------------------------------------------------
Pair    | 108.77     | 115.07     | 121.9      |  47.5 | 21.34
Bond    | 47.557     | 49.764     | 52.501     |  20.7 |  9.23
Neigh   | 0.63144    | 0.63291    | 0.63424    |   0.1 |  0.12
Comm    | 34.035     | 43.388     | 50.457     |  90.2 |  8.05
Output  | 3.1438     | 3.2617     | 3.3732     |   4.2 |  0.60
Modify  | 319.73     | 320.11     | 320.83     |   1.7 | 59.36
Other   |            | 7.046      |            |       |  1.31

Nlocal:         1937.5 ave        2031 max        1840 min
Histogram: 1 1 1 0 1 0 1 1 0 2
Nghost:        1484.12 ave        1580 max        1370 min
Histogram: 1 0 2 0 0 0 2 1 0 2
Neighs:              0 ave           0 max           0 min
Histogram: 8 0 0 0 0 0 0 0 0 0
FullNghs:      11914.2 ave       12882 max       10486 min
Histogram: 1 1 0 1 0 0 1 0 3 1

Total # of neighbors = 95314
Ave neighs/atom = 6.1492903
Ave special neighs/atom = 2.1612903
Neighbor list builds = 400
Dangerous builds = 0

unfix ThermoLng

# Now we let the system to create the polymeric network
fix ThermoLng all langevin ${temp} ${temp} ${damp} ${seed3} tally yes zero yes # Brownian Dynamics: langevin + nve
fix ThermoLng all langevin 0.05 ${temp} ${damp} ${seed3} tally yes zero yes 
fix ThermoLng all langevin 0.05 0.05 ${damp} ${seed3} tally yes zero yes 
fix ThermoLng all langevin 0.05 0.05 1 ${seed3} tally yes zero yes 
fix ThermoLng all langevin 0.05 0.05 1 31 tally yes zero yes 
run ${steps}
run 9500000
WARNING: Using a manybody potential with bonds/angles/dihedrals and special_bond exclusions (src/pair.cpp:250)
Hybrid pair style last /omp style table/omp
Last active /omp style is angle_style harmonic/omp
Per MPI rank memory allocation (min/avg/max) = 23.37 | 23.37 | 23.38 Mbytes
   Step          Temp          E_pair         E_mol          TotEng         Press     
    500000   0.050190673   -0.18299297     0.035361206   -0.072350614    0.0010903578 
    501000   0.050385183   -0.18295473     0.035037143   -0.072344691    0.0022897051 
    502000   0.050097051   -0.18340682     0.035342357   -0.072923732    0.0010979253 
    503000   0.050162528   -0.18365558     0.035257315   -0.073159329    0.0019793515 
    504000   0.049696287   -0.18372867     0.03577947    -0.073409577    0.00039502503
    505000   0.050443791   -0.18404991     0.03542037    -0.072968737    0.00081966024
    506000   0.050243121   -0.18407454     0.035574236   -0.073140481    0.0019946539 
    507000   0.050462628   -0.1843812      0.035484657   -0.073207482    0.00085316166
    508000   0.050604748   -0.18481519     0.034220741   -0.07469223     0.00033179858
    509000   0.050150994   -0.18488736     0.035165753   -0.074499966    0.00082100947
    510000   0.049920063   -0.18532622     0.034918667   -0.075532291    0.00024633798
    511000   0.049496298   -0.18501324     0.034383951   -0.076389635    0.0013227025 
    512000   0.049844903   -0.18527834     0.034935117   -0.075580689    0.00018149227
    513000   0.049914683   -0.1856599      0.034378192   -0.076414509    0.00024154793
    514000   0.049613532   -0.18582301     0.034883967   -0.076523545    0.00070386814
    515000   0.050056581   -0.18605377     0.034767683   -0.076206063    0.0025189725 
    516000   0.050328151   -0.18647432     0.034920621   -0.07606634     0.0015392905 
    517000   0.050189525   -0.18633095     0.034982118   -0.076069398    0.0011689491 
    518000   0.049697454   -0.18727562     0.035031056   -0.077703189    0.0020836002 
    519000   0.050034408   -0.18769029     0.03482233    -0.077821187    0.0015275723 
    520000   0.050193638   -0.18778216     0.035089784   -0.077406782    0.0017548071 
    521000   0.049822399   -0.18795848     0.035208074   -0.078021627    0.0013066544 
    522000   0.050479146   -0.18807783     0.034713382   -0.077650612    0.0015689083 
    523000   0.050669759   -0.18830179     0.03470721    -0.07759485     0.0021828857 
    524000   0.050422646   -0.18878068     0.034561131   -0.078590462    0.002221419  
    525000   0.049973717   -0.18923982     0.034713358   -0.07957072     0.00089578081
    526000   0.049483539   -0.18928467     0.035118579   -0.079945569    0.00047365843
    527000   0.050278814   -0.19004803     0.035236962   -0.079397711    0.0025487528 
    528000   0.050271159   -0.19019792     0.035002927   -0.079793122    0.0010269079 
    529000   0.050331719   -0.18996253     0.035015734   -0.079454083    0.0014428609 
    530000   0.049953914   -0.19008631     0.035163144   -0.079997131    0.0012632885 
    531000   0.050262528   -0.1907229      0.035123932   -0.080210039    0.0011548888 
    532000   0.050418335   -0.19103476     0.034734715   -0.080677423    0.0001266779 
    533000   0.05034122    -0.19104948     0.035057971   -0.080484551    0.00048044598
    534000   0.050090301   -0.19101917     0.035163153   -0.080725413    0.001141178  
    535000   0.049993561   -0.19148214     0.035728734   -0.080767907    3.6011496e-05
    536000   0.049552936   -0.19140372     0.035026453   -0.082052661    0.00090501533
    537000   0.04960648    -0.19188457     0.035015069   -0.082464583    0.002218024  
    538000   0.050639961   -0.19210981     0.035862023   -0.080292745    0.0019357683 
    539000   0.050181674   -0.19224365     0.035521034   -0.081454964   -0.0001273835 
    540000   0.049665134   -0.19246098     0.034638265   -0.08332982     0.0015407179 
    541000   0.049734716   -0.19254123     0.035141286   -0.082802682    0.0022981226 
    542000   0.049809998   -0.19278256     0.034839997   -0.083232387    0.0015900747 
    543000   0.049484916   -0.19313325     0.035168471   -0.08374219     0.0019189547 
    544000   0.049840319   -0.19323061     0.034855217   -0.083619738    0.00021616429
    545000   0.049774294   -0.19347265     0.034743839   -0.084072186    0.0017702318 
    546000   0.050137097   -0.19394815     0.034435854   -0.084311505    0.00058175972
    547000   0.049675226   -0.19389865     0.034789753   -0.084600863    0.0010314375 
    548000   0.04971301    -0.19429724     0.035058701   -0.084673838    0.00021062158
    549000   0.049870711   -0.19420169     0.034508905   -0.084891542    0.0024277505 
    550000   0.049469977   -0.19473783     0.035193245   -0.085344408    0.00012611378
    551000   0.050252779   -0.1952701      0.034309392   -0.085586403    0.0018850357 
    552000   0.050242613   -0.19538517     0.035559028   -0.084467086    0.001628261  
    553000   0.049682169   -0.19561872     0.03484705    -0.086253224    0.0019345321 
    554000   0.049680246   -0.19559306     0.034986261   -0.086091241    0.0011444234 
    555000   0.050180903   -0.19592177     0.034604469   -0.086050805    0.0017589191 
    556000   0.050223686   -0.19695711     0.034761747   -0.08686469     0.0021251144 
    557000   0.050446091   -0.19660968     0.034911568   -0.086033853    0.0012181523 
    558000   0.050068169   -0.19709038     0.034839741   -0.087153232    0.0013819802 
    559000   0.050302978   -0.19722173     0.034917627   -0.086854506    0.00085739633
    560000   0.050452553   -0.19724045     0.035060053   -0.08650645     0.00082277472
    561000   0.05023632    -0.19773953     0.034621552   -0.087768357    0.00057692166
    562000   0.049843137   -0.19771928     0.035210383   -0.087749017    0.00073516911
    563000   0.050473283   -0.19808426     0.034385258   -0.087993966    0.00025581273
    564000   0.05017156    -0.19821089     0.03507323    -0.087885175    0.00090903662
    565000   0.050081826   -0.19791408     0.035347289   -0.087448898    0.0016259184 
    566000   0.04980893    -0.19850848     0.035629862   -0.08817004     0.00020234881
    567000   0.050291389   -0.19880202     0.034895134   -0.088474674    0.0024300188 
    568000   0.050216483   -0.19923373     0.035572072   -0.088341795    0.0011060231 
    569000   0.050434712   -0.19919266     0.035110487   -0.088434985    0.0012012308 
    570000   0.050167558   -0.19951705     0.0351633     -0.089107273    0.00079032797
    571000   0.050632241   -0.19972747     0.034584404   -0.089199608    0.0022316602 
    572000   0.049596079   -0.19992191     0.035366515   -0.090166077    0.00059027872
    573000   0.04938317    -0.20033278     0.034939382   -0.091323426    0.0027722268 
    574000   0.049918886   -0.20058904     0.034947079   -0.09076846     0.0016025357 
    575000   0.050171735   -0.20083532     0.034938166   -0.090644408    0.00071748969
    576000   0.050239239   -0.20112251     0.034711845   -0.09105667     0.00094625293
    577000   0.050459658   -0.20110202     0.034936166   -0.090481252    0.0021886165 
    578000   0.049749509   -0.20121686     0.03568316    -0.090914254   -0.0005838986 
    579000   0.050459089   -0.20156241     0.035138116   -0.090740546    0.0019546152 
    580000   0.04994956    -0.20196917     0.034994148   -0.092055518    0.0011690985 
    581000   0.049974248   -0.20188319     0.034958858   -0.0919678      0.0011877675 
    582000   0.050096811   -0.20237751     0.035233487   -0.092003659    0.0017611908 
    583000   0.049914896   -0.20265875     0.035576335   -0.092214905    0.00072340884
    584000   0.049548647   -0.20235774     0.035354208   -0.092685352    0.00066953489
    585000   0.05037241    -0.20272043     0.035280606   -0.091886079    0.0007674397 
    586000   0.050747673   -0.20307265     0.035014938   -0.091941114    0.0016211505 
    587000   0.050612977   -0.20306062     0.035365198   -0.091780857    0.001152421  
    588000   0.050751203   -0.20329191     0.034904179   -0.092265834    0.0011700111 
    589000   0.049677424   -0.20323118     0.035615662   -0.093104193    0.0010584548 
    590000   0.050178621   -0.20351372     0.035125247   -0.093125393    0.00040200381
    591000   0.049991153   -0.20337157     0.034833732   -0.093555948   -0.0006074035 
    592000   0.050068253   -0.20400233     0.035253701   -0.093651091    0.0010395953 
    593000   0.050397333   -0.20422401     0.034768774   -0.093864113    0.0013206942 
    594000   0.050431264   -0.20418205     0.035030532   -0.093509504    0.00051221983
    595000   0.050356286   -0.20406242     0.03524439    -0.093288472    0.00043755749
    596000   0.05054462    -0.20417647     0.034944642   -0.09341979     0.0021537901 
    597000   0.050056661   -0.20431886     0.035157989   -0.094080729    0.00031692919
    598000   0.050701931   -0.20462233     0.035978018   -0.092596318   -3.1742256e-06
    599000   0.050554441   -0.204857       0.034845072   -0.094185156    0.0013936621 
    600000   0.04970688    -0.20522395     0.034839626   -0.095828811    0.0012427996 
    601000   0.049816623   -0.20560798     0.035155567   -0.095732295    0.0015537089 
    602000   0.049737614   -0.20566972     0.03518883    -0.095879286    0.0013389858 
    603000   0.049784192   -0.20574732     0.034601158   -0.09647469     0.0013580235 
    604000   0.049721469   -0.20547106     0.034894176   -0.095999488    0.0020242472 
    605000   0.049595629   -0.20572527     0.035071428   -0.096265202    0.0022434221 
    606000   0.050632286   -0.20604343     0.034868314   -0.095231586    0.0002980755 
    607000   0.04941352    -0.2061814      0.035387059   -0.096678839    9.9040735e-05
    608000   0.050874013   -0.20654359     0.035111105   -0.095126389    0.00192052   
    609000   0.050493223   -0.2067071      0.035359102   -0.095613051    0.0027556666 
    610000   0.049747916   -0.20699724     0.035024175   -0.097356001    0.00078366066
    611000   0.050097072   -0.20699139     0.034828811   -0.097021818    0.00039911746
    612000   0.050836534   -0.20751142     0.035017919   -0.096243616    0.0024240602 
    613000   0.050055569   -0.20727375     0.035254335   -0.096940905    0.0016100826 
    614000   0.050389534   -0.20764867     0.035967204   -0.096102044   -4.6515207e-05
    615000   0.050787533   -0.20821415     0.035042172   -0.096995588    0.00074972987
    616000   0.050419225   -0.20870179     0.034837009   -0.098240822    0.0014198035 
    617000   0.049893803   -0.20852549     0.034916948   -0.098772662    0.0013375933 
    618000   0.049856511   -0.20894418     0.034899418   -0.099264816    0.0013517063 
    619000   0.049437988   -0.20893795     0.034573343   -0.10021241     0.0017929356 
    620000   0.04971337    -0.20935876     0.034811139   -0.099982375    0.00088222991
    621000   0.04974842    -0.2094223      0.034900488   -0.099903997    0.00049518286
    622000   0.050228963   -0.20950947     0.034915272   -0.099255618    0.0022333965 
    623000   0.050166692   -0.20981642     0.034863412   -0.099707827    0.0017607755 
    624000   0.049996212   -0.20970647     0.03492219    -0.099794797    0.00054100475
    625000   0.049863552   -0.20982619     0.035380827   -0.09965486     0.0011088771 
    626000   0.050040556   -0.21020131     0.03493744    -0.10020788     0.0025910343 
    627000   0.050360899   -0.21053488     0.035158792   -0.099839613    0.00079362219
    628000   0.050584491   -0.21050203     0.035195151   -0.099435041   -0.00036066116
    629000   0.049750145   -0.2106789      0.034773603   -0.10128489     0.0010315452 
    630000   0.050151568   -0.21108213     0.035607139   -0.1002525      0.0010459897 
    631000   0.050281734   -0.21147941     0.035082023   -0.10097965     0.0019223299 
    632000   0.050015482   -0.21131215     0.034695286   -0.10159848     0.00042975472
    633000   0.050826113   -0.21173945     0.035171863   -0.10033334     0.0010680688 
    634000   0.049708502   -0.212003       0.035267656   -0.1021774      0.0025950219 
    635000   0.049695892   -0.21229692     0.034846833   -0.10291106     0.0017383686 
    636000   0.050090597   -0.21236414     0.034975947   -0.10225714     0.0014800855 
    637000   0.049933809   -0.21271435     0.035508198   -0.10231027     0.0014061109 
    638000   0.05004136    -0.21264796     0.035712442   -0.10187832     0.0020605528 
    639000   0.049999989   -0.21320298     0.035341331   -0.1028665      0.00077077777
    640000   0.050514272   -0.21355272     0.035103424   -0.10268277     0.00083092224
    641000   0.050093528   -0.21357186     0.035511491   -0.10292493     0.001294173  
    642000   0.049595721   -0.21384049     0.035102345   -0.10434936     0.00066616023
    643000   0.049990865   -0.21386515     0.03554672    -0.10333697     0.0010284988 
    644000   0.050380609   -0.21423536     0.035162348   -0.10350697     0.0020668669 
    645000   0.050089545   -0.21410588     0.034978727   -0.10399768     0.00018177608
    646000   0.049658321   -0.21496808     0.035446102   -0.1050393      0.0004371219 
    647000   0.050076974   -0.21455869     0.034533799   -0.10491427     0.0015042946 
    648000   0.049723315   -0.21524052     0.034879563   -0.1057808      0.0016994361 
    649000   0.05021393    -0.21504692     0.034864846   -0.10486604     0.0015900876 
    650000   0.050169428   -0.2151936      0.035310939   -0.10463338     0.00087127253
    651000   0.050696281   -0.21577179     0.034712743   -0.10501953     0.00048009704
    652000   0.050483756   -0.21569594     0.035528164   -0.10444702     0.0013440669 
    653000   0.05061892    -0.21589623     0.035209925   -0.10476282     0.00037958951
    654000   0.049669246   -0.2160423      0.03507456    -0.10646868    -0.00078424619
    655000   0.049986754   -0.2162502      0.035432754   -0.10584215     0.00090840984
    656000   0.049972495   -0.21611061     0.03523978    -0.10591693     0.0016198181 
    657000   0.050217516   -0.21659859     0.035531321   -0.10574585     0.0012759264 
    658000   0.049738127   -0.21675817     0.035522438   -0.10663336     0.00099049374
    659000   0.049739951   -0.21674595     0.035504303   -0.10663654     0.0010307662 
    660000   0.050050866   -0.21717705     0.035764378   -0.10634122    -3.3304227e-05
    661000   0.050052831   -0.21694176     0.035066766   -0.10680059     0.0016016461 
    662000   0.050003506   -0.21733383     0.035520732   -0.10681268     0.00079507886
    663000   0.049817982   -0.21746227     0.034827407   -0.10791271     0.0008720061 
    664000   0.049695564   -0.21786606     0.034953745   -0.10837378     0.00032927563
    665000   0.049720504   -0.21735305     0.034288616   -0.10848849     0.0019894651 
    666000   0.049958446   -0.21762891     0.034825013   -0.10787106     0.00059735149
    667000   0.050147191   -0.21812167     0.035506211   -0.10739952     0.00030879031
    668000   0.049914374   -0.21802157     0.035214646   -0.1079402      0.0018895894 
    669000   0.049796804   -0.21787183     0.034984748   -0.1081967      2.3096286e-05
    670000   0.049985293   -0.21839744     0.035057692   -0.10836665     0.00065416443
    671000   0.049892933   -0.21816764     0.036008227   -0.10732484     0.0013954512 
    672000   0.050326632   -0.21845389     0.035634532   -0.10733428     0.0019397037 
    673000   0.050274958   -0.2187333      0.035269765   -0.10805597    -0.00016560427
    674000   0.049814208   -0.21918614     0.035313605   -0.10915604     0.00108784   
    675000   0.049915243   -0.2189906      0.035730045   -0.10839252     0.00029886885
    676000   0.049296439   -0.2193125      0.035196738   -0.11017587     0.00083333169
    677000   0.049721578   -0.21962869     0.035097864   -0.10995327     0.0023433488 
    678000   0.049821684   -0.21972682     0.034901712   -0.1100974      0.00065161696
    679000   0.049971636   -0.21979085     0.035086374   -0.10975186     0.0022961554 
    680000   0.049904847   -0.22010935     0.034824647   -0.11043226     0.0010766031 
    681000   0.04960072    -0.21997304     0.035090213   -0.11048655     0.0011637485 
    682000   0.050312793   -0.22031457     0.035263706   -0.10958654     0.0016088781 
    683000   0.050204342   -0.22039645     0.035793342   -0.10930145     0.00025993215
    684000   0.050162425   -0.22085386     0.035332181   -0.11028289     0.0012154516 
    685000   0.050121188   -0.2205174      0.03547428    -0.10986619     0.0008735536 
    686000   0.050628925   -0.22072765     0.035125054   -0.1096641      0.00062982224
    687000   0.049918915   -0.22116086     0.035140363   -0.11114695     0.0015326561 
    688000   0.049912799   -0.22102254     0.035311569   -0.1108466      0.00035362948
    689000   0.050184927   -0.22121015     0.034923623   -0.11101399     0.00054534365
    690000   0.05025353    -0.22121403     0.034498758   -0.11133984     0.0012114247 
    691000   0.049719944   -0.22129506     0.035319415   -0.11140054     0.002174509  
    692000   0.049947054   -0.22110516     0.035134174   -0.11105524     0.00038208026
    693000   0.050470105   -0.2214728      0.035228922   -0.11054361     0.0020798292 
    694000   0.049969125   -0.22153101     0.035237386   -0.11134477     6.9176579e-05
    695000   0.049684697   -0.22222075     0.035217599   -0.11248091     0.00086656751
    696000   0.049756076   -0.22231545     0.034972804   -0.11271335     0.00028759751
    697000   0.049970183   -0.22288428     0.035020122   -0.11291372    -0.0004460648 
    698000   0.050136445   -0.22280486     0.03479995    -0.1128051      0.0025714088 
    699000   0.050254931   -0.22291729     0.035870479   -0.11166928     0.00028953095
    700000   0.049703569   -0.22309321     0.035325487   -0.11321718     0.0015135841 
    701000   0.050055878   -0.22331838     0.035321518   -0.11291788     0.0012417858 
    702000   0.049595346   -0.22345609     0.034973794   -0.11409408     0.00071980695
    703000   0.049443487   -0.22393287     0.035272794   -0.11449963     0.00067394064
    704000   0.050319115   -0.22367221     0.035473528   -0.11272488     0.00051540827
    705000   0.050037882   -0.22390012     0.035520911   -0.11332723     0.00076476011
    706000   0.050097424   -0.22414453     0.035968464   -0.11303478     0.00084471817
    707000   0.050286325   -0.22465627     0.035560924   -0.11367072     0.00063195499
    708000   0.05061455    -0.22453383     0.034837261   -0.11377964     0.0022611434 
    709000   0.050302834   -0.22457437     0.035014337   -0.11411065     0.00030885729
    710000   0.049834022   -0.22514556     0.035137985   -0.11526137     0.00080092784
    711000   0.050229922   -0.22468338     0.035039596   -0.11430376     0.0016300428 
    712000   0.050346077   -0.22497235     0.035061344   -0.11439676     0.0027464112 
    713000   0.049397874   -0.22508798     0.03522536    -0.11577059    -7.4554246e-05
    714000   0.050271356   -0.22548153     0.035004367   -0.115075       0.001792203  
    715000   0.049569976   -0.22546319     0.035288356   -0.11582467     0.001141812  
    716000   0.050468846   -0.22591112     0.034962445   -0.11525029     0.0018184676 
    717000   0.050090547   -0.22565975     0.035002944   -0.11552583     0.00036946403
    718000   0.049711418   -0.22526005     0.034848882   -0.11584885     0.0012554973 
    719000   0.049849872   -0.22564026     0.035087732   -0.11578255     0.00013443588
    720000   0.049694853   -0.22577277     0.035651814   -0.11558348     0.0013399837 
    721000   0.050183993   -0.22581084     0.035161969   -0.11537774     0.0011723802 
    722000   0.050020236   -0.22599456     0.034955662   -0.11601339     0.00056516303
    723000   0.05035846    -0.22609703     0.035643796   -0.11492042     0.00024486977
    724000   0.050817143   -0.22633381     0.035123105   -0.1149899      0.00056856374
    725000   0.050319812   -0.22639349     0.035352027   -0.11556662     0.0024766241 
    726000   0.050190321   -0.22622671     0.03481756    -0.11612853     0.00060514345
    727000   0.049831484   -0.22582977     0.03537701    -0.11571036     0.0019691425 
    728000   0.050007824   -0.22636078     0.035363661   -0.11599022     6.6844231e-06
    729000   0.050140837   -0.22653972     0.034374982   -0.11695833     0.00203678   
    730000   0.050006504   -0.22666784     0.035286809   -0.11637611     0.000535605  
    731000   0.04947107    -0.22705982     0.035258457   -0.11759954     0.00073040718
    732000   0.049610845   -0.22680906     0.035234856   -0.11716274     0.0017108442 
    733000   0.050124881   -0.2267341      0.035523798   -0.11602783     0.00028139968
    734000   0.050110537   -0.22756308     0.035201253   -0.11720087     0.00043244053
    735000   0.050041917   -0.22748865     0.035053709   -0.11737691     0.00080741865
    736000   0.050501892   -0.22741232     0.034959659   -0.11670472     0.0011564049 
    737000   0.049572607   -0.22787706     0.035359458   -0.11816349     0.00023294883
    738000   0.049613823   -0.22771848     0.034920264   -0.11838229    -2.879377e-05 
    739000   0.0493938     -0.22800735     0.034978358   -0.11894307     0.0017144768 
    740000   0.049707742   -0.22807406     0.035131025   -0.11838623     0.0014748409 
    741000   0.049819987   -0.22838888     0.034560206   -0.11910352     0.00218318   
    742000   0.05019713    -0.22820205     0.0346368     -0.11827442     0.0014953263 
    743000   0.049542575   -0.22851346     0.034953552   -0.11925084     0.00020804351
    744000   0.050437547   -0.22872031     0.035164952   -0.11790392     9.1680353e-05
    745000   0.050483262   -0.22871399     0.034633317   -0.11836066     0.00083909297
    746000   0.050470124   -0.22900736     0.035401687   -0.11790537     0.00047843512
    747000   0.050276668   -0.22945813     0.034492053   -0.11955594     0.002011896  
    748000   0.050027284   -0.22939264     0.035004049   -0.11935251     1.4546671e-06
    749000   0.049400552   -0.22953014     0.035151499   -0.12028259     0.00049176661
    750000   0.050385944   -0.22979409     0.035837395   -0.11838266     0.00057386481
    751000   0.050726951   -0.22973936     0.035419311   -0.11823453     0.00055871874
    752000   0.050388924   -0.22953899     0.035408014   -0.11855246     0.00057430374
    753000   0.050094867   -0.22978938     0.035196623   -0.1194553      0.0012557443 
    754000   0.050180726   -0.22989376     0.034788945   -0.11983858     0.0018396035 
    755000   0.049623533   -0.23010996     0.03575235    -0.11992712     0.0016072682 
    756000   0.050045102   -0.22997902     0.034683182   -0.12023303     0.002344052  
    757000   0.050272084   -0.23046632     0.034775793   -0.12028727     0.00093247123
    758000   0.050479417   -0.23060668     0.035849071   -0.11904336     0.00099749735
    759000   0.050275422   -0.2308017      0.035200915   -0.12019251     0.00074460063
    760000   0.050530164   -0.23078038     0.03560029    -0.11938974     0.0011086978 
    761000   0.050147745   -0.23135361     0.034902109   -0.12123473     0.0013092268 
    762000   0.049484374   -0.23123725     0.034888297   -0.12212718     0.0017326161 
    763000   0.049518453   -0.23139331     0.035273205   -0.12184722     0.00060703221
    764000   0.050205318   -0.23163433     0.035223025   -0.12110818     0.0011194331 
    765000   0.050417657   -0.23164827     0.035207332   -0.12081933     0.0014014851 
    766000   0.049942351   -0.23187558     0.035562284   -0.12140461     0.0011997868 
    767000   0.050324587   -0.23218391     0.035191766   -0.12151013     0.0014151852 
    768000   0.050181364   -0.23273393     0.035070043   -0.12239669     0.0016008281 
    769000   0.049737808   -0.23287909     0.035573286   -0.12270391     0.00042566311
    770000   0.050234695   -0.23252968     0.035144055   -0.12203844     0.0019265163 
    771000   0.049999864   -0.23365782     0.034702632   -0.12396023     0.00010964663
    772000   0.049697713   -0.23321186     0.034471097   -0.124199       0.0011562481 
    773000   0.049922529   -0.23312603     0.035280276   -0.12296679     0.0023146636 
    774000   0.050271198   -0.23362281     0.035318462   -0.12290242     0.0016425669 
    775000   0.050096528   -0.23375385     0.035584356   -0.12302955    -0.0003012593 
    776000   0.050058628   -0.23341238     0.034995608   -0.12333368     0.00050425106
    777000   0.050485399   -0.23364562     0.035778107   -0.1221443      0.0017885053 
    778000   0.049820958   -0.23412529     0.035256952   -0.12414172     7.6304112e-05
    779000   0.05005408    -0.23394584     0.035145192   -0.12372437     0.001148099  
    780000   0.050195174   -0.23408342     0.035360243   -0.12343527     0.0017303141 
    781000   0.050316052   -0.23429886     0.035106166   -0.12372349     0.00094362698
    782000   0.049895559   -0.23466647     0.034812415   -0.12501554     0.00032907941
    783000   0.050167012   -0.23503863     0.034618713   -0.12517425     0.0014322015 
    784000   0.050420579   -0.23478841     0.035613184   -0.12354924     0.0013703163 
    785000   0.049637201   -0.23512767     0.035182414   -0.12549426     0.00045532167
    786000   0.049940486   -0.23521688     0.035608959   -0.12470203     0.00024436963
    787000   0.050274456   -0.2350888      0.035306273   -0.1243757      0.0010193347 
    788000   0.05026981    -0.2351989      0.034975748   -0.1248233      0.0008455704 
    789000   0.049646902   -0.23518636     0.034613768   -0.12610705     0.0010493442 
    790000   0.050023016   -0.23508453     0.034422936   -0.12563191     0.00024646889
    791000   0.049530239   -0.23571857     0.035089546   -0.12633846     0.00084451731
    792000   0.0496743     -0.23545722     0.035216059   -0.12573452     0.00026833324
    793000   0.050141581   -0.2357655      0.034730442   -0.12582754     0.00057257537
    794000   0.05027868    -0.23553319     0.034482415   -0.12563762     0.0014354498 
    795000   0.050543578   -0.2357231      0.034704932   -0.12520769     0.00077369033
    796000   0.049433524   -0.23626436     0.03481179    -0.12730707     0.0011845824 
    797000   0.049222017   -0.23597185     0.034942548   -0.12720104     0.00091069727
    798000   0.049802318   -0.236535       0.035109494   -0.12672685    -0.00047850419
    799000   0.050132758   -0.23645145     0.035349298   -0.12590787     0.00077578453
    800000   0.050174492   -0.23655363     0.035624598   -0.12567215     0.0016862579 
    801000   0.050845875   -0.23634983     0.035085804   -0.12500013     0.0017916872 
    802000   0.050278066   -0.23625543     0.035058413   -0.12578478     0.00089388162
    803000   0.050392684   -0.23682477     0.035420913   -0.12581971     0.00096587202
    804000   0.050648453   -0.23698143     0.034835756   -0.12617789     0.0018248984 
    805000   0.049874749   -0.23628893     0.03464939    -0.12683224     0.0010923615 
    806000   0.04991671    -0.23676187     0.035510983   -0.12638066     0.00065631113
    807000   0.04985295    -0.23702668     0.035441178   -0.1268109      0.0016216378 
    808000   0.049505627   -0.23721704     0.035734173   -0.12722922     0.00086729432
    809000   0.050005962   -0.23750064     0.03575837    -0.12673817     0.0016476617 
    810000   0.050209762   -0.2374446      0.035409326   -0.12672549    -0.00037500887
    811000   0.04956449    -0.23765862     0.035620014   -0.12769667    -0.00048303363
    812000   0.049726346   -0.23772676     0.035866005   -0.12727605     0.00060149949
    813000   0.05014226    -0.23779414     0.035235242   -0.12735036     0.00081398389
    814000   0.049952569   -0.23778963     0.034838227   -0.12802738     0.0024538294 
    815000   0.049834169   -0.23823163     0.035090118   -0.12839508     0.00079792348
    816000   0.049858477   -0.23790873     0.035694506   -0.12743133    -0.00050531393
    817000   0.049413817   -0.23787602     0.035099111   -0.12866096     0.0019230304 
    818000   0.050323989   -0.23845748     0.035258549   -0.12771781     0.0009446056 
    819000   0.049456125   -0.23834889     0.03508442    -0.12908507     0.00061376033
    820000   0.049772661   -0.23853085     0.034914551   -0.12896212     0.0011924316 
    821000   0.04967681    -0.23867238     0.035299356   -0.12886262     0.0014856978 
    822000   0.049820091   -0.23852775     0.035510103   -0.12829233     0.00058576275
    823000   0.050437664   -0.23875786     0.035002838   -0.12810341     0.0014177126 
    824000   0.04967464    -0.23863981     0.034872296   -0.12926036     0.0012321784 
    825000   0.048974954   -0.23902387     0.034656003   -0.13091018     0.00046513525
    826000   0.049643444   -0.23867114     0.035051144   -0.12915963     0.0015824185 
    827000   0.049289304   -0.23896183     0.035503909   -0.12952873     0.0017686696 
    828000   0.050028993   -0.23905562     0.035724148   -0.12829282     0.00022022519
    829000   0.050739046   -0.23939618     0.034988687   -0.12830384     0.0006208937 
    830000   0.049962617   -0.23920398     0.034997356   -0.12926753     0.0013899945 
    831000   0.050462702   -0.23926571     0.035048437   -0.1285281      0.00096390098
    832000   0.049785529   -0.23935773     0.035516647   -0.12916761     0.0023163918 
    833000   0.050252047   -0.23974793     0.034910548   -0.12946418    -0.00025539652
    834000   0.049906999   -0.23961163     0.03533809    -0.12941787     0.0011176915 
    835000   0.050089089   -0.23962991     0.035948126   -0.128553      -0.00030546704
    836000   0.050888443   -0.23984491     0.035522265   -0.12799491     0.00067381402
    837000   0.050349043   -0.23992393     0.035722706   -0.12868254     0.00065746462
    838000   0.050094718   -0.24029782     0.03546794    -0.12969265     0.00010086309
    839000   0.049738222   -0.2403492      0.035832877   -0.1299138      0.0010519554 
    840000   0.050074896   -0.2406989      0.035568376   -0.13002303    -1.5086669e-05
    841000   0.050283793   -0.2404342      0.035534392   -0.12947899     0.0014587288 
    842000   0.050088397   -0.24057001     0.03492984    -0.13051242     0.0010307927 
    843000   0.049298717   -0.24008522     0.035103008   -0.13103891     0.0012733414 
    844000   0.050424325   -0.24059776     0.034728063   -0.13023809     0.0020288199 
    845000   0.049618642   -0.24060808     0.034624968   -0.13155995     0.00096075955
    846000   0.050173193   -0.24094547     0.034767949   -0.13092258     0.00060544503
    847000   0.050180642   -0.2409555      0.035015794   -0.1306736      0.00038098649
    848000   0.050096178   -0.24084934     0.035466181   -0.13024374     0.00088750501
    849000   0.049715      -0.24090293     0.034902753   -0.13143249     0.00058245378
    850000   0.050137311   -0.24121958     0.035416495   -0.13060197     0.0013180147 
    851000   0.050165905   -0.24100132     0.035087818   -0.1306695      0.0018063466 
    852000   0.049725492   -0.24143962     0.034996621   -0.13185957     0.00082212778
    853000   0.049905511   -0.24157937     0.034798754   -0.13192718     0.0015257173 
    854000   0.049537514   -0.2415041      0.034978998   -0.13222363     0.0002486294 
    855000   0.049481207   -0.24178378     0.036140095   -0.13142666     0.00084189686
    856000   0.0491372     -0.24209675     0.035266993   -0.13312871     0.001227101  
    857000   0.049687718   -0.24243086     0.03462693    -0.13327716     0.0011436743 
    858000   0.049439022   -0.24214271     0.034860226   -0.13312874     0.0016024274 
    859000   0.050409963   -0.24191308     0.034905842   -0.13139717     0.00042836069
    860000   0.050240704   -0.24216136     0.035170241   -0.13163493     0.0010259283 
    861000   0.049654954   -0.24239991     0.035560445   -0.13236184     0.0015769038 
    862000   0.050291458   -0.24238613     0.035222889   -0.13173092    -0.00038804717
    863000   0.050053534   -0.24241702     0.034755968   -0.13258559     0.0012113564 
    864000   0.050472316   -0.24279721     0.035396192   -0.13169743     0.0013792028 
    865000   0.050133579   -0.24277446     0.035303504   -0.13227544    -0.00017962892
    866000   0.049739124   -0.24264789     0.035425543   -0.13261847    -0.00020981143
    867000   0.050272805   -0.24302905     0.03485998    -0.13276473     0.00090510315
    868000   0.049267991   -0.24316458     0.035510488   -0.13375688     0.00047990521
    869000   0.049493277   -0.24330263     0.035567964   -0.13349954     0.00021818151
    870000   0.049858617   -0.24325337     0.034810377   -0.1336599      0.0020155052 
    871000   0.050001146   -0.24315635     0.035401634   -0.13275783     0.0010606506 
    872000   0.049995712   -0.2431906      0.035656534   -0.13254533     0.00047738671
    873000   0.049920842   -0.24344068     0.034775901   -0.13378834     0.0019394433 
    874000   0.049891011   -0.24340896     0.035677753   -0.13289952     0.00093786611
    875000   0.050139006   -0.24405267     0.035702245   -0.13314677     0.00039572222
    876000   0.050371739   -0.24411007     0.035324087   -0.13323325     0.0013755429 
    877000   0.050193931   -0.2440781      0.035208759   -0.1335833      0.0011234051 
    878000   0.049886035   -0.24435935     0.035250984   -0.13428414     0.0010214574 
    879000   0.049405217   -0.24376086     0.035129888   -0.13452792     0.00047083373
    880000   0.050070762   -0.24414545     0.03499912    -0.13404503     0.00062220558
    881000   0.050242576   -0.24431377     0.034678328   -0.13427644     0.0014529906 
    882000   0.049751171   -0.24423127     0.035115975   -0.13449335     0.00078851632
    883000   0.050066525   -0.24396732     0.034163304   -0.13470907     0.001016474  
    884000   0.049829306   -0.24490771     0.035573328   -0.13459525     0.0029371781 
    885000   0.049846531   -0.24486412     0.035166462   -0.13493269     0.00051724684
    886000   0.050164664   -0.24483762     0.035087942   -0.13450754     0.0011812213 
    887000   0.050070961   -0.24468052     0.035125878   -0.13445304     0.0018006636 
    888000   0.049735643   -0.24554611     0.034594132   -0.13635333     0.00049673295
    889000   0.050159439   -0.24555457     0.03550736    -0.13481291     0.00079090528
    890000   0.050112602   -0.24526646     0.035420863   -0.13468154     0.00084152464
    891000   0.050169789   -0.24548204     0.035070935   -0.13516127    -7.2508233e-05
    892000   0.050229599   -0.2452895      0.035234773   -0.13471519     0.0010879958 
    893000   0.050414509   -0.2458237      0.035567852   -0.13463897     0.00068575226
    894000   0.049716591   -0.24541958     0.035261379   -0.13558813     0.00075590425
    895000   0.050126606   -0.24560989     0.035142033   -0.1352828      0.0017643111 
    896000   0.049913333   -0.24570347     0.035107222   -0.13573107     0.0021095874 
    897000   0.049634354   -0.24604567     0.035316041   -0.1362829     -0.00023733493
    898000   0.049903261   -0.24616897     0.034912459   -0.13640645     0.0015549356 
    899000   0.050344978   -0.24608724     0.035202638   -0.13537201     0.00020516047
    900000   0.049967286   -0.24637384     0.035703064   -0.13572468     0.0011407064 
    901000   0.0507249     -0.24619261     0.03503537    -0.1350748      0.00039332045
    902000   0.049833227   -0.24613761     0.035083005   -0.13630959    -0.0004258632 
    903000   0.050201905   -0.24662991     0.034815266   -0.13651664     0.0012641068 
    904000   0.049611412   -0.24656642     0.035742153   -0.13641195     0.00090863057
    905000   0.049643807   -0.24649842     0.035071084   -0.13696643     0.0013649468 
    906000   0.049763761   -0.24636829     0.034689585   -0.13703788     0.00037793681
    907000   0.049866288   -0.24649005     0.035134257   -0.13656119     0.00033447725
    908000   0.050172588   -0.24689118     0.035261823   -0.13637533     0.00058713999
    909000   0.050397082   -0.24717697     0.035099391   -0.13648683     3.5846983e-05
    910000   0.049771514   -0.24634175     0.035118818   -0.13657048     8.9244259e-05
    911000   0.049312052   -0.24667294     0.035056693   -0.13765294     0.00034404804
    912000   0.050136665   -0.24684907     0.03542022    -0.13622871     0.0012701585 
    913000   0.049766512   -0.24747181     0.034941054   -0.1378858      0.00015863426
    914000   0.049781805   -0.24714334     0.034781435   -0.13769401     0.0010133651 
    915000   0.050439422   -0.24724082     0.035397739   -0.13618883     0.00078329466
    916000   0.050221666   -0.24731479     0.035768606   -0.13621854     0.00049950817
    917000   0.050421726   -0.24781119     0.035545785   -0.13663769     0.0015953033 
    918000   0.050403158   -0.24798207     0.035481585   -0.13690062     0.002134655  
    919000   0.050090195   -0.24834895     0.035283798   -0.13793471     0.0017630467 
    920000   0.049914507   -0.24793652     0.035288645   -0.13778095    -0.0010020421 
    921000   0.049865404   -0.24795062     0.035182475   -0.13797486     0.0010361376 
    922000   0.050235361   -0.2486895      0.034524263   -0.13881705     0.0013087176 
    923000   0.050217087   -0.24862141     0.035431288   -0.13786935    -0.00046803453
    924000   0.049811116   -0.24906539     0.035138257   -0.13921528     0.0015711519 
    925000   0.050538578   -0.24888753     0.034950798   -0.13813375     0.00099380554
    926000   0.050200932   -0.24888993     0.035538853   -0.13805454    -0.00026645085
    927000   0.04924335    -0.24893825     0.03530206    -0.13977594     0.00029945994
    928000   0.050043066   -0.24890579     0.035373882   -0.13847215     0.0022550037 
    929000   0.049757474   -0.24982594     0.035733181   -0.13946136     0.00027098772
    930000   0.049516691   -0.24914362     0.035235086   -0.13963829     0.00052510937
    931000   0.049652111   -0.24980615     0.034969072   -0.14036372     0.0011027572 
    932000   0.050366876   -0.24991697     0.03525334    -0.13911819     0.00021173182
    933000   0.049575331   -0.24968998     0.035378261   -0.13995352     0.00093791744
    934000   0.049799464   -0.24988213     0.035006877   -0.14018088     0.00095433921
    935000   0.049971991   -0.24996986     0.035118463   -0.13989825     0.0002558595 
    936000   0.049966013   -0.24977793     0.035335332   -0.13949841     0.0012942548 
    937000   0.049781721   -0.24986216     0.034848764   -0.14034563    -0.00015967839
    938000   0.050035446   -0.25014791     0.034869237   -0.14023034     0.00038679187
    939000   0.049500662   -0.24998641     0.03571235    -0.14002786     0.00026630395
    940000   0.050471424   -0.24988712     0.035185961   -0.13899891     0.0015955059 
    941000   0.050027328   -0.25028        0.035508822   -0.13973503     0.0011605514 
    942000   0.050529456   -0.2502998      0.035401501   -0.13910901     0.0016080798 
    943000   0.050500827   -0.25030539     0.035483456   -0.13907558    -0.00076995008
    944000   0.050335589   -0.25032191     0.035475227   -0.13934818     0.00073626979
    945000   0.04996306    -0.25071655     0.035829009   -0.13994779     0.00028681118
    946000   0.050641093   -0.25072931     0.034897927   -0.13987465     0.00078928928
    947000   0.050279101   -0.2506322      0.03566735    -0.13955106    -0.00020132873
    948000   0.050555553   -0.25059847     0.035214113   -0.13955592     0.0004521379 
    949000   0.050374531   -0.25099416     0.035047295   -0.14038994     0.00010248087
    950000   0.049905455   -0.25083171     0.035412562   -0.1405658      0.0012341441 
    951000   0.049995268   -0.25137953     0.035216867   -0.1411746      0.0011237453 
    952000   0.050268515   -0.25098623     0.035864171   -0.13972415     0.00062280363
    953000   0.050288594   -0.25079158     0.035401191   -0.13996237     0.0017270642 
    954000   0.050650643   -0.25126028     0.035231076   -0.14005814    -0.00067045593
    955000   0.049959718   -0.25114386     0.035623779   -0.14058534    -0.00041756105
    956000   0.049530105   -0.25106678     0.035477645   -0.14129877     0.0019167193 
    957000   0.049911202   -0.25132981     0.035194605   -0.14127324     0.00083214266
    958000   0.050097169   -0.25138503     0.035651818   -0.14059231     0.00023708931
    959000   0.05047119    -0.25135223     0.035268181   -0.14038215     0.0017483837 
    960000   0.050567542   -0.2516408      0.035416444   -0.14037793     0.00070581971
    961000   0.050812906   -0.25174623     0.035648039   -0.13988375     0.0012300076 
    962000   0.049991701   -0.2515339      0.035512738   -0.14103845     0.0014019353 
    963000   0.05003387    -0.25116774     0.0352492     -0.14087258     0.00084521972
    964000   0.050356454   -0.25179517     0.035791179   -0.14047418     0.00074985854
    965000   0.050261796   -0.25173581     0.035271869   -0.14107611     0.0011556308 
    966000   0.050243752   -0.25176313     0.035030684   -0.14137169     0.0010371872 
    967000   0.049819654   -0.25143466     0.03536429    -0.14134571     0.00043602296
    968000   0.049988143   -0.2516041      0.035594483   -0.14103224     0.00019379033
    969000   0.049701171   -0.2520028      0.036184897   -0.14127096     0.0006051216 
    970000   0.050012413   -0.25187301     0.035350712   -0.14150852     0.0014308116 
    971000   0.049566181   -0.25191544     0.035385519   -0.14218544     0.0011799141 
    972000   0.050059276   -0.2521998      0.035355857   -0.14175987    -0.00033440951
    973000   0.049691917   -0.25212368     0.03567314    -0.14191747     0.00020737466
    974000   0.0499574     -0.25210463     0.035327568   -0.1418458      0.0013132369 
    975000   0.049674522   -0.25213316     0.034804367   -0.14282182     0.0013756957 
    976000   0.050281324   -0.25273113     0.035160695   -0.14215331     0.0004433501 
    977000   0.049683861   -0.25247175     0.035326232   -0.14262453     0.000794063  
    978000   0.049807421   -0.25253981     0.035083374   -0.14275013     0.0011351224 
    979000   0.049287906   -0.2523252      0.036165052   -0.14223305    -0.0011314977 
    980000   0.049744723   -0.25223851     0.034854298   -0.14277195     0.001400419  
    981000   0.049933736   -0.25281741     0.036106223   -0.14181542     0.00037791664
    982000   0.050273814   -0.25300632     0.035657438   -0.14194302     0.0012891864 
    983000   0.05015095    -0.25303851     0.035503967   -0.14231298     0.00095626009
    984000   0.050383812   -0.25300918     0.035451478   -0.14198686     0.00067651793
    985000   0.049974029   -0.25371243     0.035661789   -0.14309444    -0.00041012425
    986000   0.050170476   -0.25353022     0.035149943   -0.14312942     0.0012506429 
    987000   0.049578783   -0.25338048     0.035845772   -0.14317134     0.001886117  
    988000   0.05009243    -0.25345544     0.035340829   -0.14298082     0.00078066493
    989000   0.050356225   -0.25386017     0.036000458   -0.14233024    -7.4546097e-07
    990000   0.050016444   -0.2534944      0.035580834   -0.14289374     0.0010074736 
    991000   0.050023247   -0.25338557     0.035071075   -0.14328446     0.0015937172 
    992000   0.050113664   -0.25377515     0.035229972   -0.14337953    -0.00056625053
    993000   0.049361682   -0.25430853     0.035758865   -0.14451192    -0.00055361436
    994000   0.049927647   -0.254159       0.034680374   -0.14459199     0.00093227199
    995000   0.049809574   -0.25449689     0.035624604   -0.14416275    -0.0008375231 
    996000   0.050297097   -0.25435014     0.035398876   -0.14351049     0.0012449272 
    997000   0.050264775   -0.25450968     0.035769074   -0.14334831     0.00094007286
    998000   0.050021186   -0.2544795      0.035470443   -0.14398212    -0.0003626416 
    999000   0.050173754   -0.25468094     0.035052034   -0.14437313     0.00084955567
   1000000   0.050314076   -0.25459045     0.035122934   -0.14400127     0.0016035786 
   1001000   0.050231329   -0.25472371     0.03539748    -0.1439841     -0.00071955492
   1002000   0.049917233   -0.25474652     0.03530674    -0.14456876     0.0015066976 
   1003000   0.049663711   -0.25473856     0.035586051   -0.14466175     0.00055205566
   1004000   0.050388864   -0.25473998     0.034928669   -0.14423289     0.0020230002 
   1005000   0.050382222   -0.25524205     0.035168429   -0.14450516     0.00052594704
   1006000   0.049802083   -0.25488065     0.035133879   -0.14504846     4.558653e-05 
   1007000   0.049754549   -0.25465407     0.034888584   -0.14513848     0.0026208536 
   1008000   0.050645221   -0.25513414     0.035724371   -0.14344684    -0.00049855248
   1009000   0.050803493   -0.25493373     0.035677349   -0.14305606     0.00062248427
   1010000   0.050663182   -0.25536727     0.03548361    -0.14389379    -0.00017058768
   1011000   0.04973018    -0.25472156     0.035675895   -0.14445521     0.00060181488
   1012000   0.049858138   -0.25533455     0.035501673   -0.14505049     0.001110058  
   1013000   0.049963458   -0.25498458     0.035982798   -0.14406143     0.0013551664 
   1014000   0.049932965   -0.25506605     0.035438925   -0.14473251    -0.0006872701 
   1015000   0.049679731   -0.25492969     0.035179137   -0.14523576     0.0011481134 
   1016000   0.050037826   -0.25533143     0.035616002   -0.14466353     0.0011269529 
   1017000   0.049586079   -0.25522167     0.03532375    -0.1455236     -5.0804011e-05
   1018000   0.049709127   -0.25521025     0.035563831   -0.14508754     0.00058100789
   1019000   0.050014057   -0.255635       0.035061733   -0.14555702     0.00079057103
   1020000   0.049907185   -0.25549809     0.03532719    -0.14531495     0.00075035616
   1021000   0.049795096   -0.25529726     0.034655058   -0.14595437     0.0011162892 
   1022000   0.050056978   -0.25586647     0.035655937   -0.14512991     0.0013260303 
   1023000   0.050264626   -0.25579277     0.035702366   -0.14469833     0.00084745718
   1024000   0.049812943   -0.25598072     0.035232843   -0.14603329     7.110552e-05 
   1025000   0.049906864   -0.25593007     0.035720532   -0.14535407     0.00029669794
   1026000   0.050086864   -0.25569898     0.035044015   -0.14552952     0.00052405579
   1027000   0.049873843   -0.25585817     0.035566827   -0.14548541     0.0010905686 
   1028000   0.050280461   -0.25594729     0.035745596   -0.14478587    -0.00059252986
   1029000   0.049692015   -0.25601434     0.035962365   -0.14551876     0.001202842  
   1030000   0.050157185   -0.25624311     0.03506174    -0.14595044     0.0021179611 
   1031000   0.049702332   -0.25626451     0.036000904   -0.14571492     6.1358842e-05
   1032000   0.049745129   -0.25597689     0.035319409   -0.14604461     0.0012989514 
   1033000   0.049794048   -0.25643488     0.035768482   -0.14598015    -0.00026221172
   1034000   0.050003906   -0.25625239     0.035338397   -0.14591297     0.0014356487 
   1035000   0.050545692   -0.25655153     0.035659186   -0.1450787      0.0012012434 
   1036000   0.049916039   -0.25661009     0.035565939   -0.14617492     0.00054658866
   1037000   0.050082983   -0.25711096     0.035904632   -0.14608669    -0.00019880738
   1038000   0.049776095   -0.2571543      0.035738011   -0.14675697     0.0013633229 
   1039000   0.04917061    -0.25662084     0.035048236   -0.14782144     0.00076832311
   1040000   0.049613049   -0.25690555     0.034893474   -0.14759731     0.0012612402 
   1041000   0.049950719   -0.25704515     0.035383279   -0.14674063     0.00074124289
   1042000   0.05007793    -0.25701369     0.035208716   -0.14669293     0.0011440049 
   1043000   0.049794459   -0.25705262     0.035863245   -0.14650251     0.00014229344
   1044000   0.04953111    -0.2573149      0.035236849   -0.14778618    -0.00041247077
   1045000   0.050440032   -0.2574077      0.035177      -0.14657554     0.00089446332
   1046000   0.049943389   -0.25754352     0.034724522   -0.14790875     0.0014408578 
   1047000   0.050151713   -0.25768319     0.035189651   -0.14727082     0.00057379698
   1048000   0.049153946   -0.25720804     0.035368959   -0.14811292    -0.0003447761 
   1049000   0.049265629   -0.25735012     0.035096734   -0.14835971     0.0017110834 
   1050000   0.049929365   -0.25715896     0.035086029   -0.14718372     0.0025070236 
   1051000   0.050211478   -0.25755386     0.035316483   -0.14692501     7.9657132e-05
   1052000   0.049954593   -0.25754821     0.03492209    -0.14769906     0.001007028  
   1053000   0.050301014   -0.25791652     0.035401786   -0.14706808     0.0010997759 
   1054000   0.050537083   -0.25831941     0.035806048   -0.14671263     0.0014503258 
   1055000   0.050385397   -0.25789868     0.035357788   -0.14696767     0.0016788745 
   1056000   0.049334657   -0.25805309     0.035543614   -0.14851226     0.00067349445
   1057000   0.050403632   -0.25777617     0.035247719   -0.14692788     0.00083745398
   1058000   0.05041214    -0.25800821     0.034765888   -0.14762899     0.0011984649 
   1059000   0.049156097   -0.25851117     0.035211098   -0.14957069     0.00010958964
   1060000   0.049486829   -0.25860489     0.035265128   -0.14911431     0.0019594779 
   1061000   0.050158633   -0.2587799      0.034881875   -0.14866493     0.00017840279
   1062000   0.049838135   -0.25884635     0.035618236   -0.14847573     0.00021229145
   1063000   0.050095593   -0.25887278     0.035291759   -0.14844248     0.0021187368 
   1064000   0.049597351   -0.2586591      0.035423272   -0.1488446     -7.3615701e-05
   1065000   0.049970275   -0.25890424     0.035536703   -0.14841696     0.00057568939
   1066000   0.049485872   -0.25907161     0.035641788   -0.1492058      0.0011629947 
   1067000   0.050026929   -0.2591459      0.034925579   -0.14918477     0.0021207771 
   1068000   0.050292018   -0.25899375     0.035252052   -0.14830854     0.0016346987 
   1069000   0.049841623   -0.25932679     0.0361131     -0.14845608     0.00061393474
   1070000   0.050093008   -0.25957755     0.035819719   -0.14862317     0.00044099919
   1071000   0.0497704     -0.25907475     0.035668879   -0.14875509     0.00070630629
   1072000   0.050265889   -0.25930921     0.03509915    -0.14881609    -0.00014235603
   1073000   0.049763702   -0.25915078     0.035214354   -0.14929569     0.00087569854
   1074000   0.049840756   -0.25900912     0.035109219   -0.14914359     0.00035116553
   1075000   0.049995128   -0.25930381     0.035145488   -0.14917047     0.0015568487 
   1076000   0.050543449   -0.25948454     0.035324244   -0.14835001     0.00092725059
   1077000   0.049996488   -0.25970012     0.035526747   -0.14918348     0.00037014097
   1078000   0.050271189   -0.25946735     0.035592974   -0.14847246     0.00038785093
   1079000   0.050022813   -0.25955278     0.035645721   -0.14887768     0.00037726225
   1080000   0.050165093   -0.25958506     0.035585418   -0.14875686     0.00053607253
   1081000   0.049634632   -0.25953957     0.035314842   -0.14977758     0.0023758685 
   1082000   0.050054427   -0.25923931     0.03491452    -0.149248      -0.00028471297
   1083000   0.050122679   -0.25983614     0.035095485   -0.14956149     0.0016950979 
   1084000   0.050140265   -0.25978928     0.035035899   -0.14954784     0.00012033857
   1085000   0.049862425   -0.25992094     0.03547279    -0.14965934    -0.0010471722 
   1086000   0.049651899   -0.25959661     0.035328092   -0.14979547     0.0013951836 
   1087000   0.049825206   -0.26034991     0.035846329   -0.1497706      0.00086342263
   1088000   0.049103312   -0.2598095      0.0353672     -0.15079208     0.00083351361
   1089000   0.049789922   -0.26008849     0.035660429   -0.14974799     0.0012275328 
   1090000   0.04989862    -0.26019036     0.035984877   -0.14936238    -7.0057058e-05
   1091000   0.050404865   -0.26009188     0.035118544   -0.14937091     0.0015449262 
   1092000   0.049863184   -0.2600903      0.035155023   -0.15014533    -0.00013263274
   1093000   0.049834841   -0.26002996     0.035492571   -0.14978995    -0.00026659324
   1094000   0.049672453   -0.26039813     0.034837727   -0.15105653     0.0018034921 
   1095000   0.049842656   -0.26029627     0.035237486   -0.15029962    -0.00059823685
   1096000   0.050055983   -0.26001741     0.035034357   -0.14990392     0.0013117771 
   1097000   0.049732408   -0.26013379     0.035068087   -0.1504719      0.00067448923
   1098000   0.050052724   -0.26078239     0.035869392   -0.14983876     0.00014741266
   1099000   0.049955659   -0.26042416     0.035305152   -0.15019035     0.00037115769
   1100000   0.049504973   -0.2603018      0.035585466   -0.15046366     0.0013611361 
   1101000   0.049900302   -0.26024623     0.035069069   -0.15033153     0.0011571578 
   1102000   0.049813031   -0.26033818     0.035509125   -0.15011433     0.0016477916 
   1103000   0.050077714   -0.26036286     0.035455903   -0.14979524     0.00077687349
   1104000   0.050080755   -0.26072153     0.03534405    -0.1502612      0.00057480316
   1105000   0.049673034   -0.26060399     0.035620931   -0.15047831     0.002022043  
   1106000   0.050037844   -0.26084834     0.035229538   -0.15056687     0.0010928527 
   1107000   0.050445034   -0.26095441     0.035050037   -0.15024171     0.0022457235 
   1108000   0.050422035   -0.2607708      0.035020354   -0.15012227    -0.00048761935
   1109000   0.049866368   -0.26090585     0.035919785   -0.15019134    -0.00060941973
   1110000   0.049692994   -0.26115159     0.03495171    -0.15166519     0.00064014779
   1111000   0.049959611   -0.26119927     0.035708701   -0.15055599     0.0014873372 
   1112000   0.050252213   -0.26130546     0.035443771   -0.15048823     0.00054757256
   1113000   0.049944785   -0.26129396     0.035971073   -0.15041055     0.0011205042 
   1114000   0.050296296   -0.26162702     0.035539346   -0.1506481      0.0012182565 
   1115000   0.049700024   -0.26137108     0.035321242   -0.15150462     0.00021927732
   1116000   0.050746955   -0.26177622     0.035535582   -0.15012512     0.00026026295
   1117000   0.050144671   -0.26177003     0.035189616   -0.15136826     0.0008668323 
   1118000   0.050221984   -0.26166156     0.03544638    -0.15088706     0.0012937672 
   1119000   0.049628016   -0.26130261     0.035238625   -0.15162677     0.0012187288 
   1120000   0.0504961     -0.26153204     0.035332061   -0.15046071     0.0018906859 
   1121000   0.049815613   -0.26147639     0.035659903   -0.15109789     0.0013539388 
   1122000   0.049912462   -0.26152056     0.034991997   -0.1516647      0.00059773003
   1123000   0.049567663   -0.26175753     0.035055882   -0.15235495     0.0012660051 
   1124000   0.049912463   -0.2619717      0.034936049   -0.15217179     0.00090673993
   1125000   0.050148227   -0.26208524     0.035040313   -0.15182744     0.0011089976 
   1126000   0.049868866   -0.26243532     0.035677113   -0.15195973     0.00041160152
   1127000   0.049796968   -0.26240816     0.035328447   -0.15238908     0.0002721631 
   1128000   0.049962523   -0.26277848     0.035184482   -0.15265505     0.0001113547 
   1129000   0.050134382   -0.26238695     0.035198749   -0.15199148     0.0010206169 
   1130000   0.05028612    -0.26245484     0.035040336   -0.15199019    -0.00040431817
   1131000   0.049389586   -0.26306749     0.035801691   -0.1531862      0.00095898255
   1132000   0.049279711   -0.2625833      0.03510442    -0.15356408     0.0011813128 
   1133000   0.049650976   -0.26254915     0.035233615   -0.15284388     0.00013000517
   1134000   0.05051085    -0.26263444     0.034966659   -0.15190639     0.00094474828
   1135000   0.050366656   -0.26307329     0.035277951   -0.15225023    -0.00058625781
   1136000   0.049737315   -0.2628768      0.035588129   -0.15268751     0.00095333415
   1137000   0.049363747   -0.26315837     0.035420394   -0.15369714     0.00040995118
   1138000   0.049989383   -0.26310067     0.034900825   -0.15322061     0.00090727048
   1139000   0.050308675   -0.26323486     0.035331906   -0.15244481     0.00041310546
   1140000   0.050054503   -0.26329834     0.035396711   -0.15282472     0.0006886458 
   1141000   0.049811171   -0.26335574     0.034557852   -0.15408595     0.0014381376 
   1142000   0.049530198   -0.26330583     0.03525711    -0.15375822     0.0022407952 
   1143000   0.049587639   -0.26339681     0.035647801   -0.15337235     0.00040825805
   1144000   0.049773888   -0.26317006     0.034684576   -0.15382947     0.00093848667
   1145000   0.049915733   -0.26323229     0.035407365   -0.15295616     0.00035517871
   1146000   0.049644239   -0.2637212      0.0352782     -0.15398144     0.00040997137
   1147000   0.049376193   -0.26361001     0.035855677   -0.15369482     0.00051654074
   1148000   0.050200579   -0.26354046     0.03552791    -0.15271654     0.00079948837
   1149000   0.049709714   -0.26336639     0.035657409   -0.15314922    -0.00015985715
   1150000   0.049972826   -0.2636821      0.03512711    -0.15360058     0.0012080396 
   1151000   0.049838481   -0.26382439     0.035031584   -0.15403991     0.0012313295 
   1152000   0.04955707    -0.26385749     0.035238144   -0.15428854     0.0014064978 
   1153000   0.050088759   -0.2635718      0.034938723   -0.15350478     0.0012230993 
   1154000   0.049784659   -0.26371193     0.035387736   -0.15365203    -0.00062743764
   1155000   0.050143686   -0.26379266     0.034834619   -0.15374737     0.00052845661
   1156000   0.049972932   -0.26414293     0.035560393   -0.15362798    -0.00041355898
   1157000   0.050306498   -0.26369902     0.03610066    -0.15214348     0.0018059247 
   1158000   0.050443402   -0.26379451     0.035882868   -0.15225142     0.00044865699
   1159000   0.050554751   -0.2643154      0.035114187   -0.15337398     0.0014292604 
   1160000   0.049895107   -0.263888       0.035778087   -0.15327208     0.0013682953 
   1161000   0.049799864   -0.26372481     0.035413656   -0.15361618     0.00064982278
   1162000   0.049747665   -0.26405453     0.035029296   -0.15440855     0.00037890629
   1163000   0.050646949   -0.26425125     0.035966715   -0.15231901     0.00012125106
   1164000   0.050266369   -0.26441399     0.035236949   -0.15378235     0.0013078172 
   1165000   0.050154805   -0.26422436     0.035315624   -0.15368138    -0.00021225646
   1166000   0.0503443     -0.26430096     0.035227902   -0.15356148     0.00073146256
   1167000   0.049960729   -0.26448357     0.035816306   -0.15373101     0.001295465  
   1168000   0.050507465   -0.26426567     0.035486237   -0.15302312     0.00051359749
   1169000   0.050183378   -0.2644974      0.03549206    -0.15373513    -0.001424098  
   1170000   0.049986944   -0.26455391     0.035980866   -0.15359747     0.00045187268
   1171000   0.050139621   -0.26436839     0.035525883   -0.15363793     0.00082096218
   1172000   0.050168233   -0.26460036     0.035542948   -0.15380992     0.00022724393
   1173000   0.049485624   -0.26471588     0.035368774   -0.15512346    -0.00030660816
   1174000   0.050118988   -0.26434022     0.035088905   -0.15407769     0.00020136696
   1175000   0.04974689    -0.26465956     0.034983322   -0.15506071     0.0013242714 
   1176000   0.049924259   -0.26450724     0.035027701   -0.15459798     0.0001777334 
   1177000   0.050019856   -0.26508737     0.035303159   -0.15475927    -0.00029188522
   1178000   0.049990309   -0.26505972     0.03540153    -0.15467757    -0.0005195802 
   1179000   0.049550477   -0.2651193      0.035333984   -0.15546439     0.00099494669
   1180000   0.049854391   -0.26497152     0.035309027   -0.15488573    -0.00059044796
   1181000   0.050249508   -0.26493647     0.035680625   -0.15388645     0.001189658  
   1182000   0.050019136   -0.26499438     0.035363117   -0.1546074      0.0010737822 
   1183000   0.050126794   -0.26532764     0.035547276   -0.15459503     0.00092369099
   1184000   0.050309149   -0.26495303     0.035448936   -0.15404524     0.00015188642
   1185000   0.049921634   -0.26511954     0.035302508   -0.15493941     0.0003443249 
   1186000   0.049995215   -0.26547168     0.034737484   -0.15574622    -0.0011252607 
   1187000   0.050032893   -0.26542121     0.035656113   -0.1547206      0.0021177937 
   1188000   0.049192593   -0.26546342     0.035633633   -0.15604566     0.00051212868
   1189000   0.049465612   -0.26535904     0.035678342   -0.15548707     0.0017641375 
   1190000   0.049918668   -0.2656847      0.035476167   -0.15533536     0.0011846784 
   1191000   0.049610013   -0.26570082     0.035227039   -0.15606356    -0.00050424237
   1192000   0.04992381    -0.26593423     0.035420126   -0.15563323     0.0011466661 
   1193000   0.050034607   -0.26589652     0.035422515   -0.15542694     3.2769427e-05
   1194000   0.049967212   -0.26572122     0.034967178   -0.15580806     0.001149194  
   1195000   0.049902098   -0.26629266     0.035165144   -0.1562792      0.00082854232
   1196000   0.050284984   -0.2660495      0.035034604   -0.15559228     0.002341919  
   1197000   0.050492706   -0.26598449     0.034807786   -0.15544253     0.0010482789 
   1198000   0.05023001    -0.26612833     0.035196739   -0.15559144     0.00081033608
   1199000   0.049696486   -0.26611364     0.035173265   -0.15640046     0.00018824321
   1200000   0.049269493   -0.26661019     0.035510605   -0.15720011    -2.8641597e-05
   1201000   0.050081587   -0.26627702     0.035660244   -0.15549924     0.0011482797 
   1202000   0.050473993   -0.26629701     0.035703477   -0.15488743     0.0005728296 
   1203000   0.049927758   -0.26600098     0.035739964   -0.15537422    -1.3311933e-07
   1204000   0.049718329   -0.26610297     0.036179964   -0.15535033     0.00048794401
   1205000   0.049539531   -0.26611545     0.035203943   -0.156607       0.0005967007 
   1206000   0.049867387   -0.2667871      0.035438154   -0.15655269     0.00091498024
   1207000   0.05022699    -0.2666209      0.035541403   -0.15574387     0.00013021655
   1208000   0.049783958   -0.26635404     0.03523186    -0.15645107     0.0012173953 
   1209000   0.049706671   -0.26645104     0.035614397   -0.15628145    -0.00015147053
   1210000   0.050417076   -0.26662867     0.035740937   -0.155267       5.2438156e-05
   1211000   0.04951959    -0.26658718     0.03518159    -0.157131       0.00078067441
   1212000   0.049731815   -0.26646036     0.035490851   -0.1563766      0.00049234736
   1213000   0.05002735    -0.26662506     0.034353581   -0.15723529     0.0011732143 
   1214000   0.05002239    -0.2666922      0.035228807   -0.15643465     0.0013009625 
   1215000   0.04976524    -0.2665756      0.035801381   -0.15613118    -0.00016279711
   1216000   0.049634782   -0.26699005     0.035660619   -0.15688207     3.196059e-05 
   1217000   0.049945958   -0.26663086     0.035419204   -0.15629755     0.0014102672 
   1218000   0.04942469    -0.26695833     0.035367877   -0.1574582     -5.3331534e-05
   1219000   0.049718122   -0.26705936     0.035624987   -0.156862       0.00086239442
   1220000   0.049975022   -0.26680507     0.035907078   -0.1559403     -2.7529679e-05
   1221000   0.050605889   -0.26655245     0.03545483    -0.15519368     0.0014202097 
   1222000   0.049802638   -0.26696002     0.035564016   -0.15669686     0.00047441094
   1223000   0.049701027   -0.2671023      0.036043319   -0.15651225     0.00083344136
   1224000   0.049908421   -0.26686471     0.03525435    -0.15675256     0.00039642554
   1225000   0.050090302   -0.26694935     0.035203047   -0.15661569     0.00035350771
   1226000   0.05008454    -0.26757842     0.035656649   -0.15679981     0.0016308263 
   1227000   0.049130593   -0.26738979     0.035863613   -0.15783505    -0.00059267826
   1228000   0.05006678    -0.2677834      0.035382846   -0.15730523    -0.00076281583
   1229000   0.049736544   -0.26700118     0.034920797   -0.15748038     0.0016646626 
   1230000   0.050295684   -0.26741926     0.03548569    -0.15649491     0.00071128985
   1231000   0.050053138   -0.26731596     0.035279938   -0.15696116     0.0015678662 
   1232000   0.050750292   -0.26786715     0.035944758   -0.15580187    -0.001075535  
   1233000   0.050759051   -0.26735225     0.035997358   -0.15522123     0.0017692653 
   1234000   0.050543194   -0.2676993      0.035146384   -0.15674301     0.00029278605
   1235000   0.050132525   -0.26733326     0.035350507   -0.15678882     0.00030719066
   1236000   0.050562923   -0.26774869     0.035228142   -0.15668106     0.0018673133 
   1237000   0.049931622   -0.26802343     0.034891948   -0.15823888     0.00022574637
   1238000   0.049938399   -0.26785857     0.034601132   -0.15835468     0.00011883273
   1239000   0.050299786   -0.26760342     0.035302697   -0.15685591     0.00051354004
   1240000   0.050378165   -0.2679915      0.035122596   -0.15730653     0.00018409938
   1241000   0.050087463   -0.26762922     0.034935261   -0.15756761     0.0017211331 
   1242000   0.049863772   -0.26775276     0.035065129   -0.15789679     0.0011254548 
   1243000   0.049152177   -0.26807882     0.035736106   -0.15861921     0.00045285204
   1244000   0.050083483   -0.26764446     0.035376581   -0.1571475      0.00056803157
   1245000   0.049779959   -0.26806354     0.03497072    -0.1584277      0.0011529302 
   1246000   0.049327128   -0.26778        0.03493932    -0.15885476     0.0013956771 
   1247000   0.05006358    -0.26816821     0.035452404   -0.15762529     0.00012189893
   1248000   0.049972891   -0.26795327     0.035210405   -0.15778836     0.0018340432 
   1249000   0.049881162   -0.26792318     0.035640265   -0.157466       0.0010531261 
   1250000   0.049591354   -0.26822193     0.035170884   -0.15866882    -0.00013832132
   1251000   0.050091923   -0.26819081     0.035413692   -0.15764408     0.0013313187 
   1252000   0.049674431   -0.26838828     0.035908968   -0.15797247    -0.00014550257
   1253000   0.049843881   -0.26816426     0.035611182   -0.15779208     0.0017394284 
   1254000   0.050539471   -0.26818134     0.035275567   -0.15710145    -7.4146564e-05
   1255000   0.05001897    -0.26837928     0.035191091   -0.15816457     0.0013354489 
   1256000   0.050411927   -0.26849142     0.035279361   -0.15759905    -0.00036898689
   1257000   0.050213829   -0.26836673     0.035744715   -0.15730613    -0.0014708182 
   1258000   0.049225734   -0.2683718      0.035563742   -0.15897422     0.0017098364 
   1259000   0.049668693   -0.26831803     0.035153149   -0.15866665     0.00053269364
   1260000   0.049915761   -0.26861295     0.035146356   -0.15859779     0.0016660884 
   1261000   0.049992815   -0.26895495     0.034980616   -0.15898995     8.5298665e-06
   1262000   0.049495788   -0.26851378     0.034939938   -0.15933495     0.00039585223
   1263000   0.050068607   -0.26882855     0.03520806    -0.15852242     0.00023143435
   1264000   0.049917287   -0.26876671     0.035606834   -0.15828877     0.00086661321
   1265000   0.049949599   -0.26870776     0.035681385   -0.15810681    -0.00030294946
   1266000   0.049710508   -0.26901269     0.035418252   -0.15903349    -0.0010309949 
   1267000   0.049811095   -0.26888813     0.03506596    -0.15911035     0.0017854973 
   1268000   0.050280664   -0.26899417     0.035199526   -0.15837851     0.001392364  
   1269000   0.049641681   -0.26890292     0.035600195   -0.158845       0.0006496201 
   1270000   0.049883836   -0.26876039     0.035048083   -0.15889138     0.00046241859
   1271000   0.050442184   -0.26897456     0.035484201   -0.15783197     0.0017807203 
   1272000   0.049978543   -0.26927803     0.036087171   -0.15822788     0.00017471069
   1273000   0.050348006   -0.2695856      0.035322014   -0.15874645     0.0011427078 
   1274000   0.049648841   -0.26957143     0.035828553   -0.15927442     0.00095222243
   1275000   0.05016094    -0.26924206     0.035554523   -0.15845098     0.00024142418
   1276000   0.050182048   -0.26950135     0.035309858   -0.15892328     1.2921933e-05
   1277000   0.049825139   -0.26947596     0.035752384   -0.15899069     0.00028108647
   1278000   0.050359496   -0.26956576     0.035245493   -0.15878589     0.0023038532 
   1279000   0.050299901   -0.2696464      0.03536303    -0.15883838     0.00091388671
   1280000   0.049903657   -0.26962051     0.034739461   -0.1600304      0.00053900849
   1281000   0.049564321   -0.26961315     0.035729585   -0.15954188     0.0021623754 
   1282000   0.050060403   -0.2698202      0.035414426   -0.15932001     0.0010494506 
   1283000   0.049885309   -0.26995733     0.034939929   -0.16019427     0.00069916266
   1284000   0.049655289   -0.26993946     0.035823958   -0.15963738    -0.00017154262
   1285000   0.04993522    -0.26969862     0.035637835   -0.15916278     0.00028230524
   1286000   0.049406622   -0.27009822     0.035287977   -0.16070509     0.0013698429 
   1287000   0.049401946   -0.26958779     0.0352663     -0.16022335     0.0011651763 
   1288000   0.050016252   -0.27045444     0.035683279   -0.15975163     0.00073686511
   1289000   0.050696177   -0.27036711     0.035564041   -0.1587637      0.00095208852
   1290000   0.049987819   -0.27072299     0.036049355   -0.15969674    -0.0010721215 
   1291000   0.04979297    -0.27016631     0.034935811   -0.16054587    -0.0001255682 
   1292000   0.049816411   -0.2706413      0.03620965    -0.15971185     0.00070897765
   1293000   0.050192665   -0.27008667     0.035928262   -0.15887427     0.00016902989
   1294000   0.050203488   -0.27076567     0.035401179   -0.16006411     6.239216e-05 
   1295000   0.049986117   -0.27062136     0.035293309   -0.16035371     0.00013233642
   1296000   0.050325165   -0.27061659     0.034509066   -0.16062464     0.0010436956 
   1297000   0.049745275   -0.27027598     0.034757681   -0.1609052      0.0024056749 
   1298000   0.050211895   -0.27084263     0.035162026   -0.16036762     0.00098125582
   1299000   0.050064299   -0.27075009     0.035168866   -0.16048962     0.0014246292 
   1300000   0.049677305   -0.270606       0.036093469   -0.16000138     0.00075828569
   1301000   0.05010824    -0.27072379     0.035745375   -0.1598209      7.4804977e-06
   1302000   0.050095234   -0.27030047     0.035220629   -0.15994184     0.0012953203 
   1303000   0.050256237   -0.27090765     0.035330729   -0.16019743     0.00099803561
   1304000   0.050031497   -0.27097682     0.03511338    -0.16082104     4.5071676e-05
   1305000   0.049963256   -0.27094426     0.035382515   -0.1606217      0.00011390324
   1306000   0.050371231   -0.27096668     0.035608753   -0.15980596     0.0002171948 
   1307000   0.050504866   -0.27111528     0.035590201   -0.15977267    -0.00048909757
   1308000   0.049674425   -0.27083029     0.03598852    -0.16033494    -6.9261976e-05
   1309000   0.050069664   -0.27071854     0.035469864   -0.16014903     0.00064315101
   1310000   0.049627678   -0.27093023     0.03511455    -0.16137896     0.00081862367
   1311000   0.05023169    -0.27087622     0.035089828   -0.16044372     0.0006927275 
   1312000   0.04999942    -0.27090758     0.035663597   -0.16024969    -0.0007787068 
   1313000   0.049752114   -0.27105817     0.035546009   -0.1608888      0.0005067763 
   1314000   0.050532872   -0.27122601     0.034978437   -0.16045315     0.0018651283 
   1315000   0.049825146   -0.27143656     0.035838469   -0.16086519    -0.00048525113
   1316000   0.049780958   -0.27148495     0.035096435   -0.1617219      0.00050910122
   1317000   0.049657824   -0.27163266     0.035753536   -0.1613972      0.00066389565
   1318000   0.049997025   -0.27136626     0.034637054   -0.16173851     0.00070185287
   1319000   0.05013367    -0.27161329     0.035134606   -0.16128303     0.00095779   
   1320000   0.04986651    -0.2714023      0.035371145   -0.16123622     0.0010512047 
   1321000   0.049751681   -0.27158641     0.035572276   -0.16139143    -0.00090752064
   1322000   0.049823372   -0.27136608     0.035322468   -0.16131338     0.00079770579
   1323000   0.049630117   -0.27154712     0.035766041   -0.16134071     0.0014327672 
   1324000   0.05038209    -0.27142417     0.035296532   -0.16055938     0.00096435381
   1325000   0.050629891   -0.27152901     0.036045732   -0.15954334     0.00037035255
   1326000   0.050063495   -0.27136247     0.035985716   -0.16028636     0.0016191354 
   1327000   0.049550015   -0.27147759     0.035962156   -0.16119521    -0.00063076259
   1328000   0.050466207   -0.27173908     0.035500395   -0.16054425     0.0015153235 
   1329000   0.049977845   -0.27134802     0.03561279    -0.1607733      0.0013721289 
   1330000   0.049885471   -0.27185488     0.035712074   -0.16131943    -0.0013312263 
   1331000   0.049668655   -0.27215549     0.035744458   -0.16191285     0.00053372495
   1332000   0.050080414   -0.27189431     0.035111876   -0.16166665     0.00065198235
   1333000   0.050298233   -0.27172019     0.035406788   -0.16087092     5.1880416e-05
   1334000   0.050427216   -0.27185729     0.03533473    -0.16088662    -0.00037071714
   1335000   0.050206705   -0.27225397     0.03515647    -0.1617923      0.00065862368
   1336000   0.049374662   -0.27167533     0.035223333   -0.16239478     0.00098246946
   1337000   0.05024686    -0.2721327      0.035448856   -0.16131842    -0.00095848572
   1338000   0.050030299   -0.27197827     0.035262835   -0.16167483     0.0018128666 
   1339000   0.049857669   -0.27251902     0.035678638   -0.1620587     -0.00025737346
   1340000   0.050302442   -0.2724087      0.034598411   -0.16236149     0.0016691878 
   1341000   0.049779541   -0.27247292     0.035624718   -0.1621837     -0.00027421196
   1342000   0.050465021   -0.27206954     0.035607302   -0.16076959     0.0017422299 
   1343000   0.050253585   -0.2725246      0.03549958    -0.16164951     0.0015386529 
   1344000   0.049517614   -0.27233553     0.035440415   -0.16262349     0.00088150333
   1345000   0.050449677   -0.27251069     0.035470073   -0.16137098     0.0014596975 
   1346000   0.050552985   -0.27268001     0.035290574   -0.16156485    -9.8887265e-05
   1347000   0.050156457   -0.27238467     0.03525316    -0.16190168     0.0010606679 
   1348000   0.050165183   -0.27305653     0.035311241   -0.16250237     0.00033052756
   1349000   0.049865454   -0.27256216     0.035849271   -0.16191953     0.00082507185
   1350000   0.049891863   -0.27255962     0.035734787   -0.16199187     0.00021849145
   1351000   0.049499816   -0.27298715     0.035389667   -0.16335255    -0.00088266075
   1352000   0.049730928   -0.27277771     0.035333283   -0.16285285     0.00015798956
   1353000   0.050088477   -0.27304283     0.035467225   -0.16244773     3.3159693e-05
   1354000   0.049453046   -0.2729074      0.035653282   -0.16307933     0.0003521268 
   1355000   0.050317941   -0.27328255     0.035316597   -0.16249391    -0.00050184836
   1356000   0.049838755   -0.27284186     0.035333584   -0.16275497     0.00057064146
   1357000   0.049629292   -0.27279719     0.035202919   -0.16315514     0.00051736009
   1358000   0.049795698   -0.27300617     0.035508825   -0.16280862     0.00088461965
   1359000   0.050579547   -0.27279558     0.036195162   -0.16073599    -0.00045297732
   1360000   0.050129219   -0.27288609     0.035754331   -0.16194278     0.00036658184
   1361000   0.05000306    -0.27330282     0.035641344   -0.16266173     0.0013174899 
   1362000   0.049809852   -0.27252594     0.035625938   -0.16219005     0.0015958028 
   1363000   0.050171822   -0.27323915     0.035147055   -0.16283922    -0.00022393647
   1364000   0.049763915   -0.27305143     0.035638966   -0.16277141    -0.00010611322
   1365000   0.050811793   -0.27320296     0.035740379   -0.16124981     0.0010008708 
   1366000   0.049864426   -0.27270602     0.035092051   -0.16282215     0.0010255932 
   1367000   0.049994259   -0.27343248     0.035718535   -0.1627274      0.00073334384
   1368000   0.050091904   -0.27339847     0.035610446   -0.16265502     1.7111862e-06
   1369000   0.050096275   -0.27327163     0.035218699   -0.16291337     0.00092835705
   1370000   0.049607744   -0.27341384     0.035094243   -0.16391278    -9.5705451e-07
   1371000   0.049515605   -0.27325273     0.035225016   -0.16375909     0.00023251356
   1372000   0.049899086   -0.27312937     0.035264342   -0.16302122     0.0010266993 
   1373000   0.049418667   -0.27320121     0.035530924   -0.16354707     0.00064070912
   1374000   0.050105995   -0.2732165      0.034856782   -0.16320558     0.00017438907
   1375000   0.05008868    -0.27308665     0.035233476   -0.162725       0.0017154567 
   1376000   0.049748532   -0.2735888      0.035506737   -0.16346408    -0.00030249448
   1377000   0.049687286   -0.27369366     0.035041678   -0.16412586     0.00038983981
   1378000   0.049631125   -0.27387607     0.034425946   -0.16500824     0.00022893588
   1379000   0.049362234   -0.27368188     0.034765192   -0.16487811     0.0004876504 
   1380000   0.049865323   -0.27372892     0.03512639    -0.16380937    -0.00026248508
   1381000   0.049954129   -0.27383044     0.035660661   -0.16324342     0.0011578237 
   1382000   0.050311998   -0.27408616     0.034843807   -0.16377922     0.0011847105 
   1383000   0.050085994   -0.27387598     0.035195513   -0.16355633     0.00077397389
   1384000   0.050161195   -0.27341939     0.035280124   -0.16290233     0.00022745992
   1385000   0.049750421   -0.27365887     0.03517383    -0.16386422     0.00062362065
   1386000   0.050029454   -0.27376767     0.035396253   -0.16333208     0.0014633111 
   1387000   0.04986096    -0.27360497     0.035209724   -0.16360863     0.0010605985 
   1388000   0.050176504   -0.27379104     0.035430127   -0.16310102     0.00033303892
   1389000   0.050454153   -0.2737297      0.035219358   -0.162834       0.00076388711
   1390000   0.050180354   -0.27367493     0.035735901   -0.16267335    -7.2307502e-05
   1391000   0.050471636   -0.27404417     0.035499556   -0.16284205     0.00063463226
   1392000   0.049674752   -0.27363006     0.03554895    -0.16357379     0.0024884286 
   1393000   0.049678054   -0.27413363     0.035495882   -0.16412548     0.00010829856
   1394000   0.050141315   -0.27385893     0.035483747   -0.16316806     0.0012331273 
   1395000   0.049965543   -0.27431195     0.035386034   -0.16398243     0.00087684463
   1396000   0.049528638   -0.27452036     0.035664525   -0.16456767     0.00057340356
   1397000   0.049776591   -0.27439182     0.035660324   -0.16407143    -0.0009379139 
   1398000   0.050142671   -0.27446815     0.036279321   -0.16297968    -0.0014403826 
   1399000   0.050350033   -0.27408547     0.035108481   -0.16345681     0.0017106174 
   1400000   0.049373905   -0.27397136     0.035774896   -0.16414038     0.0010598121 
   1401000   0.049420058   -0.27456821     0.034868144   -0.16557477     0.0018665279 
   1402000   0.050588302   -0.27489169     0.034978558   -0.16403558     0.0005014098 
   1403000   0.050267786   -0.27518036     0.035330619   -0.16445293     0.00016246102
   1404000   0.049928405   -0.27489523     0.035517376   -0.16449008     0.001434987  
   1405000   0.049167876   -0.27475499     0.03515311    -0.16585482     0.00067273549
   1406000   0.049840934   -0.27492612     0.035437236   -0.1647323     -0.00050818885
   1407000   0.050216572   -0.27534694     0.035577985   -0.16444895     0.00053982762
   1408000   0.050046048   -0.27536764     0.035568572   -0.16473484    -0.00026487611
   1409000   0.050234061   -0.27520909     0.035099618   -0.16476324     0.0019556656 
   1410000   0.049809336   -0.27524293     0.035667286   -0.16486646     0.00027650298
   1411000   0.049942157   -0.2755372      0.035016917   -0.16561188     0.0013397203 
   1412000   0.049710004   -0.27509292     0.035950849   -0.16458187     0.00026551791
   1413000   0.049783933   -0.27558648     0.035707205   -0.16520819    -0.00028041584
   1414000   0.050042255   -0.27502931     0.035145609   -0.16482516     0.00023501655
   1415000   0.050044908   -0.27545847     0.035380413   -0.16501554     0.0012100824 
   1416000   0.049988461   -0.27549237     0.035518678   -0.16499584     0.00044471263
   1417000   0.049818774   -0.27545946     0.035945681   -0.16479044     1.9736197e-05
   1418000   0.049701588   -0.27501965     0.035685525   -0.16478656     0.00017338312
   1419000   0.049613976   -0.27540703     0.035139792   -0.16585107     0.0025572536 
   1420000   0.049837122   -0.27525513     0.035462773   -0.1650415     -0.00077411154
   1421000   0.05027607    -0.27544272     0.035405385   -0.1646281      0.0011898165 
   1422000   0.050174359   -0.27557012     0.036061274   -0.16425216    -0.00011893501
   1423000   0.049809372   -0.27562896     0.035396368   -0.16552335    -0.00039174721
   1424000   0.049576673   -0.27570595     0.035431159   -0.16591458    -0.00020137967
   1425000   0.050552791   -0.27563127     0.035081898   -0.16472507     0.0010788913 
   1426000   0.050801121   -0.27588129     0.035508946   -0.16417558     0.00059381757
   1427000   0.050464157   -0.27555129     0.035766698   -0.16409324     0.0005330051 
   1428000   0.050320576   -0.27606345     0.03576139    -0.16482606    -0.0007495639 
   1429000   0.050499999   -0.27592709     0.035156224   -0.16502576     0.00042941378
   1430000   0.049710637   -0.27601543     0.035526481   -0.16592781     9.5259439e-05
   1431000   0.050087824   -0.27593704     0.035022161   -0.16578799     0.00053321274
   1432000   0.050865865   -0.27642254     0.035398487   -0.16473017     0.00056574494
   1433000   0.049402374   -0.27608593     0.035729053   -0.1662581      0.00021803992
   1434000   0.049795311   -0.2759579      0.035528727   -0.16574102    -7.667723e-06 
   1435000   0.050386422   -0.27606852     0.035502866   -0.1649909      0.0010733743 
   1436000   0.049827627   -0.27594454     0.035685584   -0.16552234     0.001398794  
   1437000   0.049965339   -0.27587613     0.035345259   -0.1655877      0.00038823109
   1438000   0.050470202   -0.27641712     0.035969022   -0.16474768     0.00013567275
   1439000   0.050581409   -0.27613607     0.035515557   -0.16475329     0.00010189715
   1440000   0.049944924   -0.27620899     0.035842809   -0.16545362     0.00062727177
   1441000   0.050072248   -0.27617482     0.035499607   -0.16557169     0.00050688589
   1442000   0.050078107   -0.27655082     0.036070598   -0.16536791     6.0197056e-05
   1443000   0.05015187    -0.2765194      0.034692681   -0.16660377    -0.00059090776
   1444000   0.049883834   -0.27653111     0.035497495   -0.16621269     0.0010250445 
   1445000   0.049344878   -0.27704616     0.03561342    -0.1674202      0.0015099353 
   1446000   0.049227527   -0.27678936     0.035206871   -0.16774597     0.00045924633
   1447000   0.049666352   -0.27669337     0.035146916   -0.16705173     0.00061824477
   1448000   0.049994009   -0.27661988     0.03527382    -0.16635989     0.0015352993 
   1449000   0.050372109   -0.27675841     0.035704088   -0.16550103    -0.0015505785 
   1450000   0.049614508   -0.27681681     0.03570336    -0.16669649    -0.00090668341
   1451000   0.049915683   -0.27698461     0.035088104   -0.16702781     0.00065124206
   1452000   0.050178138   -0.27699748     0.035563718   -0.16617141     0.00084070838
   1453000   0.050129111   -0.27688043     0.035503736   -0.16618787    -0.00010778399
   1454000   0.050594904   -0.2766989      0.035796908   -0.16501453    -0.0015610621 
   1455000   0.049969335   -0.27658872     0.035398202   -0.16624135    -0.00010566081
   1456000   0.050042349   -0.2772089      0.03588283    -0.16626739    -0.00098026566
   1457000   0.050248646   -0.27709838     0.035930697   -0.16579958     0.0019816136 
   1458000   0.050056894   -0.2767837      0.035542969   -0.16616024     0.00010575332
   1459000   0.050176019   -0.27720979     0.035020662   -0.16692995     0.0003785111 
   1460000   0.049901381   -0.27700107     0.035851931   -0.16630189    -0.00080005785
   1461000   0.050269336   -0.27726255     0.035007472   -0.16685594     0.00048947606
   1462000   0.049751417   -0.27706206     0.035099922   -0.16733982     0.0012648596 
   1463000   0.049932482   -0.27728522     0.035064689   -0.16732664     0.00095736162
   1464000   0.049439528   -0.27696369     0.035792446   -0.16701674     0.00048526369
   1465000   0.050011694   -0.27725526     0.035985547   -0.16625701     0.00032099175
   1466000   0.049630621   -0.27738296     0.035705986   -0.16723584    -0.00014170092
   1467000   0.049634851   -0.27769684     0.035364301   -0.16788506     0.001101424  
   1468000   0.050295041   -0.2774757      0.034912643   -0.16712536    -0.00092957234
   1469000   0.049507269   -0.27790586     0.035540005   -0.16810974    -0.00047500989
   1470000   0.049929611   -0.27800545     0.034873866   -0.168242       0.00089227554
   1471000   0.049384612   -0.27773642     0.035675702   -0.16798858     0.0010900921 
   1472000   0.050245312   -0.27792662     0.035412335   -0.16715118     0.0010987845 
   1473000   0.050187012   -0.27768331     0.03510446    -0.16730319    -2.9817102e-06
   1474000   0.049961762   -0.27790803     0.035272248   -0.16769797     0.00090964276
   1475000   0.050150351   -0.27783279     0.035187619   -0.16742449     6.3790064e-05
   1476000   0.050138424   -0.27757462     0.035618273   -0.16675356     0.00037965862
   1477000   0.050151442   -0.27781171     0.035872159   -0.16671725     0.0013265818 
   1478000   0.050129779   -0.27786538     0.035864261   -0.1668113     -0.0007965643 
   1479000   0.049746423   -0.27798427     0.035771217   -0.16759823    -0.00036087581
   1480000   0.049785283   -0.27797109     0.035434302   -0.16786368     0.0022121517 
   1481000   0.049904394   -0.27802628     0.035270508   -0.16790401     0.0010726452 
   1482000   0.050180571   -0.27806786     0.035854677   -0.16694719     0.00048072197
   1483000   0.050144031   -0.27820953     0.035695622   -0.16730272     0.0005577114 
   1484000   0.050002141   -0.27830313     0.035423102   -0.16788165    -0.00072133156
   1485000   0.05048743    -0.27851208     0.03560466    -0.16718117     0.001023357  
   1486000   0.049721702   -0.27850301     0.035387365   -0.16853791    -0.00012151528
   1487000   0.049706569   -0.27856553     0.035566254   -0.16844424     0.0001716564 
   1488000   0.05001556    -0.27871247     0.034900323   -0.16879365     0.00065224765
   1489000   0.049946225   -0.2787109      0.035933297   -0.1678631      0.0019900068 
   1490000   0.049860634   -0.27854674     0.035372225   -0.16838839    -0.00061913762
   1491000   0.049961197   -0.27848636     0.0353458     -0.1682036      0.00011838733
   1492000   0.049917198   -0.27873917     0.034790719   -0.16907748     0.00063929039
   1493000   0.04909157    -0.27896352     0.035949389   -0.16938153     0.00034235717
   1494000   0.050156619   -0.27909151     0.034657279   -0.16920416     0.0020159208 
   1495000   0.049433547   -0.2790358      0.035760132   -0.16913013    -0.00049986471
   1496000   0.04979611    -0.27908481     0.035203261   -0.1691922      0.0017185523 
   1497000   0.050095949   -0.27928263     0.03524988    -0.16889367     0.00092942643
   1498000   0.049607744   -0.27934507     0.035370448   -0.16956781    -5.6593633e-05
   1499000   0.049941094   -0.27870758     0.035059931   -0.16874084     0.0016378589 
   1500000   0.050232601   -0.27915202     0.03600049    -0.16780749    -0.00030596562
   1501000   0.050193649   -0.27862345     0.035953882   -0.16738395    -0.00029515773
   1502000   0.050190798   -0.27903101     0.035494144   -0.16825553     0.00060132206
   1503000   0.050182794   -0.27899637     0.035714998   -0.16801204     0.00039236437
   1504000   0.050341643   -0.27929371     0.035602045   -0.16818407     0.00056882145
   1505000   0.049607024   -0.27891288     0.035708057   -0.16879908    -0.00030701623
   1506000   0.049304105   -0.27942878     0.035880191   -0.16959721    -0.00036298021
   1507000   0.049879741   -0.27913003     0.035889502   -0.16842574     6.9286919e-05
   1508000   0.049818322   -0.27973062     0.035983936   -0.16902403    -0.00033729301
   1509000   0.049742992   -0.27987266     0.035226094   -0.1700369      0.0011344477 
   1510000   0.049480628   -0.27994014     0.03530296    -0.17042102     0.00092662016
   1511000   0.049371275   -0.27996939     0.035371272   -0.17054599     0.00059519869
   1512000   0.050009024   -0.27912006     0.035406988   -0.16870438     0.001319785  
   1513000   0.050193385   -0.28015864     0.035324375   -0.16954905    -0.0003402077 
   1514000   0.049890454   -0.28000508     0.036106074   -0.16906815     0.00015141758
   1515000   0.049699254   -0.28028727     0.035658772   -0.17008443    -0.00027027426
   1516000   0.049854372   -0.28002734     0.035614628   -0.16963597    -0.0003602971 
   1517000   0.050416019   -0.2804727      0.036098554   -0.16875499     0.00029004368
   1518000   0.04990942    -0.28074914     0.036145802   -0.16974403     0.00078609866
   1519000   0.049917528   -0.28014511     0.035827425   -0.16944623     0.00041050725
   1520000   0.050129845   -0.28038824     0.035504091   -0.16969423    -0.00071831535
   1521000   0.050119767   -0.28018027     0.035983047   -0.16902242    -0.00098094399
   1522000   0.049702776   -0.27972374     0.035305907   -0.16986848     0.0016041063 
   1523000   0.050233562   -0.27992901     0.035355099   -0.16922843    -0.0001332521 
   1524000   0.050311697   -0.28013707     0.03556881    -0.16910559     0.0017497977 
   1525000   0.050278574   -0.28067359     0.035138209   -0.17012239     0.00015129366
   1526000   0.050182843   -0.28026813     0.036114281   -0.16888444    -2.1873718e-05
   1527000   0.05052731    -0.28009765     0.035447      -0.16886457     0.00045178531
   1528000   0.050726646   -0.28063938     0.036201463   -0.16835286    -5.1607157e-05
   1529000   0.050650245   -0.28120735     0.035824291   -0.1694126      0.00013245415
   1530000   0.049750435   -0.28075316     0.036023369   -0.17010895     0.0015290325 
   1531000   0.050136463   -0.28075673     0.035742581   -0.16981431    -0.000302879  
   1532000   0.050930079   -0.28122187     0.035830315   -0.16900136    -0.00022819356
   1533000   0.05000636    -0.28084544     0.03574919    -0.17009155    -0.00014461732
   1534000   0.050349012   -0.2803681      0.035635064   -0.16921439    -2.0515375e-05
   1535000   0.049924003   -0.2807194      0.03558846    -0.17024977     0.00082469577
   1536000   0.050108954   -0.2808662      0.035375952   -0.17033167     0.00062355395
   1537000   0.050152927   -0.28118383     0.035691167   -0.17026813    -0.0002842681 
   1538000   0.049834614   -0.28089852     0.035778554   -0.17037286    -0.00014800563
   1539000   0.049557885   -0.28093247     0.035119529   -0.17148091     0.00018890639
   1540000   0.050045415   -0.28091686     0.035629135   -0.17022445     0.00035541847
   1541000   0.050580385   -0.28079899     0.035511461   -0.16942184     0.0011122618 
   1542000   0.049622071   -0.28157279     0.035558444   -0.17158604     0.0011814027 
   1543000   0.049649842   -0.28108154     0.035443642   -0.17116794     0.00013944144
   1544000   0.049753034   -0.28111272     0.035273037   -0.17121495     0.0010338324 
   1545000   0.049774947   -0.2812291      0.035557633   -0.17101387     0.00048283508
   1546000   0.050221721   -0.28120151     0.035563498   -0.17031029     0.00065093281
   1547000   0.049965779   -0.28113375     0.035602191   -0.17058772     0.0012292361 
   1548000   0.050190932   -0.28138446     0.035606519   -0.1704964     -8.2826627e-05
   1549000   0.050719841   -0.28147203     0.03562297    -0.1697742      0.00091522017
   1550000   0.050189132   -0.28126166     0.035958479   -0.17002434     0.00010395261
   1551000   0.050009302   -0.28198101     0.035996032   -0.17097587    -3.5852615e-05
   1552000   0.049622825   -0.28166892     0.035894016   -0.17134547    -0.00076102273
   1553000   0.050300654   -0.28151829     0.035740553   -0.17033163     0.00026017943
   1554000   0.050132186   -0.28116443     0.035710754   -0.17026025    -0.00041527771
   1555000   0.050786381   -0.28154465     0.035516404   -0.16985359     0.00046548588
   1556000   0.050078697   -0.28192046     0.035658703   -0.17114856    -0.00099299309
   1557000   0.050129542   -0.28162976     0.035677938   -0.17076236     9.5760974e-05
   1558000   0.05038681    -0.28164726     0.035629024   -0.17044289     0.00097640854
   1559000   0.049757892   -0.28166336     0.035638099   -0.17139324     0.00082758415
   1560000   0.050458237   -0.28176631     0.035254993   -0.17082885     0.00021703204
   1561000   0.05040228    -0.28184852     0.035064468   -0.17118551     0.00086989355
   1562000   0.049838887   -0.2819175      0.035324763   -0.17183923    -0.00022278689
   1563000   0.049675807   -0.28169628     0.035660362   -0.17152702     0.00061277817
   1564000   0.050244125   -0.28195951     0.035505083   -0.1710931      0.0012122425 
   1565000   0.050149554   -0.28200139     0.035655741   -0.17112617     0.0011428047 
   1566000   0.049930312   -0.28222099     0.03565639    -0.17167396    -0.00047943119
   1567000   0.049820374   -0.2823129      0.035873068   -0.17171409     0.00064736438
   1568000   0.050100193   -0.28229437     0.035219598   -0.17192933     0.0030302001 
   1569000   0.049783767   -0.28272704     0.035679128   -0.17237707     0.00077493971
   1570000   0.049420104   -0.28269439     0.035227958   -0.17334106     0.00059306668
   1571000   0.049606659   -0.2823084      0.035148876   -0.17275434     0.00061704999
   1572000   0.05038221    -0.28237982     0.036182972   -0.17062841    -0.00055552823
   1573000   0.050018606   -0.28239491     0.035803525   -0.17156832    -0.00081618487
   1574000   0.050131199   -0.28236743     0.035460577   -0.17171491     2.9398276e-05
   1575000   0.049779159   -0.28245304     0.035719663   -0.17206946     0.00072533816
   1576000   0.050289477   -0.28282904     0.035755026   -0.17164467     0.0010766201 
   1577000   0.050029338   -0.28278097     0.035555641   -0.17218616    -0.00046506559
   1578000   0.04956975    -0.28319295     0.035581842   -0.17326128     0.0018095333 
   1579000   0.049950216   -0.28283377     0.036163053   -0.17175023    -0.00038584448
   1580000   0.050557057   -0.28309026     0.035485589   -0.17177398     0.0021402916 
   1581000   0.050745793   -0.28268308     0.035859322   -0.17070998     0.00067865929
   1582000   0.04941836    -0.28304263     0.036241268   -0.17267861     0.0011492719 
   1583000   0.050424316   -0.28307606     0.035765888   -0.17167857     0.00065801054
   1584000   0.049946272   -0.28296973     0.035670233   -0.17238492     0.001753021  
   1585000   0.050021691   -0.28298999     0.035306443   -0.17265585    -0.00021572067
   1586000   0.049932788   -0.2830018      0.035543458   -0.172564       0.00027567069
   1587000   0.050441578   -0.28362309     0.035490181   -0.17247543     0.00037822661
   1588000   0.049926775   -0.28340529     0.035391564   -0.1731284      0.00072276226
   1589000   0.050331674   -0.28348186     0.03511851    -0.17287071    -0.00031936829
   1590000   0.0499259     -0.2833229      0.035604418   -0.17283447    -0.00078897201
   1591000   0.050147444   -0.28317233     0.035257529   -0.17269848     0.0013148745 
   1592000   0.050683493   -0.28371898     0.035733547   -0.1719651      0.0013430391 
   1593000   0.049678717   -0.28332587     0.035525401   -0.1732872      0.001454085  
   1594000   0.049961833   -0.28319649     0.035042315   -0.17321626    -0.00027473767
   1595000   0.049979513   -0.28366869     0.035873852   -0.17283041     0.00078171238
   1596000   0.049435144   -0.28318054     0.035620579   -0.17341203     0.00057328474
   1597000   0.050123577   -0.28321095     0.035020361   -0.17301008     0.00080759389
   1598000   0.050203444   -0.2837257      0.035655819   -0.17276958    -8.365528e-05 
   1599000   0.050198093   -0.28356871     0.035122257   -0.17315417     0.000512303  
   1600000   0.050003655   -0.28345727     0.036068852   -0.17238777     0.00020955708
   1601000   0.050648634   -0.28372161     0.03564206    -0.1721115      0.00046590658
   1602000   0.05014003    -0.28365462     0.036466481   -0.17198294     0.00057278075
   1603000   0.050560273   -0.28358373     0.035615506   -0.17213271     0.00062292152
   1604000   0.049810697   -0.28388394     0.035564948   -0.17360776    -0.00021540557
   1605000   0.049808419   -0.28408701     0.035785551   -0.17359366    -0.00067394534
   1606000   0.050024974   -0.2836282      0.036458868   -0.17213671     0.00055257434
   1607000   0.049949196   -0.2832859      0.035883755   -0.17248319     0.0018476086 
   1608000   0.049711018   -0.28366537     0.036486022   -0.17261763     0.00043146136
   1609000   0.050427514   -0.28409353     0.035585711   -0.17287143    -0.00013626442
   1610000   0.050485109   -0.28359455     0.035658866   -0.17221291     0.00026236002
   1611000   0.049580258   -0.28411042     0.035682514   -0.17406232     0.0015297343 
   1612000   0.049819626   -0.28402485     0.035420388   -0.17387984    -8.9171843e-05
   1613000   0.049729373   -0.28337295     0.035299542   -0.17348416     0.00052987593
   1614000   0.050561393   -0.28417582     0.035376853   -0.17296177     4.1457304e-05
   1615000   0.050533937   -0.28400107     0.035630373   -0.17257469     0.00044349922
   1616000   0.05027897    -0.28395546     0.035536207   -0.17300566     0.00078778313
   1617000   0.05047809    -0.28431263     0.035465639   -0.17313474    -0.00032137081
   1618000   0.049493152   -0.28347096     0.035245962   -0.17399006     0.0010647598 
   1619000   0.049772193   -0.28370682     0.035024427   -0.17402892     0.00089669563
   1620000   0.050351507   -0.28420257     0.03485985    -0.17382033    -0.00026612703
   1621000   0.050359864   -0.2843697      0.035823813   -0.17301096    -0.00033925795
   1622000   0.050053919   -0.28423704     0.035703585   -0.17345743     0.00019391363
   1623000   0.050201323   -0.28445446     0.035050403   -0.17410693     0.001052987  
   1624000   0.050402746   -0.28434417     0.035231666   -0.17351326     0.00042644164
   1625000   0.050036417   -0.28453558     0.035470281   -0.17401552    -0.0011791969 
   1626000   0.04991828    -0.28461942     0.03547359    -0.17427324     0.00098414304
   1627000   0.049963331   -0.28480897     0.035848063   -0.17402074     0.0002674862 
   1628000   0.0500247     -0.28487907     0.035407587   -0.17443928     0.00097274831
   1629000   0.050129983   -0.28488024     0.03583538    -0.17385474     0.00054267626
   1630000   0.050038109   -0.2851854      0.035812515   -0.17432056     0.00023916982
   1631000   0.050063689   -0.28486926     0.035615164   -0.17416341     0.0020236803 
   1632000   0.049641774   -0.28506151     0.035754989   -0.17484866     2.3064706e-05
   1633000   0.050301815   -0.2849395      0.035357964   -0.17413368     0.00019184081
   1634000   0.050046468   -0.28524053     0.035665209   -0.17451046     0.0017539135 
   1635000   0.05000218    -0.28520425     0.03580467    -0.17440115     0.00036656295
   1636000   0.050395022   -0.28515498     0.03567283    -0.1738945     -3.6427594e-05
   1637000   0.04990292    -0.28519592     0.036311881   -0.17403449    -0.00077036522
   1638000   0.050378524   -0.28515173     0.035929183   -0.17365963    -0.0004034786 
   1639000   0.050378117   -0.2848904      0.035171805   -0.17415629     0.0017068217 
   1640000   0.049379862   -0.28545542     0.035340561   -0.17604984     0.00041923035
   1641000   0.049947272   -0.28557683     0.034963036   -0.17569772    -0.00015849784
   1642000   0.049934153   -0.28521355     0.035536414   -0.17478074     0.00069469294
   1643000   0.049557921   -0.2852872      0.035545248   -0.17540986    -0.0014018799 
   1644000   0.04991045    -0.28522526     0.035767469   -0.17459695     0.00048753757
   1645000   0.050561505   -0.28545791     0.035653688   -0.17396686    -0.00028389288
   1646000   0.050349948   -0.28538015     0.035385053   -0.17447505     0.0015059129 
   1647000   0.049731573   -0.28545486     0.035193983   -0.17566833     0.0002322302 
   1648000   0.050153159   -0.2853073      0.035590586   -0.17449183     0.00080088659
   1649000   0.049652289   -0.28511856     0.035422594   -0.17522234     0.00088988684
   1650000   0.049322723   -0.28553467     0.035310802   -0.17624456     0.00064025507
   1651000   0.049483975   -0.28550205     0.035920341   -0.17536054    -0.00056752418
   1652000   0.050405047   -0.28559274     0.03516599    -0.17482405     0.0010043973 
   1653000   0.050342966   -0.28536178     0.035538145   -0.17431406     0.00031000013
   1654000   0.049329682   -0.2855869      0.036104213   -0.17549293     0.00039555601
   1655000   0.049866489   -0.28565721     0.035598245   -0.17526406    -0.00013099897
   1656000   0.049636915   -0.28567945     0.035520541   -0.17570834    -0.00063280402
   1657000   0.049719176   -0.2854335      0.036311775   -0.17454778     0.001303712  
   1658000   0.050464557   -0.28586411     0.035522329   -0.17464983    -0.00028666438
   1659000   0.050193719   -0.28607908     0.036282072   -0.17451129     0.00017314895
   1660000   0.04997022    -0.28581236     0.035847551   -0.17501432     0.0011257335 
   1661000   0.04986575    -0.28575493     0.036121782   -0.17483935     0.0012081925 
   1662000   0.05020965    -0.28569395     0.035834057   -0.17455027    -3.5337076e-05
   1663000   0.050524424   -0.28599437     0.035406073   -0.17480655     0.0006909297 
   1664000   0.049934728   -0.28590478     0.036375861   -0.17463166     0.0028846347 
   1665000   0.050095974   -0.28573664     0.035612329   -0.1749852     -0.00035899743
   1666000   0.049511533   -0.28582736     0.035545436   -0.17601942    -0.00096612065
   1667000   0.050142989   -0.28587522     0.034980674   -0.17568491     0.0017061589 
   1668000   0.049986107   -0.28605162     0.03561501    -0.17546229     0.0010287171 
   1669000   0.050082715   -0.28666038     0.035796277   -0.17574487     0.00079233896
   1670000   0.04933106    -0.28620796     0.035099254   -0.17711689     0.0024334807 
   1671000   0.049982264   -0.28614946     0.035480256   -0.17570064    -0.0003853294 
   1672000   0.049748456   -0.28670148     0.035423949   -0.17665966     0.00081336538
   1673000   0.050050832   -0.28625165     0.035516352   -0.17566389     0.0011035391 
   1674000   0.050126668   -0.28633927     0.035603085   -0.17555103     0.00067994614
   1675000   0.049868243   -0.28642388     0.035785157   -0.17584119    -0.0004288337 
   1676000   0.050162039   -0.28601191     0.036204774   -0.17456893    -0.00027922241
   1677000   0.050510566   -0.28597852     0.036088621   -0.17412894     0.00059449918
   1678000   0.050216544   -0.28624103     0.03628493    -0.17463615    -0.00034657253
   1679000   0.049947507   -0.28664497     0.035801139   -0.1759274      0.00045212205
   1680000   0.049585108   -0.28658644     0.035752094   -0.17646148    -8.0721321e-05
   1681000   0.05052887    -0.28628169     0.035737369   -0.17475591     0.0012361856 
   1682000   0.049967922   -0.28657184     0.036100251   -0.17552454    -0.00052446221
   1683000   0.049943533   -0.28681054     0.035700691   -0.17619938     0.00015845585
   1684000   0.050131403   -0.28663307     0.035470385   -0.17597044     0.00080810627
   1685000   0.050244255   -0.28644343     0.035158119   -0.17592379     0.0021842078 
   1686000   0.049268526   -0.28697494     0.035404348   -0.17767257     0.00025103749
   1687000   0.049388119   -0.28710162     0.034556731   -0.17846749     0.00092575708
   1688000   0.049875075   -0.28670982     0.035071153   -0.17683088     0.0023652518 
   1689000   0.049473107   -0.2873079      0.035624367   -0.17747866     0.00018304162
   1690000   0.05050571    -0.2874435      0.035313796   -0.17637603     0.00042999046
   1691000   0.050049805   -0.28744595     0.035517255   -0.17685883     0.00087233654
   1692000   0.049952019   -0.28727033     0.035609383   -0.17673776     0.0014051105 
   1693000   0.050174603   -0.28682972     0.034973299   -0.17659937     0.0010697354 
   1694000   0.049867516   -0.2869813      0.035383589   -0.17680127     0.0003431624 
   1695000   0.050026088   -0.28719696     0.035688284   -0.17647439     0.0012140223 
   1696000   0.050216729   -0.28726581     0.035317484   -0.17662809     0.00067926426
   1697000   0.050334124   -0.28716221     0.03513603    -0.17652986     0.00059981418
   1698000   0.049982056   -0.28771127     0.035388377   -0.17735465     0.00043659095
   1699000   0.049869722   -0.28730102     0.035347943   -0.17715332     0.00058479659
   1700000   0.049724232   -0.28739412     0.036652846   -0.17615974     0.0015236227 
   1701000   0.050390185   -0.28730046     0.035265834   -0.17645423    -0.00019993255
   1702000   0.05100303    -0.28728131     0.035917251   -0.17486445    -0.0006406703 
   1703000   0.049991154   -0.28716503     0.036098703   -0.17608444     0.00032106614
   1704000   0.050216373   -0.28721606     0.036030226   -0.17586613     6.9044513e-05
   1705000   0.050605251   -0.28745843     0.035680683   -0.17587477     7.8167108e-05
   1706000   0.050370145   -0.28735182     0.035583628   -0.17621785     0.00074573453
   1707000   0.050452633   -0.2871259      0.035300428   -0.1761514      0.00090385281
   1708000   0.050378924   -0.28745912     0.035652808   -0.1762428      0.0005784245 
   1709000   0.049973665   -0.28795367     0.035796464   -0.17720155     0.00080180554
   1710000   0.049896709   -0.28775473     0.035220796   -0.1776937      0.0012433365 
   1711000   0.049994418   -0.28749322     0.035168434   -0.177338       0.00056219115
   1712000   0.04977499    -0.28791115     0.035953909   -0.17729957    -0.00072359509
   1713000   0.050508554   -0.28791337     0.035294659   -0.17686077     0.00098152254
   1714000   0.049757637   -0.28801889     0.035972187   -0.17741507     0.00065595608
   1715000   0.049707677   -0.28825435     0.036416778   -0.17728086     2.700694e-05 
   1716000   0.05017342    -0.28814759     0.035681697   -0.17721062    -5.3641858e-05
   1717000   0.05042921    -0.28801127     0.035294227   -0.17707811     0.0018037251 
   1718000   0.049776788   -0.28787456     0.03595176    -0.17726244    -0.0004006977 
   1719000   0.050200806   -0.28755008     0.035472202   -0.17678153     0.00062154944
   1720000   0.050132733   -0.28825755     0.035895936   -0.17716737    -0.00055178171
   1721000   0.050122004   -0.28784837     0.035289408   -0.17738081     0.0011399508 
   1722000   0.049371601   -0.28818161     0.035701671   -0.17842731     0.00077744339
   1723000   0.050269144   -0.28814626     0.035748396   -0.17699901    -0.00015334144
   1724000   0.050068387   -0.28837053     0.035488018   -0.17778478     0.00011833111
   1725000   0.049769857   -0.28821218     0.035425552   -0.17813666     0.00073358378
   1726000   0.049888326   -0.28804025     0.035820884   -0.17739171     0.00057644866
   1727000   0.050635043   -0.2879029      0.035034176   -0.17692106     0.0003780045 
   1728000   0.050066934   -0.28836048     0.035619989   -0.17764493    -0.00099765588
   1729000   0.049812635   -0.288086       0.035178382   -0.17819348     5.462353e-05 
   1730000   0.049851301   -0.28816639     0.035436586   -0.17795768    -0.0010902279 
   1731000   0.049885635   -0.28847629     0.035388824   -0.17826384     0.00087172952
   1732000   0.049802771   -0.28873616     0.035433372   -0.17860345    -0.00027992448
   1733000   0.050229945   -0.28850076     0.035558063   -0.17760264     0.00060954063
   1734000   0.050407974   -0.28862067     0.035724445   -0.17728914     0.0008028172 
   1735000   0.050185708   -0.28908201     0.035135522   -0.17867278    -0.00073706892
   1736000   0.049836263   -0.28897547     0.035774065   -0.17845183    -0.00074837003
   1737000   0.050037545   -0.28891028     0.035466582   -0.17839223    -0.00025241697
   1738000   0.049855992   -0.28892494     0.035943345   -0.17820243     0.00032078488
   1739000   0.050254722   -0.28877915     0.035571555   -0.17783038     0.0006306966 
   1740000   0.050339739   -0.28876329     0.03595502    -0.17730353     0.00059562515
   1741000   0.050200799   -0.28898623     0.035739676   -0.17795021     0.0002593813 
   1742000   0.049900327   -0.2888933      0.035698847   -0.17834879    -0.00094066942
   1743000   0.050409582   -0.28891154     0.03567839    -0.17762365     6.87025e-05  
   1744000   0.049703254   -0.28881241     0.035735803   -0.17852653    -0.00038650068
   1745000   0.049596006   -0.2890982      0.035292171   -0.17941682     0.00043450873
   1746000   0.049443623   -0.28950514     0.035581323   -0.17976316    -0.00029196361
   1747000   0.049795743   -0.28913823     0.035627187   -0.17882225    -0.00036761205
   1748000   0.049559247   -0.28920444     0.035597496   -0.17927287     0.0011465434 
   1749000   0.050367671   -0.28889907     0.035909745   -0.17744269     0.000713311  
   1750000   0.050185292   -0.2888336      0.035952772   -0.17760775     0.00067259972
   1751000   0.050409006   -0.28882142     0.035934784   -0.177278       0.0015466261 
   1752000   0.050025549   -0.28907366     0.035041637   -0.17899854    -5.5971173e-05
   1753000   0.049663337   -0.28913139     0.035806166   -0.17883503     0.00028152015
   1754000   0.050362595   -0.28926804     0.035483015   -0.17824601     0.0016952846 
   1755000   0.04996334    -0.28902512     0.035863476   -0.17822147     0.0006544491 
   1756000   0.05003195    -0.28922173     0.035824991   -0.17835365     0.00061716205
   1757000   0.049729935   -0.28870675     0.035898234   -0.17821843     0.0012053097 
   1758000   0.050395353   -0.28922397     0.03465886    -0.17897696     0.00086826459
   1759000   0.049614964   -0.28965492     0.035886409   -0.17935087     0.0015980953 
   1760000   0.04965773    -0.2893325      0.035377812   -0.1794729      0.00045818646
   1761000   0.049957638   -0.28921357     0.03482838    -0.17945357     0.00046795524
   1762000   0.04938264    -0.28925125     0.035303412   -0.17987866    -0.0003918266 
   1763000   0.050248059   -0.28925833     0.035225209   -0.1786659      0.0003611396 
   1764000   0.050531982   -0.28925714     0.034857125   -0.17860693     0.00037422612
   1765000   0.050292394   -0.28900754     0.035956395   -0.17761742    -0.0004226435 
   1766000   0.050203784   -0.28861735     0.03569891    -0.17761762     0.0025942247 
   1767000   0.049962113   -0.28924761     0.035758328   -0.17855095     0.00046295278
   1768000   0.049831054   -0.28954463     0.03567134    -0.17913153     0.0013104973 
   1769000   0.050376576   -0.28930893     0.035480374   -0.17826857     0.0007738796 
   1770000   0.049483533   -0.28963832     0.036169817   -0.17924799    -0.0010898677 
   1771000   0.050332695   -0.28976352     0.035302143   -0.1789672      0.00083442223
   1772000   0.049867375   -0.2891209      0.035113776   -0.17921089     0.0011929288 
   1773000   0.049680697   -0.2891006      0.036064916   -0.17851945    -6.5097172e-05
   1774000   0.050257621   -0.28948761     0.035102151   -0.17900389     0.0001399688 
   1775000   0.050098531   -0.28947209     0.035577875   -0.17875127    -0.00060053339
   1776000   0.049950747   -0.28973151     0.034968703   -0.17984152     0.00025495082
   1777000   0.050617175   -0.28943656     0.035575743   -0.17793995     0.00039878506
   1778000   0.04984915    -0.28963818     0.035801136   -0.17906815     0.00025395635
   1779000   0.050465547   -0.28966813     0.03589267    -0.17808203     0.0012380542 
   1780000   0.049545372   -0.28927522     0.035537015   -0.17942494     0.00051996658
   1781000   0.049959042   -0.28991507     0.035779233   -0.17920211     5.9167125e-05
   1782000   0.050247244   -0.29007046     0.035441992   -0.17926247     0.0012811386 
   1783000   0.049891242   -0.29011702     0.035901706   -0.17938328    -0.00047802179
   1784000   0.050166878   -0.28991617     0.035728858   -0.17894185     0.00039239458
   1785000   0.049320219   -0.29000557     0.035298927   -0.18073109     0.00093703638
   1786000   0.04962214    -0.29013933     0.03572487    -0.17998606    -0.00053368553
   1787000   0.049929566   -0.29027079     0.035685678   -0.1796956      0.00019685579
   1788000   0.050063091   -0.29021337     0.035068168   -0.18005541    -0.00087264817
   1789000   0.050044775   -0.29044383     0.035615015   -0.1797665      0.00098777926
   1790000   0.049601361   -0.28988826     0.035448028   -0.18004299     0.0006153839 
   1791000   0.050445566   -0.28981823     0.035288903   -0.17886586     0.00069692984
   1792000   0.049766475   -0.28992916     0.035449421   -0.17983484     0.0017841047 
   1793000   0.050242649   -0.29022724     0.035600204   -0.17926792     0.0023256663 
   1794000   0.050440864   -0.29059045     0.035831591   -0.17910244    -0.00031378483
   1795000   0.050162172   -0.29040908     0.035918932   -0.17925174     0.0012237703 
   1796000   0.04946673    -0.28992216     0.035398503   -0.18032835     0.00051148897
   1797000   0.04986297    -0.29059023     0.035350022   -0.18045058    -4.5404496e-05
   1798000   0.05078731    -0.29040455     0.035691037   -0.17853746     0.0010545766 
   1799000   0.050078857   -0.29012178     0.035790907   -0.17921744    -0.00087396672
   1800000   0.05021411    -0.29045451     0.035900562   -0.17923765     0.00014681641
   1801000   0.049984542   -0.29019009     0.035871176   -0.17934694     0.00024117853
   1802000   0.050121137   -0.29037307     0.03576451    -0.1794317     -0.00015435008
   1803000   0.05025977    -0.29057231     0.035751587   -0.17943593     0.00015796686
   1804000   0.050045955   -0.29045631     0.035523119   -0.17986911     0.00019060269
   1805000   0.05011737    -0.29095157     0.035776559   -0.18000381     0.00023079904
   1806000   0.049458672   -0.29077518     0.035054488   -0.18153747    -0.00089924753
   1807000   0.049217911   -0.29046632     0.03599561    -0.1806486     -0.0011889516 
   1808000   0.049794555   -0.29037468     0.034999222   -0.18068844     0.0013561199 
   1809000   0.049862342   -0.29094444     0.035472264   -0.18068349    -0.00082588399
   1810000   0.049850228   -0.29073027     0.035764232   -0.18019552     0.00036371316
   1811000   0.050350387   -0.29077769     0.035491217   -0.17976577    -0.00061056477
   1812000   0.050700295   -0.29095617     0.035879778   -0.17903085     0.0012278743 
   1813000   0.049900605   -0.2906499      0.035475453   -0.18032837     0.0018022969 
   1814000   0.049767773   -0.29050878     0.035719044   -0.18014289     0.00017171215
   1815000   0.050320588   -0.29086006     0.035541356   -0.17984269     0.0011121757 
   1816000   0.049620683   -0.29048124     0.035612554   -0.18044247     0.00083529233
   1817000   0.050032571   -0.29081684     0.03529983    -0.180473       0.00091275514
   1818000   0.05015304    -0.29096775     0.035570726   -0.18017231     0.0012982361 
   1819000   0.050021541   -0.29097747     0.035316133   -0.18063387     4.0369089e-05
   1820000   0.050308507   -0.29117551     0.035307321   -0.1804103      0.00030546289
   1821000   0.050581878   -0.29110335     0.03576775    -0.17946768     0.001076645  
   1822000   0.050287662   -0.29119331     0.035795908   -0.17997078     0.00055001869
   1823000   0.049728185   -0.29069869     0.03565667    -0.18045456     0.0001119134 
   1824000   0.049959272   -0.29110675     0.035376955   -0.18079572     0.00037428316
   1825000   0.04969445    -0.29112748     0.035646858   -0.18094375     0.00075386632
   1826000   0.050472359   -0.29114485     0.035104171   -0.18033703     0.0003293756 
   1827000   0.050219172   -0.29110821     0.03522086    -0.18056346     0.0005197481 
   1828000   0.049856667   -0.29124298     0.036100933   -0.18036187     0.00079965813
   1829000   0.049908638   -0.29069308     0.036450795   -0.17938415     0.00084484952
   1830000   0.050011655   -0.29098937     0.035549795   -0.18042694    -2.6374609e-05
   1831000   0.050025364   -0.29091153     0.036035238   -0.17984308     0.00040897263
   1832000   0.049830501   -0.29118276     0.035347145   -0.18109469    -0.00018268972
   1833000   0.050032027   -0.29114025     0.035484158   -0.18061289     0.00055108024
   1834000   0.050098613   -0.29081903     0.035946754   -0.17972921     0.0015499957 
   1835000   0.050254573   -0.29097576     0.035349294   -0.18024947     0.0004953354 
   1836000   0.050232929   -0.29093487     0.035071072   -0.18051926     0.0016443819 
   1837000   0.049964981   -0.29152856     0.035184754   -0.18140117     0.00091924371
   1838000   0.049602195   -0.29125913     0.036041715   -0.18081892    -0.0015699681 
   1839000   0.050401005   -0.29106404     0.035387981   -0.18007943     0.00029479502
   1840000   0.049547438   -0.29154773     0.035669253   -0.18156211    -7.9647854e-05
   1841000   0.049935061   -0.29152055     0.035018946   -0.18160385     0.00074150216
   1842000   0.050014665   -0.29169717     0.035887378   -0.18079264     0.0003155613 
   1843000   0.049862628   -0.29163105     0.035302232   -0.18153971    -0.00044083183
   1844000   0.04954211    -0.29170753     0.035608149   -0.18179101     0.0013387627 
   1845000   0.050204517   -0.29159405     0.035248092   -0.18104404     0.0016237672 
   1846000   0.05009565    -0.29141924     0.035112204   -0.18116841    -0.00036565321
   1847000   0.049637629   -0.29156249     0.035550473   -0.18156038     0.00032801428
   1848000   0.049712715   -0.29168475     0.036242004   -0.18087848    -0.0012296774 
   1849000   0.049601383   -0.29153196     0.035600341   -0.18153434     0.00081265079
   1850000   0.050331803   -0.2914916      0.036126822   -0.17987194    -2.0952468e-05
   1851000   0.049976352   -0.29126081     0.035883943   -0.18041717     0.0012736985 
   1852000   0.050357371   -0.29147308     0.035978586   -0.17996331     0.00049637943
   1853000   0.049928431   -0.2911796      0.035275744   -0.18101604    -6.41676e-05  
   1854000   0.049837428   -0.29133634     0.03541984    -0.18116518    -0.00032701873
   1855000   0.049724271   -0.29137853     0.035907677   -0.18088926    -0.00028003059
   1856000   0.049701923   -0.29174612     0.035511968   -0.18168607    -0.00039794428
   1857000   0.049670405   -0.29148244     0.035383094   -0.18159854    -5.792141e-05 
   1858000   0.050244414   -0.29183876     0.035765669   -0.18071134     0.00030794201
   1859000   0.050470092   -0.29195847     0.03522978    -0.18102844     0.0013656851 
   1860000   0.049915564   -0.29210472     0.035838054   -0.18139815     0.0018123933 
   1861000   0.049906645   -0.2916892      0.035704519   -0.18112954     0.0003726123 
   1862000   0.049799211   -0.29134238     0.035610387   -0.181038      -0.0001839895 
   1863000   0.050008514   -0.29134905     0.035198941   -0.18114218     0.0013817079 
   1864000   0.050274083   -0.29186606     0.035268072   -0.18119173    -0.00044745741
   1865000   0.050336894   -0.29203642     0.035967056   -0.18056889     7.3235156e-05
   1866000   0.049787494   -0.29181255     0.035246662   -0.18188946     0.0018077343 
   1867000   0.050006444   -0.291653       0.035743291   -0.18090488     0.0014791458 
   1868000   0.050339069   -0.2921244      0.03473412    -0.18188655     0.0014616587 
   1869000   0.04955647    -0.2920173      0.034925879   -0.18276152     0.0012293773 
   1870000   0.049300239   -0.2923008      0.035700033   -0.18265518    -0.00044219857
   1871000   0.049550255   -0.29233129     0.035050164   -0.18296054     0.0020097129 
   1872000   0.051012059   -0.2924159      0.035942327   -0.17996043    -0.00051801429
   1873000   0.05029538    -0.29218753     0.035943741   -0.18080558     0.0012991613 
   1874000   0.050215154   -0.29181061     0.035662665   -0.18083007    -6.2405851e-05
   1875000   0.049765549   -0.29172956     0.036185373   -0.18090068     0.0011588699 
   1876000   0.049954918   -0.29187954     0.03549192    -0.18146008     0.00024499536
   1877000   0.05034358    -0.29222513     0.035350027   -0.18136461     0.00070693208
   1878000   0.050191005   -0.29182002     0.035088891   -0.18144948     0.0015840264 
   1879000   0.050090462   -0.29211057     0.035590099   -0.18138962     0.0010354704 
   1880000   0.050639197   -0.29223621     0.035514543   -0.18076777     0.00083579758
   1881000   0.050101874   -0.29230263     0.035749957   -0.18140471     7.8280503e-05
   1882000   0.050275536   -0.29226131     0.036058591   -0.18079428     0.0010010335 
   1883000   0.0503873     -0.29191935     0.036354204   -0.17998907     0.0010584054 
   1884000   0.050312627   -0.29197186     0.036198395   -0.18030939    -2.9091331e-05
   1885000   0.050004832   -0.29179064     0.035256117   -0.18153212     0.00052320596
   1886000   0.049904353   -0.29201829     0.035222442   -0.18194414    -0.00030026334
   1887000   0.050323175   -0.29187495     0.035657986   -0.18073707     0.00015061603
   1888000   0.050114476   -0.29189879     0.036144672   -0.18058725     0.0014130083 
   1889000   0.050934061   -0.29210946     0.036019602   -0.1796937     -4.019547e-05 
   1890000   0.049531127   -0.29171349     0.035336219   -0.18208538     0.00046639594
   1891000   0.050175413   -0.29212363     0.035797959   -0.1810674      0.00042408762
   1892000   0.050283577   -0.29218148     0.035231469   -0.18152952     0.00036242221
   1893000   0.050400949   -0.29215331     0.03568331    -0.18087345     0.00040697398
   1894000   0.04972982    -0.29194109     0.035680573   -0.1816706     -0.00013855867
   1895000   0.049995128   -0.29219613     0.034742529   -0.18246575     0.0010727691 
   1896000   0.050113286   -0.29226648     0.035498521   -0.18160288    -0.00040264514
   1897000   0.050366917   -0.2922334      0.035423729   -0.18126417     0.001425172  
   1898000   0.049937003   -0.29260883     0.035097048   -0.18261111     0.0015495149 
   1899000   0.049566849   -0.29214591     0.03561197    -0.18218846     0.00083050465
   1900000   0.049878173   -0.29261514     0.036081497   -0.18172121    -0.0012269087 
   1901000   0.05004344    -0.29209583     0.035336023   -0.18169949     0.00079652511
   1902000   0.050381193   -0.29256107     0.035333573   -0.18166058     0.00089122421
   1903000   0.04963797    -0.29224258     0.035300274   -0.18249016     5.4445307e-05
   1904000   0.049448034   -0.29222465     0.035394803   -0.18266258     0.00062722845
   1905000   0.04992695    -0.29255523     0.035299984   -0.18236965    -8.938834e-05 
   1906000   0.049776597   -0.29280568     0.035464247   -0.18268136    -0.00014205881
   1907000   0.050368784   -0.29253914     0.03519703    -0.1817938      0.0002425624 
   1908000   0.049962977   -0.29263889     0.036301835   -0.18139742    -0.0003687645 
   1909000   0.049975473   -0.29244405     0.035695605   -0.18179007     0.0013920128 
   1910000   0.049997205   -0.29295352     0.035114994   -0.18284756     0.00050154647
   1911000   0.050118405   -0.29266685     0.035532012   -0.18196208     0.00090217142
   1912000   0.050717693   -0.29280388     0.035646981   -0.18108527    -0.00030454248
   1913000   0.050212042   -0.2923092      0.035823286   -0.18117271     0.0014607975 
   1914000   0.049710345   -0.29244702     0.035842121   -0.18204419     0.00049816871
   1915000   0.049809439   -0.29267175     0.035435741   -0.18252667    -3.0608868e-05
   1916000   0.04975575    -0.29263274     0.035735569   -0.18226836     0.00086759543
   1917000   0.050366611   -0.29256061     0.03574025    -0.18127531    -0.00025272735
   1918000   0.049524605   -0.29250794     0.035911233   -0.18231459     0.00081832807
   1919000   0.049781621   -0.29299022     0.03571567    -0.18260694     0.0004225432 
   1920000   0.049901349   -0.29288628     0.035648319   -0.18239076     9.4958418e-05
   1921000   0.049752236   -0.29262833     0.035906932   -0.18209786     0.00089875358
   1922000   0.050264932   -0.29268836     0.03499454    -0.18230129    -0.00057351048
   1923000   0.049735571   -0.2924029      0.035146236   -0.18265812     0.00032321123
   1924000   0.049843121   -0.29276036     0.036398733   -0.18160177     0.00074297079
   1925000   0.05026529    -0.29267099     0.035500681   -0.18177724    -1.790623e-05 
   1926000   0.050156743   -0.29305669     0.03597232    -0.1818541     -0.00024487153
   1927000   0.050385205   -0.29298899     0.035803678   -0.18161238    -0.00074174594
   1928000   0.05011296    -0.29277286     0.035468342   -0.18213992    -0.00024367533
   1929000   0.050208804   -0.2926907      0.036038688   -0.18134367     0.0003628386 
   1930000   0.050054432   -0.29297703     0.035648056   -0.18225217     0.00088226253
   1931000   0.050212452   -0.29313034     0.035703439   -0.18211308     0.00016801173
   1932000   0.050318911   -0.29296461     0.036925707   -0.18056541    -0.00072887483
   1933000   0.050603977   -0.29292625     0.035687756   -0.18133743     0.00089945751
   1934000   0.050356838   -0.29322299     0.036205187   -0.18148742    -0.00026595959
   1935000   0.050074548   -0.29309914     0.035386516   -0.18260565     0.0014231621 
   1936000   0.050077451   -0.29322292     0.03567547    -0.18243612     0.0014545677 
   1937000   0.050001784   -0.29259378     0.036133855   -0.18146209     0.001167455  
   1938000   0.050161153   -0.2933336      0.035822188   -0.18227454    -0.00037822889
   1939000   0.049987665   -0.2935585      0.035740823   -0.18284102     0.0012416961 
   1940000   0.050280031   -0.29303302     0.035595673   -0.18202217    -0.0010227365 
   1941000   0.050441372   -0.29339509     0.036255344   -0.18148257     0.00038919603
   1942000   0.050164474   -0.2934574      0.035647219   -0.18256833     0.00063944051
   1943000   0.049886517   -0.29333747     0.035545344   -0.18296718    -0.0017631558 
   1944000   0.04986356    -0.29348933     0.035855223   -0.18284359    -2.8447285e-06
   1945000   0.049621688   -0.29357498     0.03556101    -0.18358624    -0.00010302206
   1946000   0.050037948   -0.29319673     0.034996312   -0.18314834     0.0015159813 
   1947000   0.050259406   -0.29322148     0.035744908   -0.18209233     0.00032253317
   1948000   0.049979223   -0.29362535     0.035375539   -0.18328582     0.0003483848 
   1949000   0.049975351   -0.29336128     0.035282006   -0.18312109     0.00087764555
   1950000   0.050326932   -0.29329383     0.035423134   -0.18238517     0.00019675293
   1951000   0.050424636   -0.29296158     0.035023095   -0.18230641     0.0011284353 
   1952000   0.050881962   -0.29311577     0.035854629   -0.18094312     2.8574189e-05
   1953000   0.049964816   -0.29360364     0.03586962    -0.18279163    -0.00086935788
   1954000   0.050285403   -0.29324411     0.035191929   -0.18262894     3.7085756e-05
   1955000   0.050397783   -0.29326345     0.034853766   -0.18281789     0.0010750369 
   1956000   0.050026047   -0.29378305     0.035539333   -0.18320949    -0.00013704363
   1957000   0.049530597   -0.29364335     0.035830777   -0.18352147     0.00075549332
   1958000   0.049484363   -0.29348831     0.035721182   -0.18354538     0.0011741492 
   1959000   0.04979223    -0.29373627     0.035479311   -0.18357344     0.00057865477
   1960000   0.04993444    -0.29388572     0.03599244    -0.18299645     0.00058732851
   1961000   0.050337892   -0.29370282     0.035219242   -0.18298161     0.0013764286 
   1962000   0.050367789   -0.29374655     0.035844585   -0.18235515    -1.352956e-05 
   1963000   0.050252104   -0.29383052     0.036245604   -0.18221162     0.00079470676
   1964000   0.050213943   -0.29371421     0.035763338   -0.18263481    -0.00061802658
   1965000   0.049771947   -0.29390364     0.035199265   -0.18405127     0.0009941325 
   1966000   0.050094409   -0.29404192     0.03590882    -0.18299633     0.00085268839
   1967000   0.049827475   -0.29398194     0.0360657     -0.18317985     0.00046147217
   1968000   0.050093139   -0.29387379     0.035795318   -0.18294361    -6.2786641e-05
   1969000   0.049441985   -0.29410588     0.035847637   -0.18410005    -3.3281668e-05
   1970000   0.050380265   -0.29408286     0.035863278   -0.18265407     0.00059398556
   1971000   0.049508513   -0.29369945     0.03552701    -0.18391446     0.00020744615
   1972000   0.04962683    -0.29393059     0.035525722   -0.18396943     0.0020927325 
   1973000   0.049523214   -0.29416179     0.035330599   -0.18455116     0.0012416096 
   1974000   0.050269535   -0.29408558     0.035851122   -0.18283502     0.0010418906 
   1975000   0.049596543   -0.29402411     0.035398425   -0.18423567     0.00023349442
   1976000   0.05055059    -0.29373151     0.035872015   -0.1820385      0.0022275278 
   1977000   0.049797802   -0.29392476     0.035828263   -0.18340461     0.00014593406
   1978000   0.049565246   -0.29398023     0.035741217   -0.18389594     0.0013354504 
   1979000   0.050032876   -0.29389661     0.03614614    -0.182706      -0.0011328916 
   1980000   0.050214706   -0.293926       0.035776783   -0.18283202    -0.00020092472
   1981000   0.049771704   -0.29397638     0.035208459   -0.18411518     0.00032470783
   1982000   0.05004665    -0.29406658     0.035629834   -0.18337161     0.0010598649 
   1983000   0.049707243   -0.29399943     0.035950773   -0.1834926     -0.00048420103
   1984000   0.049840843   -0.29389863     0.035565503   -0.18357669     1.7195228e-05
   1985000   0.049435672   -0.29394927     0.035834945   -0.1839656      0.0016188443 
   1986000   0.049899017   -0.29410876     0.035671996   -0.18359307     0.00066674779
   1987000   0.048965657   -0.29418619     0.035601326   -0.18514112     0.00033088086
   1988000   0.04947707    -0.29431486     0.03480468    -0.18529936     0.0010097601 
   1989000   0.049786437   -0.29405747     0.035598819   -0.18378381     0.00035781607
   1990000   0.050011934   -0.29438        0.035701593   -0.18366535     0.00012440604
   1991000   0.050482468   -0.29399404     0.035668523   -0.1826067      0.0011553324 
   1992000   0.050073541   -0.29430511     0.035694343   -0.1835053      0.00076903829
   1993000   0.049835719   -0.29449097     0.036045443   -0.18369677    -0.00021423889
   1994000   0.04965617    -0.29406901     0.035541722   -0.18404784    -0.00011827765
   1995000   0.049495069   -0.2942276      0.035728895   -0.18426089     0.00088238087
   1996000   0.049870004   -0.29415363     0.035817439   -0.18353601     0.0012597698 
   1997000   0.050405379   -0.29419215     0.035620373   -0.18296859     0.0007089118 
   1998000   0.050248521   -0.29416664     0.035217154   -0.18358157     0.00045091572
   1999000   0.050554617   -0.29477429     0.035689631   -0.18325763    -0.00070999045
   2000000   0.049784036   -0.29460272     0.035586494   -0.18434499     0.00026394399
   2001000   0.050277438   -0.29444345     0.035297027   -0.18373514     0.00058774703
   2002000   0.049802213   -0.29429976     0.035207907   -0.18439335     0.00028547604
   2003000   0.049682655   -0.2945564      0.035089281   -0.18494794     0.0023335893 
   2004000   0.050270029   -0.29434998     0.036056529   -0.18289327     0.00013598206
   2005000   0.050073815   -0.29430177     0.035893028   -0.18330287     0.00018687562
   2006000   0.049886776   -0.29393233     0.03596914    -0.18313786     0.00125061   
   2007000   0.049990824   -0.29436509     0.035299455   -0.18408423    -9.6496659e-06
   2008000   0.050402999   -0.29447192     0.035492491   -0.1833798      0.0016805849 
   2009000   0.050256403   -0.2945743      0.034857578   -0.18433698     0.0004399782 
   2010000   0.04987963    -0.29441865     0.035193272   -0.18441076    -0.0010047373 
   2011000   0.04979105    -0.29411647     0.035674414   -0.1837603      0.00018761689
   2012000   0.049886251   -0.29460015     0.036095572   -0.18368003    -0.00023888274
   2013000   0.049791599   -0.29434099     0.035752261   -0.18390615    -0.00054091913
   2014000   0.04981732    -0.29452529     0.035396642   -0.18440749     0.001317306  
   2015000   0.049904665   -0.2945098      0.035363682   -0.18429395     5.7603437e-05
   2016000   0.049602803   -0.29447751     0.036158791   -0.18391932    -0.001021488  
   2017000   0.049769187   -0.29427854     0.035366853   -0.18426272     0.0016697152 
   2018000   0.049374695   -0.29443929     0.035613727   -0.1847683      0.0015545629 
   2019000   0.050018009   -0.29433911     0.035330052   -0.18398689     0.0007302505 
   2020000   0.049604308   -0.29435274     0.035161239   -0.18478984     0.0016738605 
   2021000   0.050542908   -0.29458027     0.035333812   -0.18343699     0.0013912454 
   2022000   0.049701767   -0.29431692     0.035718467   -0.18405061     2.5856599e-05
   2023000   0.050061452   -0.29491081     0.036093772   -0.18372971     0.00052316752
   2024000   0.049767536   -0.29475083     0.035833348   -0.18427099     0.0017573648 
   2025000   0.050132807   -0.29464309     0.03585229    -0.18359644     0.00011180335
   2026000   0.049622228   -0.29446005     0.035076236   -0.18495528     0.0007652572 
   2027000   0.04998836    -0.29456443     0.03475635    -0.18483038     0.00011995076
   2028000   0.049741002   -0.29517519     0.035650183   -0.18491831     0.00038060245
   2029000   0.04990558    -0.29468914     0.034631697   -0.1852039      0.00012108193
   2030000   0.049690853   -0.29506062     0.035341388   -0.18518777     0.00055024818
   2031000   0.049955129   -0.29539774     0.036199221   -0.18427066    -0.00019531839
   2032000   0.04995497    -0.29519647     0.035504549   -0.1847643     -0.00034359925
   2033000   0.049622442   -0.2952342      0.035346348   -0.18545899     0.00048103627
   2034000   0.049609096   -0.29506749     0.035290813   -0.18536784     0.0013725279 
   2035000   0.049680072   -0.29510349     0.035623424   -0.18496476    -0.0015516544 
   2036000   0.050298232   -0.29558374     0.035059554   -0.18508171    -0.00012875853
   2037000   0.050293469   -0.29547283     0.035450895   -0.1845866      0.0014267123 
   2038000   0.050422133   -0.29498362     0.035584962   -0.18377034     0.0016275628 
   2039000   0.050844286   -0.29517743     0.035570902   -0.18334502    -6.2653941e-05
   2040000   0.049705922   -0.29513595     0.035592203   -0.18498968    -0.00067257269
   2041000   0.049772483   -0.29540016     0.035574333   -0.18517192     0.00025742662
   2042000   0.050137675   -0.29528749     0.035415214   -0.18467062     0.00013069495
   2043000   0.049819174   -0.29523733     0.035664827   -0.18484856    -0.00052786663
   2044000   0.049985391   -0.29539963     0.03560215    -0.18482423     0.00068672967
   2045000   0.050159532   -0.29603518     0.035363103   -0.18543763     0.0001226471 
   2046000   0.049851432   -0.29569252     0.035534183   -0.18538601     0.0010896814 
   2047000   0.049854722   -0.29559329     0.035712678   -0.18510336     0.00031591042
   2048000   0.049440859   -0.29563141     0.035944484   -0.18553042    -0.0013723135 
   2049000   0.049853859   -0.29556173     0.035534903   -0.18525086    -0.00012828987
   2050000   0.050002767   -0.29584386     0.035664159   -0.18518039     0.0011538869 
   2051000   0.050084172   -0.29591187     0.035973425   -0.18481703     2.3603138e-05
   2052000   0.049596071   -0.29569013     0.035206922   -0.1860939      0.0010496748 
   2053000   0.050431807   -0.29544963     0.035902879   -0.18390392     0.0013123826 
   2054000   0.050149755   -0.29563468     0.035883295   -0.1845316      0.0012134172 
   2055000   0.050123416   -0.29516851     0.035453798   -0.18453444     0.00095203657
   2056000   0.050319895   -0.29562662     0.035719464   -0.18443219     0.00081318745
   2057000   0.049773523   -0.29571038     0.036263195   -0.18479171    -0.00021683259
   2058000   0.050390389   -0.29595722     0.035887176   -0.18448933     0.00048545925
   2059000   0.050158187   -0.29590408     0.035805459   -0.1848662     -0.00059952071
   2060000   0.049807891   -0.29583923     0.035554697   -0.18557752     0.0013934104 
   2061000   0.050488308   -0.29588585     0.036009064   -0.18414921     0.00077156896
   2062000   0.050149862   -0.296137       0.035581349   -0.18533571     0.0003022891 
   2063000   0.05008974    -0.29552496     0.035431421   -0.18496377     0.0004176556 
   2064000   0.050075524   -0.29604091     0.035499679   -0.18543279     0.00035607043
   2065000   0.050142774   -0.2957484      0.035734635   -0.18480445    -0.00012931553
   2066000   0.05000576    -0.29546639     0.035818793   -0.18464379     0.001058332  
   2067000   0.050080391   -0.29592625     0.035455867   -0.18535464     4.600814e-06 
   2068000   0.050003488   -0.29576965     0.03553664    -0.18523262     0.00069051606
   2069000   0.05041751    -0.29623259     0.035233736   -0.18537747    -0.00025689359
   2070000   0.049898665   -0.29572247     0.035890373   -0.18498893     0.0015741899 
   2071000   0.050081903   -0.2960356      0.035372942   -0.18554465     0.00044391945
   2072000   0.049531241   -0.29596123     0.035656269   -0.18601289     0.00088182949
   2073000   0.049877656   -0.29614098     0.035756227   -0.1855731      8.691299e-05 
   2074000   0.049733496   -0.29560157     0.035777575   -0.18522856    -0.00085991872
   2075000   0.050055675   -0.29617074     0.035456435   -0.18563564    -0.00058510846
   2076000   0.049952789   -0.29621441     0.035587413   -0.18570264     8.4275356e-05
   2077000   0.049786007   -0.29622433     0.035317955   -0.18623218     0.00027642098
   2078000   0.050056739   -0.29600858     0.035190418   -0.1857379      0.00041462607
   2079000   0.049873061   -0.29602667     0.035838536   -0.18538336    -0.00019845246
   2080000   0.05014353    -0.29605645     0.035586459   -0.18525955     0.0012032467 
   2081000   0.050401954   -0.2956881      0.035523362   -0.18456668     0.0013243071 
   2082000   0.050268668   -0.29559218     0.035739279   -0.18445476     0.00010345138
   2083000   0.050668571   -0.29620098     0.035743479   -0.18445955     0.0016773302 
   2084000   0.049603891   -0.29627206     0.036076474   -0.18579455    -0.0010879441 
   2085000   0.050214159   -0.29599887     0.035227572   -0.18545492     0.00042828481
   2086000   0.049992885   -0.29634923     0.035517417   -0.18584733     8.5330896e-05
   2087000   0.050032909   -0.29594417     0.035528267   -0.18537138     0.00088493917
   2088000   0.049972143   -0.2965199      0.035796397   -0.18577013     0.0011975682 
   2089000   0.049605765   -0.2960769      0.036063434   -0.18560962     0.00042029496
   2090000   0.049849693   -0.29615149     0.035676304   -0.18570547     0.0010446008 
   2091000   0.050148007   -0.29582575     0.035616745   -0.18499185     0.00080250117
   2092000   0.04965095    -0.29602052     0.035586411   -0.18596249    -0.00037512396
   2093000   0.05065804    -0.29614036     0.035156686   -0.18500152     0.001839882  
   2094000   0.049781127   -0.29587099     0.03523846    -0.18596566    -0.00047318747
   2095000   0.049700112   -0.29611196     0.035269798   -0.1862968      0.00041959407
   2096000   0.049769592   -0.29637477     0.035621405   -0.1861038      0.00068495943
   2097000   0.049911262   -0.29622398     0.035302764   -0.18605915     0.0012969416 
   2098000   0.049626109   -0.29619155     0.035537405   -0.18621979     9.3834686e-05
   2099000   0.049306326   -0.29636078     0.035826684   -0.18657937     0.00097668216
   2100000   0.04993371    -0.29614777     0.035342402   -0.18590963     0.00071027904
   2101000   0.049531279   -0.29639094     0.03566951    -0.18642931     0.00033223995
   2102000   0.049690833   -0.29616438     0.035152516   -0.18648042     0.00083363291
   2103000   0.05031449    -0.29631918     0.035763797   -0.18508852     0.00060237333
   2104000   0.049675412   -0.29635183     0.035176703   -0.18666682     0.00073620256
   2105000   0.049902518   -0.29665755     0.035886428   -0.18592217    -0.00033410251
   2106000   0.0500826     -0.29636841     0.035836871   -0.18541248     0.0013836491 
   2107000   0.049754214   -0.2962177      0.0355738     -0.18601739     0.0012711328 
   2108000   0.050533455   -0.29647944     0.035857861   -0.18482629     0.0013774083 
   2109000   0.049804198   -0.29611898     0.035533406   -0.1858841      0.00022443815
   2110000   0.050164617   -0.29639499     0.035598116   -0.1855548      0.001517297  
   2111000   0.049523793   -0.29619686     0.035992494   -0.18592347     0.0018688657 
   2112000   0.050331712   -0.29637828     0.035356052   -0.18552953     0.0010541725 
   2113000   0.049528135   -0.29635832     0.035519111   -0.1865518     -4.2310109e-06
   2114000   0.049989221   -0.29659991     0.03517591    -0.186445       0.0011262851 
   2115000   0.049414247   -0.296288       0.035971817   -0.18619959    -0.0011013091 
   2116000   0.050843708   -0.29657996     0.035416706   -0.18490262     0.0018897354 
   2117000   0.049989262   -0.29659568     0.035963371   -0.18565325     0.0010408147 
   2118000   0.049882524   -0.29636675     0.035783048   -0.18576474     0.00059675722
   2119000   0.050162215   -0.29667035     0.035876579   -0.18555531    -1.011929e-05 
   2120000   0.050040075   -0.29653082     0.036030668   -0.18544488     0.00037156279
   2121000   0.050597846   -0.296442       0.036360932   -0.18418919     0.0005326312 
   2122000   0.050824064   -0.29646676     0.035917287   -0.1843183      0.00029995814
   2123000   0.049982603   -0.296733       0.035176781   -0.18658715     0.0014332452 
   2124000   0.049683824   -0.2969973      0.035836449   -0.18663992    -0.00035886412
   2125000   0.049778703   -0.29675998     0.03539694    -0.1866998      0.00093144869
   2126000   0.050133807   -0.2969607      0.035040666   -0.18672417    -0.00063738274
   2127000   0.04966589    -0.29694564     0.035823087   -0.18662852     0.00019932435
   2128000   0.050230663   -0.29708876     0.036251752   -0.18549587     0.00017611426
   2129000   0.050132463   -0.29710402     0.035315343   -0.18659483     0.001038666  
   2130000   0.050082257   -0.29711956     0.035974075   -0.18602694     0.0010828963 
   2131000   0.050332166   -0.29770454     0.035901367   -0.18630979     0.00048155143
   2132000   0.049928394   -0.29725008     0.0361415     -0.18622082     0.0011752589 
   2133000   0.049822209   -0.29750391     0.035550885   -0.18722453     0.0007881722 
   2134000   0.050173727   -0.29741036     0.035765777   -0.18638885     0.00037597803
   2135000   0.050275159   -0.29774323     0.035349755   -0.1869856      0.00035956016
   2136000   0.049577283   -0.29756912     0.035602955   -0.18760504     0.00012364843
   2137000   0.049480579   -0.29762763     0.036058221   -0.18735332    -0.00062035506
   2138000   0.04996285    -0.29783561     0.035590411   -0.18730576     0.0014297748 
   2139000   0.049773164   -0.29791516     0.035836822   -0.18742341     0.0002092126 
   2140000   0.050079655   -0.2979152      0.035131735   -0.18766882     0.00068755968
   2141000   0.05037849    -0.29772394     0.035798558   -0.18636253     5.5647551e-05
   2142000   0.049901704   -0.2979115      0.036279261   -0.18678451    -0.00069612991
   2143000   0.049690866   -0.29760073     0.036190509   -0.18687873     0.00065954488
   2144000   0.049592297   -0.29776233     0.035440906   -0.18793778     0.0009402894 
   2145000   0.04953991    -0.29787588     0.035972302   -0.1875985     -0.00067818465
   2146000   0.049982806   -0.29856013     0.035306748   -0.18828401     0.00046823085
   2147000   0.05012921    -0.29824298     0.035870151   -0.18718386     0.0020242625 
   2148000   0.050465098   -0.29803578     0.035212739   -0.18713028     7.4252136e-05
   2149000   0.049863164   -0.29814027     0.035666823   -0.18768353     2.9683291e-05
   2150000   0.049865368   -0.29812144     0.035536699   -0.18779152     0.00052899543
   2151000   0.050145335   -0.29786737     0.035954643   -0.18669957    -0.00014833126
   2152000   0.04983409    -0.29795601     0.035314866   -0.18789483     0.0010633203 
   2153000   0.049829115   -0.29815295     0.035670958   -0.18774314     0.00019571462
   2154000   0.049888495   -0.29760999     0.035207424   -0.18757465     0.001022505  
   2155000   0.049976588   -0.29794628     0.03579964    -0.1871866      0.00020006314
   2156000   0.049844742   -0.29789337     0.035931072   -0.18720001     0.00058401839
   2157000   0.050224012   -0.29798594     0.035071444   -0.18758334     0.0012926305 
   2158000   0.050750638   -0.29814913     0.035173795   -0.18685429     0.00040498615
   2159000   0.049950476   -0.29792633     0.036004533   -0.18700092     9.2537215e-05
   2160000   0.049863152   -0.29797126     0.036000107   -0.18718126    -0.00010269352
   2161000   0.049932616   -0.29813343     0.036036872   -0.18720247    -8.7753607e-05
   2162000   0.050066141   -0.29780062     0.035438536   -0.18726772     0.00068358781
   2163000   0.050760643   -0.29822326     0.034986162   -0.18710104     0.0021483783 
   2164000   0.049480408   -0.29812638     0.035227616   -0.18868294     0.00099177567
   2165000   0.050228182   -0.29820707     0.035297538   -0.18757212     0.00028730526
   2166000   0.049664961   -0.29809823     0.03513827    -0.18846732     0.0011858386 
   2167000   0.050347982   -0.29828077     0.035416697   -0.18734697    -0.00035549888
   2168000   0.050397557   -0.29798827     0.035364902   -0.18703191    -0.0006347978 
   2169000   0.049877514   -0.29858986     0.035982124   -0.18779629     0.00028637828
   2170000   0.050212708   -0.29857361     0.035907769   -0.18735164     0.00012014142
   2171000   0.050038255   -0.29814072     0.035259618   -0.18782857     0.00059523111
   2172000   0.049834755   -0.29862737     0.035763767   -0.18811629    -0.00077935092
   2173000   0.049855861   -0.29858025     0.035502701   -0.18829858     0.00074507633
   2174000   0.049617801   -0.29878618     0.03570648    -0.1886578     -0.00038356663
   2175000   0.050384421   -0.29877037     0.035863691   -0.18733492    -0.00022508692
   2176000   0.049469017   -0.2986125      0.036051386   -0.18836237     0.00047225715
   2177000   0.049599755   -0.29871737     0.035752805   -0.18856974    -0.00057610034
   2178000   0.050317261   -0.29864433     0.035212506   -0.1879608      0.00014631926
   2179000   0.050215007   -0.2985937      0.035656188   -0.18761986    -0.00094917841
   2180000   0.049328086   -0.29855788     0.035939996   -0.18863053     0.00059862838
   2181000   0.050104542   -0.29853914     0.036353544   -0.18703363    -4.9849597e-06
   2182000   0.05079354    -0.29884024     0.035311367   -0.18734348     0.00018656025
   2183000   0.050192106   -0.2986209      0.035784382   -0.18755322     0.00045670946
   2184000   0.049762694   -0.29876499     0.034881743   -0.18924402    -0.00010803063
   2185000   0.049799397   -0.29872714     0.035390615   -0.18864225    -0.00072634601
   2186000   0.049880841   -0.29909617     0.035012467   -0.18926727     5.1232043e-05
   2187000   0.049748022   -0.29912237     0.035914162   -0.18859099     0.00035105782
   2188000   0.049791257   -0.298831       0.035649506   -0.18849943     0.00037198791
   2189000   0.05032403    -0.29878047     0.036191167   -0.18710813     4.7341955e-06
   2190000   0.050223225   -0.29908491     0.035863694   -0.18789124    -0.00043026908
   2191000   0.049669197   -0.29898532     0.03541309    -0.18907324     0.00082463788
   2192000   0.049790656   -0.29879251     0.035798532   -0.18831282     0.0012132455 
   2193000   0.049556601   -0.29904793     0.035801452   -0.18891637     5.6449176e-05
   2194000   0.049764864   -0.29862904     0.036405009   -0.18758156     0.00035322329
   2195000   0.050156769   -0.29851473     0.035795051   -0.18748938     0.0012550613 
   2196000   0.049630376   -0.29880913     0.035596371   -0.18877199     0.00052701219
   2197000   0.050080255   -0.29879798     0.035891642   -0.1877908      0.00076695439
   2198000   0.050088419   -0.29873849     0.035693197   -0.18791751     0.0012916647 
   2199000   0.05005832    -0.29889672     0.035598362   -0.18821573     0.00061933791
   2200000   0.049713277   -0.29879078     0.035765004   -0.18846068    -0.00082256657
   2201000   0.050208163   -0.29916771     0.035752755   -0.18810757    -0.00038824308
   2202000   0.049950602   -0.29877456     0.035713444   -0.18814004     0.0016014876 
   2203000   0.050492975   -0.29881759     0.035845026   -0.18723799     0.00055120882
   2204000   0.050040339   -0.29839682     0.036155821   -0.18718533     0.00075433497
   2205000   0.050101234   -0.29898602     0.035776461   -0.18806256     0.00054686383
   2206000   0.049954492   -0.29911106     0.035718482   -0.18846567     0.00065999695
   2207000   0.04961839    -0.29924368     0.035173679   -0.18964722    -0.00033217878
   2208000   0.0503048     -0.29908122     0.035262655   -0.18836623     0.00046505512
   2209000   0.050096916   -0.29876729     0.036015752   -0.18761102     0.0013633621 
   2210000   0.050112879   -0.29890955     0.035715928   -0.18802915     0.0016292098 
   2211000   0.049876514   -0.29913149     0.035482218   -0.18883932     0.00055375244
   2212000   0.049808881   -0.29941434     0.03580621    -0.18889963     0.0011205758 
   2213000   0.050451408   -0.2992181      0.035630214   -0.18791565     0.00054296673
   2214000   0.050022485   -0.29885176     0.035754531   -0.18806835    -0.00014552187
   2215000   0.050335838   -0.29930859     0.035319754   -0.18848995     0.00049559011
   2216000   0.050497899   -0.29964384     0.03528633    -0.18861554     0.0010541058 
   2217000   0.049832466   -0.29935531     0.035824036   -0.18878739    -0.0010230548 
   2218000   0.04981372    -0.29965889     0.035657274   -0.18928585     0.00041532813
   2219000   0.050191765   -0.29968728     0.03530659    -0.1890979      7.6991632e-05
   2220000   0.050665481   -0.29920175     0.035755425   -0.187453       0.0010655551 
   2221000   0.050357071   -0.29914393     0.036286523   -0.18732668     0.00056352368
   2222000   0.049784949   -0.29971711     0.035861167   -0.18918334     0.00063108963
   2223000   0.049443315   -0.29959192     0.035645002   -0.18978673     0.00013494768
   2224000   0.050186526   -0.29945781     0.035461409   -0.18872146     0.00011800907
   2225000   0.050119296   -0.29952583     0.035970865   -0.18838087    -0.00014972022
   2226000   0.049731019   -0.29953639     0.036080653   -0.18886402    -0.00011652   
   2227000   0.050209651   -0.29935077     0.034854831   -0.18918632     0.0014569162 
   2228000   0.049340184   -0.29949897     0.03624627    -0.1892472     -0.00084637887
   2229000   0.049937377   -0.29949498     0.035505091   -0.18908866     0.00012273867
   2230000   0.050117838   -0.2996453      0.035304623   -0.18916877     0.0004325017 
   2231000   0.04991544    -0.29953745     0.035819541   -0.18884958     8.3933874e-05
   2232000   0.049596571   -0.29987759     0.036053287   -0.18943424     0.00079604081
   2233000   0.049885667   -0.29951897     0.035357838   -0.18933746    -6.1306036e-05
   2234000   0.049916559   -0.29910038     0.035533535   -0.18869683     0.0007868376 
   2235000   0.049487816   -0.29967249     0.035538667   -0.18990688     0.0005747223 
   2236000   0.049941329   -0.29985147     0.035835771   -0.18910854    -2.5491449e-05
   2237000   0.049790969   -0.29941947     0.036065591   -0.18867224    -0.00021208344
   2238000   0.050602772   -0.2992979      0.035213874   -0.18818476     0.0027121896 
   2239000   0.049808707   -0.29969772     0.03547325    -0.18951623     0.0008061708 
   2240000   0.049553407   -0.29933332     0.036102333   -0.18890568    -0.0013285907 
   2241000   0.050283836   -0.29953798     0.036255005   -0.18786209     0.0021912113 
   2242000   0.050352648   -0.29992186     0.035973786   -0.18842398     0.0018545114 
   2243000   0.050183029   -0.30000477     0.035788559   -0.18894652     0.00058934659
   2244000   0.050025964   -0.30000328     0.035588729   -0.18938045     0.00076713502
   2245000   0.05016464    -0.29993982     0.03618804    -0.18850967    -0.00017658476
   2246000   0.049683986   -0.3001166      0.035453601   -0.19014183     0.0011865883 
   2247000   0.049687181   -0.30011364     0.036163989   -0.18942369    -0.00094227095
   2248000   0.049990517   -0.30024461     0.035473856   -0.18978981     0.00014141912
   2249000   0.049422409   -0.30000331     0.03587806    -0.18999641     0.0010267712 
   2250000   0.050179716   -0.30024004     0.035192146   -0.18978318     1.928927e-05 
   2251000   0.050406486   -0.30009713     0.035606351   -0.18888593     0.0012499618 
   2252000   0.050523087   -0.30017749     0.035226329   -0.18917142    -0.00025050911
   2253000   0.050289483   -0.30032024     0.035518302   -0.18937257    -2.5148719e-06
   2254000   0.049733109   -0.2999721      0.035597502   -0.18977975     0.00084461702
   2255000   0.049390832   -0.30009994     0.035940998   -0.19007747     0.00028101699
   2256000   0.049781635   -0.30044538     0.035883716   -0.18989403    -0.00042804307
   2257000   0.049751662   -0.30025084     0.035391001   -0.19023716     2.9713364e-05
   2258000   0.050147441   -0.30040147     0.036025377   -0.18915979     0.00096672873
   2259000   0.049921597   -0.29964753     0.035702096   -0.18906787     0.00038014697
   2260000   0.050217271   -0.29981018     0.035926813   -0.18856232    -0.00046656244
   2261000   0.049494787   -0.30042074     0.035596863   -0.19058648    -8.9749508e-05
   2262000   0.049925707   -0.30018939     0.036273297   -0.18903236    -0.00010032475
   2263000   0.050373827   -0.29992034     0.035755967   -0.18860851     0.0009489905 
   2264000   0.050324459   -0.29977108     0.035567624   -0.18872163     0.00012136131
   2265000   0.049981507   -0.30022099     0.035721214   -0.18953235     0.0020878014 
   2266000   0.049909289   -0.30018136     0.035509551   -0.18981271     0.0012888224 
   2267000   0.049930588   -0.30004143     0.035934784   -0.1892156     -0.00051950167
   2268000   0.04947265    -0.30035915     0.036019916   -0.19013505    -0.00057024126
   2269000   0.050031718   -0.30010167     0.035529001   -0.18952993     0.000274218  
   2270000   0.049691304   -0.30026021     0.03580038    -0.18992768     0.00070683889
   2271000   0.050226051   -0.30056262     0.035539294   -0.18968911     0.00012165544
   2272000   0.050233609   -0.30040937     0.035800212   -0.18926361     0.00056371254
   2273000   0.05016446    -0.30084595     0.035008595   -0.19059552    -0.00084719368
   2274000   0.049606907   -0.3005867      0.03526398    -0.19091716    -0.00032152779
   2275000   0.050034925   -0.30073737     0.035705033   -0.1899848     -0.00064767629
   2276000   0.049903922   -0.30091047     0.035554099   -0.19050532    -0.00034465131
   2277000   0.049685168   -0.30045893     0.035202943   -0.19073304     0.00099441196
   2278000   0.049822324   -0.30036154     0.035465098   -0.19016778    -0.0010782718 
   2279000   0.049983871   -0.30041723     0.036020505   -0.18942576     0.0006307752 
   2280000   0.050664789   -0.3006139      0.035688067   -0.18893356     0.00099030662
   2281000   0.050508122   -0.30042048     0.035955889   -0.1887073      0.0019189731 
   2282000   0.050048872   -0.30041172     0.035582478   -0.18976077     0.0013606484 
   2283000   0.050329597   -0.3001046      0.036222754   -0.18839232    -0.00038093199
   2284000   0.049750863   -0.30102359     0.036032883   -0.19036923     0.00066424589
   2285000   0.050276081   -0.30085688     0.035514484   -0.18993314    -0.0012893883 
   2286000   0.049718871   -0.30079068     0.035885387   -0.1903318      0.0017385229 
   2287000   0.04987146    -0.30111378     0.035967282   -0.19034413     0.00037224806
   2288000   0.049738972   -0.30119032     0.035718996   -0.19086768     0.00048029619
   2289000   0.049600256   -0.30074043     0.035857208   -0.19048764     0.00010074209
   2290000   0.050436452   -0.30101684     0.035613873   -0.18975317     0.00077282614
   2291000   0.050473963   -0.30118131     0.03582553    -0.18964972     0.00070007939
   2292000   0.050261873   -0.30082285     0.036186114   -0.18924879    -0.00076605954
   2293000   0.049828182   -0.30105919     0.035746183   -0.19057556     0.0002996727 
   2294000   0.04977717    -0.30115206     0.035517908   -0.19097321    -0.00048862516
   2295000   0.049361632   -0.30087123     0.035828543   -0.19100501    -0.00016500832
   2296000   0.049998783   -0.301166       0.036330446   -0.18984222     0.00041708029
   2297000   0.049901948   -0.30143262     0.035908044   -0.19067648    -0.0010632089 
   2298000   0.049606912   -0.30112647     0.035490173   -0.19123073     0.00063047805
   2299000   0.050128626   -0.30123471     0.035839089   -0.19020753     0.0012005118 
   2300000   0.049738757   -0.3011959      0.035672916   -0.19091966     0.00074590247
   2301000   0.050172723   -0.30092597     0.035741027   -0.18993071     0.0012839543 
   2302000   0.049698635   -0.30118027     0.035486904   -0.19115022     0.00053900976
   2303000   0.050022292   -0.30155027     0.035119218   -0.19140245    -8.3783405e-05
   2304000   0.050030258   -0.30120904     0.035680113   -0.19048838     1.4341146e-05
   2305000   0.050014895   -0.30102226     0.036095752   -0.189909       9.3568589e-05
   2306000   0.049763826   -0.30118284     0.03577091    -0.19077101     0.00080624238
   2307000   0.050324911   -0.30122944     0.03545389    -0.19029306     0.0014449655 
   2308000   0.049756674   -0.30107708     0.03598291    -0.19046397    -0.00061706255
   2309000   0.049528538   -0.30133755     0.035311605   -0.19173793    -0.00068765122
   2310000   0.049740014   -0.30118024     0.036019062   -0.19055597    -0.0012092864 
   2311000   0.050669056   -0.30106539     0.035828368   -0.18923834     0.00019419617
   2312000   0.050147606   -0.30133664     0.035879839   -0.19024024     0.0018833538 
   2313000   0.050528138   -0.30132066     0.035518507   -0.19001484    -0.00069626   
   2314000   0.049707976   -0.30114322     0.035601948   -0.19098412     5.8095772e-05
   2315000   0.049768893   -0.30118517     0.036006831   -0.19052982    -0.00078607065
   2316000   0.05004862    -0.30145754     0.035298523   -0.19109093    -2.3726507e-05
   2317000   0.049918325   -0.30184547     0.035670418   -0.1913024      0.00063875472
   2318000   0.05032734    -0.30138554     0.036187931   -0.18971147    -0.00039213294
   2319000   0.04980802    -0.30123315     0.035448089   -0.19107785     0.00030457363
   2320000   0.050468663   -0.30191519     0.035575938   -0.19064115     0.00050060084
   2321000   0.049828469   -0.30174266     0.036533428   -0.19047135     0.00016813237
   2322000   0.050036321   -0.30165765     0.035278455   -0.19132956     0.00023919704
   2323000   0.049967154   -0.3016353      0.036041049   -0.19064836     0.00065377958
   2324000   0.04974709    -0.30164822     0.035135874   -0.19189653     0.00019543089
   2325000   0.050346523   -0.30151107     0.03571008    -0.19028607     0.00061098742
   2326000   0.050077674   -0.30178802     0.035565359   -0.191111       0.00024782753
   2327000   0.049923982   -0.30211951     0.035699133   -0.19153923    -0.00046935356
   2328000   0.049801086   -0.30189876     0.035885847   -0.1913161      0.0011861165 
   2329000   0.049878671   -0.30150779     0.035791087   -0.19090352    -0.00025693684
   2330000   0.050271541   -0.30172179     0.035369926   -0.19094942     0.0012569166 
   2331000   0.049824239   -0.30172803     0.036034503   -0.19096199     5.9265702e-05
   2332000   0.049806928   -0.30172365     0.035965286   -0.1910528      8.6487005e-05
   2333000   0.050182988   -0.30196595     0.035820563   -0.19087576    -0.00037046844
   2334000   0.05043059    -0.30218538     0.035550042   -0.19099433     0.0015167096 
   2335000   0.049762182   -0.30174776     0.036257365   -0.19085193    -0.00088895798
   2336000   0.05042869    -0.30221427     0.036184874   -0.19039124    -0.001182849  
   2337000   0.049824773   -0.30216462     0.036137197   -0.19129508     0.00024671591
   2338000   0.050553986   -0.30209971     0.035892637   -0.19038098     0.00029918719
   2339000   0.050577942   -0.30172637     0.035651198   -0.19021316     0.00085274924
   2340000   0.049920304   -0.30179943     0.035752378   -0.19117142     0.00055479399
   2341000   0.049586401   -0.3020317      0.035849866   -0.19180703     0.00077272498
   2342000   0.050028007   -0.3021821      0.035607674   -0.19153726     0.00041456088
   2343000   0.050178701   -0.30197086     0.035538405   -0.19116926     0.00083831372
   2344000   0.049842916   -0.30252732     0.035865335   -0.19190244     0.0011541934 
   2345000   0.050485181   -0.30227917     0.036078662   -0.19047763     0.0010712623 
   2346000   0.049412602   -0.30209508     0.035897119   -0.19208384     0.00078179627
   2347000   0.049896572   -0.30231678     0.03592566    -0.19155109     0.00036840108
   2348000   0.050195236   -0.30225455     0.036188282   -0.19077827    -0.00095897633
   2349000   0.049724376   -0.30196696     0.035481484   -0.19190372     0.0006446592 
   2350000   0.049783779   -0.30274377     0.03653972    -0.1915332      0.00060760977
   2351000   0.050453456   -0.30235528     0.034864465   -0.19181552     0.0013633446 
   2352000   0.049574142   -0.30290262     0.035761781   -0.19278443    -6.8997798e-05
   2353000   0.049668263   -0.30257174     0.035839559   -0.19223459     0.00065961206
   2354000   0.04973778    -0.30230556     0.03572954    -0.19197416     0.00056135601
   2355000   0.049892891   -0.30203797     0.035154802   -0.19204866     0.0013226568 
   2356000   0.050203971   -0.30213761     0.035441724   -0.19139479     0.00014520205
   2357000   0.050154013   -0.30225429     0.035846771   -0.19118135     0.00026213872
   2358000   0.05045547    -0.30263515     0.035541267   -0.19141556     0.00014953874
   2359000   0.049757946   -0.30246598     0.035966946   -0.19186693     0.00072155778
   2360000   0.049880468   -0.30251097     0.035669917   -0.19202518    -6.978416e-05 
   2361000   0.050138337   -0.30215602     0.036077182   -0.19087618     0.0010970928 
   2362000   0.050136745   -0.30227667     0.035580383   -0.19149602    -5.2970949e-05
   2363000   0.049747547   -0.30224297     0.03601302    -0.19161345     0.00084179218
   2364000   0.050144687   -0.30260575     0.03571466    -0.19167891     0.00041933415
   2365000   0.050197501   -0.30239153     0.035588183   -0.19151195     0.0012527774 
   2366000   0.04996775    -0.30246259     0.035405561   -0.19211024     0.00019923545
   2367000   0.049545801   -0.30269894     0.035726135   -0.1926589     -0.0013384698 
   2368000   0.049700283   -0.30244269     0.03590097    -0.19199611     0.0014892793 
   2369000   0.049711278   -0.30241481     0.03514119    -0.19271151     0.0018284754 
   2370000   0.049981932   -0.30221616     0.035180963   -0.19206713     0.00076574085
   2371000   0.050040761   -0.30243315     0.034675464   -0.19270138     0.00085753654
   2372000   0.050049383   -0.30256347     0.036152109   -0.19134213     0.00040276741
   2373000   0.05058639    -0.30207511     0.035586926   -0.19061349     0.00022227812
   2374000   0.050279552   -0.30208742     0.035482838   -0.19119012    -0.00042767286
   2375000   0.049485344   -0.30230236     0.035783889   -0.19229524     0.00033643334
   2376000   0.049592425   -0.30246906     0.036096275   -0.19198894    -0.00064762413
   2377000   0.05011221    -0.30270929     0.035401669   -0.19214416     0.0016466928 
   2378000   0.050346695   -0.30234003     0.035356073   -0.19146878     0.00063579484
   2379000   0.050253768   -0.30246665     0.03630781    -0.19078305     0.0020223711 
   2380000   0.049972762   -0.30245267     0.03551814    -0.19198022    -0.00011649953
   2381000   0.050463657   -0.30239611     0.03549795    -0.19120756     0.00055074444
   2382000   0.050240513   -0.30226997     0.035857189   -0.19105687    -7.0613597e-05
   2383000   0.049908223   -0.3028778      0.03566192    -0.19235838     0.00024422098
   2384000   0.049957551   -0.30249922     0.035105566   -0.19246217     0.00016208407
   2385000   0.050181082   -0.30283814     0.035337397   -0.19223397    -0.00025850772
   2386000   0.049896384   -0.30296012     0.035591663   -0.19252871    -0.00038771169
   2387000   0.049579251   -0.30283622     0.036015903   -0.19245624     0.00026264698
   2388000   0.049642643   -0.3026823      0.035792266   -0.19243087     0.00012909564
   2389000   0.049993638   -0.30266636     0.036153458   -0.19152728     0.00043084831
   2390000   0.049952752   -0.3026985      0.035737334   -0.19203687     0.00031947746
   2391000   0.049450741   -0.30268518     0.035993564   -0.19252029     0.00040296293
   2392000   0.04975898    -0.3025864      0.035120085   -0.19283266     0.00096878958
   2393000   0.049954617   -0.30287722     0.035602812   -0.19234732     0.00079343259
   2394000   0.049405375   -0.30275797     0.035616533   -0.19303816    -0.00018620586
   2395000   0.05023612    -0.30287171     0.035742341   -0.19178005     0.00085519478
   2396000   0.050094436   -0.30304888     0.036299673   -0.1916124     -3.3505865e-05
   2397000   0.050088353   -0.30288294     0.035113722   -0.19264153     0.00063354054
   2398000   0.049950215   -0.30297318     0.0357178     -0.19233489    -1.0656705e-05
   2399000   0.049881583   -0.30267894     0.035333047   -0.19252835     0.00047098535
   2400000   0.051174666   -0.30286168     0.035451001   -0.19065363     0.0012617372 
   2401000   0.050439519   -0.30300662     0.035149025   -0.1922032      0.00052621454
   2402000   0.049883482   -0.30295281     0.036064446   -0.19206796    -0.00055941769
   2403000   0.049939333   -0.30287284     0.035173043   -0.19279563    -0.00035119648
   2404000   0.050150153   -0.30329863     0.035595598   -0.19248265    -0.0015406668 
   2405000   0.049760012   -0.30299537     0.035474738   -0.19288543     0.00031772168
   2406000   0.049884014   -0.30298972     0.035480681   -0.19268784     0.0012154311 
   2407000   0.05002843    -0.3030452      0.035318198   -0.1926892      0.00050414273
   2408000   0.050619868   -0.30318886     0.03533504    -0.19192891     0.00049967647
   2409000   0.049939319   -0.30321131     0.036028326   -0.19227884     0.00066921593
   2410000   0.049594929   -0.30265556     0.03592769    -0.19234028     0.0013516055 
   2411000   0.050769221   -0.30294814     0.036047216   -0.19075201     0.00037823649
   2412000   0.050182607   -0.30314578     0.036107942   -0.19176878     0.00059408153
   2413000   0.049878794   -0.30348806     0.035834687   -0.19284001     0.0010860945 
   2414000   0.049917541   -0.30292947     0.036201715   -0.19185627     0.00036585932
   2415000   0.050349908   -0.30306752     0.035794699   -0.19175283    -0.00023529584
   2416000   0.050419032   -0.30321124     0.035926436   -0.19166113     0.00095015592
   2417000   0.04994206    -0.30326035     0.035431233   -0.19292086     0.0011489911 
   2418000   0.050091938   -0.30334031     0.035681316   -0.19252593    -0.00099439316
   2419000   0.050206221   -0.30328424     0.035743908   -0.19223586     0.00044135071
   2420000   0.050119871   -0.30269712     0.036108454   -0.19141371     0.0010806818 
   2421000   0.049367351   -0.3028588      0.03547124    -0.19334131     0.00045552673
   2422000   0.050407295   -0.30334667     0.035619461   -0.19212115     0.0011595537 
   2423000   0.050113701   -0.30320954     0.036063448   -0.19198039    -0.00054118838
   2424000   0.050530904   -0.30341672     0.035373822   -0.19225143     0.001474991  
   2425000   0.049895724   -0.30334773     0.035146705   -0.19336227     0.0009900955 
   2426000   0.049818182   -0.30337151     0.035469023   -0.19318004     0.0015035255 
   2427000   0.050358074   -0.30346328     0.035432535   -0.19249851     0.00041549655
   2428000   0.050049574   -0.30308618     0.03551465    -0.19250202    -0.0016539005 
   2429000   0.050350824   -0.30352749     0.035467552   -0.19253857     0.00020326215
   2430000   0.049979288   -0.3034696      0.035627625   -0.19287788     0.00030654371
   2431000   0.0496927     -0.30343134     0.035859239   -0.19303786     0.00093980988
   2432000   0.04998471    -0.30355835     0.035697922   -0.1928882      0.0005017721 
   2433000   0.049645603   -0.30382544     0.035076364   -0.19428548    -6.5407674e-05
   2434000   0.04999186    -0.30329382     0.034814718   -0.19349615     0.0011182214 
   2435000   0.049781625   -0.30328532     0.035404625   -0.19321307     0.0012983272 
   2436000   0.050132336   -0.30375507     0.035524028   -0.19303739     0.0015880166 
   2437000   0.049817622   -0.30366816     0.036098483   -0.19284807    -0.00058973962
   2438000   0.049975639   -0.30374687     0.035256434   -0.19353182     0.0013031079 
   2439000   0.049208551   -0.30346019     0.035281786   -0.19437034     0.00084694252
   2440000   0.050545381   -0.30360344     0.035354954   -0.19243531     0.001156312  
   2441000   0.049972931   -0.30352243     0.036725131   -0.19184274     0.00076896917
   2442000   0.050211497   -0.30383933     0.035874254   -0.19265269    -0.00069575159
   2443000   0.050483907   -0.30333188     0.035325991   -0.19228491     0.00027415031
   2444000   0.049771884   -0.30371597     0.035477014   -0.19358595     0.0010537418 
   2445000   0.050186301   -0.30339011     0.035051459   -0.19306405     0.0006110353 
   2446000   0.050112969   -0.30350611     0.035990344   -0.19235116     0.00095650075
   2447000   0.049895499   -0.30349311     0.03533926    -0.19331543     0.0030472118 
   2448000   0.049956488   -0.30386611     0.035478996   -0.19345721    -9.8252349e-05
   2449000   0.050080039   -0.30366864     0.035479138   -0.19307429     0.0006909745 
   2450000   0.050002078   -0.30412114     0.035860447   -0.19326241    -0.00044267633
   2451000   0.050032319   -0.30348723     0.036222205   -0.19222139    -0.0013668476 
   2452000   0.05024014    -0.30356813     0.035501326   -0.19271145     0.0016477903 
   2453000   0.050048553   -0.30349146     0.035724209   -0.19269926     0.00023812386
   2454000   0.049589333   -0.30371285     0.035758997   -0.19357466     0.00033762343
   2455000   0.049802371   -0.30394185     0.035732617   -0.19351049    -1.1370669e-05
   2456000   0.050865591   -0.30342044     0.03491331    -0.19221367     0.0013211161 
   2457000   0.049829907   -0.30339346     0.035415695   -0.19323773     0.00066781936
   2458000   0.049639021   -0.30353526     0.034991732   -0.1940898     -0.00082050487
   2459000   0.050121315   -0.30342305     0.035358384   -0.19288755     0.00039369618
   2460000   0.050632255   -0.30369056     0.036125673   -0.19162141    -0.0006364056 
   2461000   0.050165666   -0.30377573     0.034986212   -0.19354587     0.0013382532 
   2462000   0.049949494   -0.30365653     0.035498826   -0.1932383     -0.00087686177
   2463000   0.04981936    -0.30389362     0.035640669   -0.19352874    -5.7976571e-05
   2464000   0.049539747   -0.30343659     0.03529665    -0.19383511     0.0010622626 
   2465000   0.049613422   -0.30399639     0.03543764    -0.19414342     0.00033103203
   2466000   0.049975017   -0.30365764     0.035779357   -0.19292059    -9.4071166e-05
   2467000   0.050165133   -0.30354924     0.035987588   -0.19231881     0.00035855733
   2468000   0.050314767   -0.30371836     0.036008616   -0.19224247     0.00044803091
   2469000   0.050186253   -0.30389935     0.035159896   -0.19346493     0.0012735129 
   2470000   0.049955358   -0.30407391     0.035688951   -0.19345675     0.00034433821
   2471000   0.049756731   -0.30412592     0.036267448   -0.19322819     0.00057788777
   2472000   0.05025113    -0.30405376     0.035600922   -0.19308101    -0.00047580168
   2473000   0.050262008   -0.30429013     0.035703701   -0.19319829     7.7179766e-06
   2474000   0.050258054   -0.3041462      0.03490202    -0.19386197     0.00021259722
   2475000   0.050010936   -0.30398729     0.035356525   -0.1936192      0.0009751776 
   2476000   0.050650806   -0.30405956     0.036130119   -0.19195814     0.00010480469
   2477000   0.050327047   -0.30415306     0.035607554   -0.19305981    -0.00020257474
   2478000   0.05009376    -0.30410753     0.036124944   -0.1928468     -0.00082526961
   2479000   0.050167706   -0.30437164     0.036094376   -0.19303056     0.00011487445
   2480000   0.050635518   -0.30408337     0.036010753   -0.19212424     0.00071232184
   2481000   0.050308529   -0.30413899     0.035947462   -0.19273361    -0.00027465013
   2482000   0.050081039   -0.30372915     0.036125214   -0.19248723     0.00082396788
   2483000   0.05044004    -0.30452487     0.035885662   -0.19298403    -0.00027788654
   2484000   0.049409869   -0.30377409     0.036008408   -0.19365566     0.00026149908
   2485000   0.050343333   -0.30380827     0.035692007   -0.19260614     0.00013830306
   2486000   0.050258429   -0.30413891     0.035921477   -0.19283465    -0.00015969207
   2487000   0.050079558   -0.30421149     0.035908243   -0.19318876     0.00071147199
   2488000   0.049878554   -0.30439564     0.036112691   -0.19346995     0.00076564546
   2489000   0.050225907   -0.30417866     0.035776561   -0.1930681     -0.00082966514
   2490000   0.050809782   -0.30430746     0.035850372   -0.19224733     0.0016719028 
   2491000   0.050722737   -0.30425062     0.035137795   -0.19303363     0.00094099782
   2492000   0.050013268   -0.3046351      0.035410306   -0.19420973     0.00071692566
   2493000   0.049590401   -0.3042921      0.036074613   -0.19383669    -0.00020705179
   2494000   0.050091369   -0.30445926     0.035670864   -0.19365619     0.000346996  
   2495000   0.050123642   -0.30496232     0.036063863   -0.19371785     0.00029153431
   2496000   0.050555704   -0.30451354     0.036132927   -0.19255195    -0.0006641207 
   2497000   0.05030448    -0.3049055      0.035590292   -0.19386335    -0.00032106031
   2498000   0.049874146   -0.30483042     0.03520428    -0.19481975     0.00023502346
   2499000   0.050228006   -0.30479165     0.035778906   -0.1936756      0.00020146716
   2500000   0.049771686   -0.30500829     0.036098386   -0.19425719    -0.0012915934 
   2501000   0.04981794    -0.30503268     0.035607368   -0.19470323     0.0013401204 
   2502000   0.049937905   -0.30471161     0.035227456   -0.19458213     0.00099249025
   2503000   0.049722483   -0.30512172     0.035235581   -0.19530723     0.00056135228
   2504000   0.050053225   -0.30506258     0.035122438   -0.19486514    -0.0011015367 
   2505000   0.050321066   -0.30496902     0.035216121   -0.19427617    -0.00039779368
   2506000   0.050088873   -0.30453532     0.036022681   -0.19338417     0.00025531608
   2507000   0.049922495   -0.30426472     0.036453988   -0.19293182    -6.9448219e-05
   2508000   0.050011417   -0.30506999     0.035332505   -0.1947252      0.00014344083
   2509000   0.049394213   -0.30502578     0.035891306   -0.19504794    -0.00071698658
   2510000   0.049964312   -0.30515592     0.035544617   -0.19466967     0.00015130236
   2511000   0.050002337   -0.3052507      0.035945182   -0.19430685     0.0012656449 
   2512000   0.049630361   -0.30499209     0.036083272   -0.19446808     0.00043395736
   2513000   0.049857318   -0.30525775     0.036131124   -0.19434547     0.00043178796
   2514000   0.049753225   -0.30538276     0.03600668    -0.19475106    -0.00050126687
   2515000   0.050097527   -0.30514715     0.035497086   -0.19450862     0.0012986143 
   2516000   0.049341709   -0.30482153     0.035469376   -0.19534437     5.7697971e-05
   2517000   0.049409489   -0.30533897     0.03585016    -0.19537935    -0.00049054171
   2518000   0.050659143   -0.30533929     0.035576313   -0.19377917    -0.00017338975
   2519000   0.050026597   -0.304976       0.035571162   -0.19436978     0.00090576043
   2520000   0.050012006   -0.30470547     0.035399871   -0.19429243     0.0024431712 
   2521000   0.049705866   -0.3054894      0.036168714   -0.1947667      0.00018632011
   2522000   0.049745633   -0.30518889     0.035981896   -0.19459336     0.00029216912
   2523000   0.050215539   -0.30493746     0.035815436   -0.19380357     0.00038274309
   2524000   0.050190352   -0.30519327     0.03584715    -0.19406545     0.00014272203
   2525000   0.049984025   -0.30576897     0.035442166   -0.1953556     -0.00058342539
   2526000   0.050233133   -0.30553632     0.035618988   -0.19457249    -0.0003567708 
   2527000   0.050463154   -0.30543949     0.035476997   -0.19427264    -5.7691982e-05
   2528000   0.049730552   -0.30542519     0.035621248   -0.19521293    -0.00036038625
   2529000   0.049702012   -0.30522752     0.035669096   -0.19501022    -0.00068664278
   2530000   0.050284519   -0.3053894      0.036304688   -0.1936628     -0.00022826907
   2531000   0.05020109    -0.30564868     0.03590502    -0.19444688    -0.00010161939
   2532000   0.049578031   -0.30536515     0.03533599    -0.19566691     0.00098597803
   2533000   0.050185431   -0.30520219     0.036198585   -0.19373031     0.00097472281
   2534000   0.050080236   -0.30534298     0.035443367   -0.19478411     0.000496565  
   2535000   0.050353031   -0.30535791     0.035295923   -0.19453731     0.001287886  
   2536000   0.050478953   -0.30572243     0.035890716   -0.19411817    -0.00012082912
   2537000   0.049902418   -0.30546014     0.035850524   -0.19476082     0.00085587642
   2538000   0.049915773   -0.30564368     0.03582635    -0.1949485      0.001107701  
   2539000   0.05007057    -0.3056163      0.035743059   -0.19477223    -0.00032032706
   2540000   0.049845866   -0.30590396     0.036040561   -0.19509942    -0.00088324778
   2541000   0.049947306   -0.30574772     0.035756892   -0.1950747      0.00014322011
   2542000   0.04994751    -0.30570036     0.035603327   -0.19518061    -6.0777083e-05
   2543000   0.050262747   -0.30571013     0.035257105   -0.19506377     0.00054816299
   2544000   0.050388661   -0.30595443     0.035389957   -0.19498636    -0.00073908637
   2545000   0.050621405   -0.30582668     0.036420252   -0.19347921    -0.0012642386 
   2546000   0.050261856   -0.3059751      0.035817043   -0.19477013     0.0015802565 
   2547000   0.050032225   -0.30585873     0.035803964   -0.19501127     0.00075178626
   2548000   0.050132411   -0.30605892     0.035698021   -0.19516713     0.00072552986
   2549000   0.04953442    -0.30592537     0.035890434   -0.19573809    -6.1117932e-05
   2550000   0.050357019   -0.30597042     0.035401349   -0.19503841     0.00041802737
   2551000   0.050139466   -0.30571027     0.035539192   -0.19496673     7.4604002e-05
   2552000   0.049707772   -0.30602407     0.035487237   -0.19597998    -0.00027137536
   2553000   0.050079195   -0.30584164     0.035949834   -0.19477786     0.00056954161
   2554000   0.050243605   -0.30572458     0.036227561   -0.19413647     3.0103457e-05
   2555000   0.050092652   -0.30584273     0.03572422    -0.19498438     1.373325e-05 
   2556000   0.049799324   -0.306215       0.03529889    -0.19622194    -0.00011521707
   2557000   0.049591027   -0.30592354     0.035881016   -0.19566078     0.0005812104 
   2558000   0.050066365   -0.30644618     0.035777046   -0.19557443    -0.0013338928 
   2559000   0.050217329   -0.30616002     0.035711901   -0.19512698     0.00097369455
   2560000   0.050487211   -0.30600997     0.03609951    -0.19418453    -0.00022604399
   2561000   0.049680572   -0.30603019     0.036663549   -0.19485059    -0.00070600419
   2562000   0.049758978   -0.30590198     0.035845459   -0.19542287     0.00051951442
   2563000   0.050809859   -0.30639076     0.036119484   -0.1940614      0.0016656042 
   2564000   0.050008705   -0.30593798     0.035742134   -0.19518763     0.00058418094
   2565000   0.050132841   -0.30635641     0.035915012   -0.19524699     9.6374865e-05
   2566000   0.049527519   -0.30614437     0.035424957   -0.19643292     0.00067631038
   2567000   0.049658943   -0.30596725     0.035845021   -0.19563862    -0.00077800462
   2568000   0.049712717   -0.30597058     0.035342094   -0.19606422     0.00030732863
   2569000   0.050287089   -0.3061547      0.035050585   -0.19567835    -0.000490915  
   2570000   0.049985164   -0.30598755     0.036102771   -0.19491187     0.00017448724
   2571000   0.049695968   -0.30636014     0.036110539   -0.19571046     8.347197e-05 
   2572000   0.049328549   -0.30609477     0.03628102    -0.1958257      3.0453048e-05
   2573000   0.050345521   -0.305984       0.035388449   -0.19508214     0.0017803281 
   2574000   0.050019234   -0.30659547     0.03503924    -0.19653222     0.0015803956 
   2575000   0.049557487   -0.30639182     0.035754672   -0.19630572    -0.00079033789
   2576000   0.050335235   -0.30579646     0.035353578   -0.1949449      0.0016507686 
   2577000   0.049925581   -0.30593621     0.035610253   -0.19544242     0.0016939259 
   2578000   0.049944403   -0.30662739     0.036449589   -0.19526603    -0.001080274  
   2579000   0.050281933   -0.30650582     0.03590651    -0.19518127     0.0019056707 
   2580000   0.050214888   -0.30663583     0.035545401   -0.19577295    -0.00020549263
   2581000   0.050157046   -0.30619179     0.036046612   -0.19491446    -0.00083025341
   2582000   0.050004944   -0.30669785     0.035895015   -0.19580026     0.00134097   
   2583000   0.050285056   -0.30659429     0.035656509   -0.19551507     0.0014854974 
   2584000   0.050569593   -0.3064282      0.03548216    -0.19509654    -0.00027091004
   2585000   0.050148793   -0.30656941     0.035927077   -0.195424       0.00058675563
   2586000   0.049751883   -0.30651702     0.035673025   -0.19622099     0.00011263051
   2587000   0.049843544   -0.30613397     0.035091666   -0.19628181     0.0025122922 
   2588000   0.050037129   -0.30664794     0.035754363   -0.19584272     0.00069067042
   2589000   0.05021075    -0.30681599     0.035181782   -0.19632295    -0.00026247171
   2590000   0.050136765   -0.30655791     0.035686248   -0.19567137     0.0011300739 
   2591000   0.049832806   -0.30687081     0.035855052   -0.19627137     0.00027313397
   2592000   0.050030862   -0.30672615     0.036423368   -0.19526133    -0.00064130357
   2593000   0.049966555   -0.30647094     0.035623785   -0.19590216     0.0010626376 
   2594000   0.050037215   -0.30631137     0.035739454   -0.19552093     0.0010397574 
   2595000   0.050053443   -0.30667429     0.036147709   -0.19545126     0.0009194627 
   2596000   0.050194087   -0.30684668     0.036167957   -0.19539245    -0.00016534246
   2597000   0.050277868   -0.30640294     0.036250064   -0.19474094     0.00080218215
   2598000   0.050802067   -0.306207       0.036425521   -0.19358329    -0.0010927443 
   2599000   0.05037727    -0.30662079     0.036417898   -0.19464186     0.00098882382
   2600000   0.050367497   -0.30689954     0.035283327   -0.19606984    -0.0002400916 
   2601000   0.050355594   -0.30636594     0.03529225    -0.19554517     0.0014618792 
   2602000   0.049438602   -0.30678261     0.036050064   -0.19657942    -0.0011362643 
   2603000   0.050278468   -0.30671102     0.034793597   -0.19650459     0.0015321076 
   2604000   0.050010948   -0.30655026     0.035865718   -0.19567296     0.00083199017
   2605000   0.050004145   -0.30694587     0.03590602    -0.19603848     0.0001177381 
   2606000   0.049637845   -0.30706679     0.036217562   -0.19639727     0.00034798378
   2607000   0.049970543   -0.30715539     0.035744493   -0.19645992    -0.0009015516 
   2608000   0.049864854   -0.30720368     0.035514526   -0.1968967      0.00047965751
   2609000   0.049964585   -0.30677849     0.035769457   -0.19606699     0.00084625769
   2610000   0.050044639   -0.30674866     0.035580676   -0.19610587     0.00024823432
   2611000   0.049984121   -0.30697104     0.035895162   -0.19610454     0.00024078645
   2612000   0.05010809    -0.30698083     0.035961472   -0.19586208    -0.00044566788
   2613000   0.049827295   -0.30675533     0.036431769   -0.19558744    -0.00065734007
   2614000   0.050154547   -0.30696194     0.035982855   -0.19575212     0.00026757676
   2615000   0.049799481   -0.30670896     0.035951312   -0.19606324     3.4502502e-05
   2616000   0.050315175   -0.30687894     0.035912784   -0.19549827     0.0010240328 
   2617000   0.05032303    -0.30707761     0.036143944   -0.19545399     0.00091033843
   2618000   0.050241711   -0.3068724      0.036072746   -0.19544195     7.514663e-05 
   2619000   0.049955416   -0.3068467      0.036478816   -0.1954396     -0.000210925  
   2620000   0.050088681   -0.30653392     0.035890729   -0.19551502    -0.0015550397 
   2621000   0.050189036   -0.3068938      0.035834629   -0.19578047     0.0011353114 
   2622000   0.050508261   -0.30696991     0.035717596   -0.19549481     2.8060265e-05
   2623000   0.050081541   -0.30685898     0.035323158   -0.19641835     0.0012357189 
   2624000   0.049585683   -0.30728603     0.035819112   -0.19709319    -0.00073888829
   2625000   0.05007686    -0.30696173     0.035748008   -0.19610328    -0.0010553568 
   2626000   0.050027718   -0.30729598     0.035339778   -0.19691947     0.00062621668
   2627000   0.050414626   -0.30726944     0.035128809   -0.19652357     0.00067142815
   2628000   0.049845853   -0.30742248     0.036008421   -0.1966501     -0.00055461157
   2629000   0.049710457   -0.30712852     0.035518214   -0.19704943     0.00039690802
   2630000   0.049705061   -0.30684538     0.035395379   -0.19689722    -0.00035497641
   2631000   0.049939398   -0.30667382     0.035672518   -0.19609704     0.00043772802
   2632000   0.05042085    -0.30707388     0.035785576   -0.19566191    -0.00021026003
   2633000   0.049890414   -0.30698287     0.036154537   -0.19599754     0.00066201363
   2634000   0.049676012   -0.30692422     0.035716162   -0.19669884     0.00043071158
   2635000   0.049927814   -0.30697553     0.035725151   -0.19636349    -0.00083368413
   2636000   0.050680453   -0.30744937     0.035691593   -0.195742       0.0013542204 
   2637000   0.0501419     -0.3074606      0.035046984   -0.19720561     0.00098572038
   2638000   0.049835708   -0.30739337     0.036006262   -0.19663837    -0.00025909373
   2639000   0.04963885    -0.30718931     0.035765861   -0.19696997    -0.00084866324
   2640000   0.050136226   -0.30727127     0.036125673   -0.19594611    -0.00052666579
   2641000   0.050132372   -0.30758245     0.035753364   -0.19663538     0.00019823456
   2642000   0.050382057   -0.30759671     0.035349029   -0.19667947     0.00094531364
   2643000   0.049675228   -0.30740011     0.035774869   -0.1971172      0.00043328277
   2644000   0.049576535   -0.30738926     0.036181793   -0.19684746    -0.00032500483
   2645000   0.049960577   -0.30690509     0.035788961   -0.1961801      0.00062240405
   2646000   0.050051014   -0.30728484     0.035435017   -0.19677814    -0.0003375156 
   2647000   0.049680031   -0.3072852      0.035512989   -0.19725697    -0.00022387133
   2648000   0.049810298   -0.30717866     0.035147774   -0.19732026     0.0005203782 
   2649000   0.049728347   -0.3075512      0.036150016   -0.19681348    -0.00098359307
   2650000   0.050144343   -0.3074628      0.035265096   -0.19698604     0.00030836496
   2651000   0.050192698   -0.30744273     0.035495268   -0.19666327     0.00033118483
   2652000   0.049695174   -0.30750694     0.036011148   -0.19695785    -0.00077650605
   2653000   0.05050667    -0.30749176     0.035740456   -0.19599619     0.00084362116
   2654000   0.050325518   -0.30719481     0.03536015    -0.19635125     0.00062492001
   2655000   0.05050146    -0.3073333      0.035853862   -0.19573214     0.0011690748 
   2656000   0.050331423   -0.307438       0.036590072   -0.19535567     0.00028749378
   2657000   0.049701735   -0.30730185     0.035322917   -0.19743114     0.0011188405 
   2658000   0.050341018   -0.30761971     0.035831339   -0.19628171    -0.00062785998
   2659000   0.049888105   -0.30727303     0.036287421   -0.19615828     0.00011984657
   2660000   0.049790575   -0.30758249     0.035742408   -0.19715903     0.00053896909
   2661000   0.049617709   -0.30744089     0.035391719   -0.19762741    -0.00038759028
   2662000   0.049658346   -0.30721308     0.03566212    -0.19706825    -0.00016190869
   2663000   0.04994188    -0.3075332      0.035535534   -0.19708968     0.0022797249 
   2664000   0.049968122   -0.30729863     0.035117333   -0.19723395     0.00067261101
   2665000   0.050299079   -0.30715179     0.035330864   -0.19637717     9.8107913e-05
   2666000   0.049469508   -0.30754488     0.035166184   -0.19817922     0.00097250537
   2667000   0.050254574   -0.30785044     0.035668942   -0.19680451     3.4613519e-05
   2668000   0.050427024   -0.30760577     0.035690602   -0.19627951    -0.0010999298 
   2669000   0.050331472   -0.30763273     0.035569463   -0.19657093     0.00077482797
   2670000   0.049817421   -0.30802794     0.035932077   -0.19737456     9.8680384e-05
   2671000   0.050656329   -0.30786919     0.036687556   -0.19520204     0.00068740167
   2672000   0.049952678   -0.30765971     0.035911599   -0.19682393    -0.0012418492 
   2673000   0.050401072   -0.30737323     0.035919206   -0.1958573      0.00053315181
   2674000   0.050082188   -0.3075993      0.036360816   -0.19612005    -0.0009155468 
   2675000   0.049808898   -0.30780506     0.03562816    -0.19746837     0.0016906969 
   2676000   0.050164631   -0.30791198     0.03546169    -0.19720819    -5.1197438e-05
   2677000   0.05013252    -0.30824708     0.035155972   -0.19789718    -0.00051343308
   2678000   0.049135958   -0.30814195     0.035914235   -0.19852853     0.00042246231
   2679000   0.050338116   -0.30799031     0.035182216   -0.19730579     0.00045734498
   2680000   0.049444465   -0.30799601     0.035310036   -0.19852407     0.00096354926
   2681000   0.049911155   -0.30809995     0.035449466   -0.19778859     0.0016709513 
   2682000   0.049615922   -0.30819325     0.035474916   -0.19829926    -9.7909633e-05
   2683000   0.049531962   -0.30823799     0.03582346    -0.19812138     0.00083436561
   2684000   0.049933061   -0.30837571     0.035566412   -0.19791454    -0.0005400802 
   2685000   0.050057221   -0.30817893     0.035422351   -0.19767559     0.0011378396 
   2686000   0.049423696   -0.3079855      0.035667958   -0.19818679     5.0616892e-05
   2687000   0.050249609   -0.30854893     0.036263761   -0.19691562    -8.4928097e-05
   2688000   0.050184857   -0.30820493     0.035596124   -0.19733638     0.0010818639 
   2689000   0.050612848   -0.30838542     0.035679673   -0.19679137    -0.00012321982
   2690000   0.049285093   -0.30815792     0.03628581    -0.19794924     0.00041665209
   2691000   0.050014589   -0.30829744     0.036074761   -0.19720563     0.00055078114
   2692000   0.050069206   -0.30845636     0.036064113   -0.19729329    -4.3990432e-05
   2693000   0.049852497   -0.30830998     0.035985676   -0.19755038     0.0010020735 
   2694000   0.050320242   -0.30846745     0.035195573   -0.19779638     0.00077289068
   2695000   0.050005509   -0.3084129      0.035931403   -0.19747808    -0.00047559927
   2696000   0.050096904   -0.30816857     0.035625989   -0.19740208     0.0017654053 
   2697000   0.049722949   -0.30855991     0.036015144   -0.19796516     0.00036085909
   2698000   0.050430464   -0.30898276     0.03569315    -0.19764879     0.00082578281
   2699000   0.049780798   -0.30789816     0.036013302   -0.19721848     0.0016318031 
   2700000   0.049994142   -0.30826794     0.035939887   -0.19734167    -9.6303652e-05
   2701000   0.05032507    -0.30840203     0.036206383   -0.19671291    -0.0014531727 
   2702000   0.049906889   -0.30830699     0.036239022   -0.19721247    -0.00022595175
   2703000   0.050711617   -0.30816393     0.035496103   -0.19660531     0.0010359509 
   2704000   0.050287117   -0.3082194      0.03644219    -0.1963514     -0.00015297405
   2705000   0.050049637   -0.30853655     0.035806306   -0.19766064    -0.0004321671 
   2706000   0.050235928   -0.30813059     0.035114538   -0.19766702     0.000678334  
   2707000   0.050807662   -0.30858515     0.035388011   -0.19699056     0.0025274114 
   2708000   0.05009665    -0.3084345      0.035462454   -0.19783192     0.00050084502
   2709000   0.049372033   -0.30798708     0.035194502   -0.1987393      0.00073084614
   2710000   0.049625079   -0.30830786     0.035660423   -0.19821462     0.00042141395
   2711000   0.050434594   -0.30862565     0.035160981   -0.19781766     0.0011958942 
   2712000   0.049711824   -0.30860808     0.035235235   -0.19880992    -0.00078972719
   2713000   0.0496618     -0.30860938     0.035758873   -0.19836262    -0.00083907358
   2714000   0.049590551   -0.30831486     0.035779979   -0.19815385    -0.00044034492
   2715000   0.050291729   -0.3084415      0.035352909   -0.19765587     0.00067541822
   2716000   0.050206123   -0.30851932     0.035523526   -0.19769147     0.00094923987
   2717000   0.050266947   -0.3086344      0.035602786   -0.19763605     0.00052269206
   2718000   0.049690668   -0.30827372     0.035677338   -0.19806519     0.00072207667
   2719000   0.049624769   -0.30826183     0.035385053   -0.19844442    -5.8393883e-05
   2720000   0.049627826   -0.30884518     0.036271713   -0.19813653    -0.00051668026
   2721000   0.049804797   -0.30906785     0.036069854   -0.19829562     0.00070271273
   2722000   0.049657191   -0.30911065     0.035449072   -0.1991806     -0.0013230787 
   2723000   0.049554453   -0.30884679     0.035706726   -0.19881318     0.0001487601 
   2724000   0.049978755   -0.30908692     0.035889777   -0.19823385     0.00057324129
   2725000   0.049899802   -0.3086233      0.035945659   -0.19783276    -0.00096994112
   2726000   0.050187425   -0.3088551      0.035934942   -0.19764388     0.00073054403
   2727000   0.049832161   -0.30894702     0.03602282    -0.19818078     0.0020775183 
   2728000   0.049782317   -0.3082625      0.036029691   -0.19756416     0.00046220531
   2729000   0.050139144   -0.30895262     0.036250941   -0.19749782    -0.0010034323 
   2730000   0.05017659    -0.30893821     0.036031785   -0.19764639    -0.00030746627
   2731000   0.049824618   -0.30912916     0.035597327   -0.19879973     0.00074397797
   2732000   0.049721025   -0.30846404     0.035108296   -0.19877902     0.00013784933
   2733000   0.04940325    -0.30886482     0.035728966   -0.19903576     0.00028192924
   2734000   0.050473415   -0.30943887     0.035997763   -0.19773587     0.0013549111 
   2735000   0.049538401   -0.3089733      0.035823504   -0.19884699    -3.3903702e-05
   2736000   0.050087374   -0.30927248     0.03544345    -0.19870282    -3.3318384e-05
   2737000   0.04988033    -0.30901145     0.035967246   -0.19822854    -0.00041827525
   2738000   0.050608204   -0.30910255     0.035187642   -0.1980075     -0.00026343187
   2739000   0.050674249   -0.30927845     0.035833257   -0.19743872    -0.00066542368
   2740000   0.05021452    -0.30891729     0.035645417   -0.19795495     0.0013674342 
   2741000   0.050232812   -0.30866457     0.035689064   -0.19763115     0.00036845687
   2742000   0.05041127    -0.30911178     0.035762643   -0.19773711     0.00035960331
   2743000   0.050099428   -0.30939372     0.035715834   -0.19853359    -0.00064575962
   2744000   0.050060671   -0.30908167     0.035483958   -0.19851155    -0.0011265616 
   2745000   0.050102277   -0.30926279     0.035627096   -0.19848713     0.00072941669
   2746000   0.04973981    -0.30911217     0.035051316   -0.19945595     1.7774461e-05
   2747000   0.050328122   -0.30941931     0.035086265   -0.19884573    -0.00039301873
   2748000   0.050022872   -0.30903627     0.035037105   -0.19896969    -0.00010945053
   2749000   0.04971836    -0.30944709     0.036337356   -0.19853701     0.00025711673
   2750000   0.050082877   -0.30952283     0.0357151     -0.19868826     0.0010751378 
   2751000   0.049716922   -0.30911875     0.036395059   -0.19815312     0.00064984146
   2752000   0.049690583   -0.30940655     0.03549286    -0.19938262     0.00070673652
   2753000   0.05027131    -0.30923992     0.035865464   -0.19797235     0.0019922311 
   2754000   0.049876345   -0.30920871     0.036039774   -0.19835924    -0.00051240117
   2755000   0.049705117   -0.30908283     0.035535074   -0.19899489     0.00073615971
   2756000   0.0501667     -0.30964847     0.035305196   -0.19909807    -5.4033769e-05
   2757000   0.050072679   -0.30957457     0.036249815   -0.19822059     0.00045160621
   2758000   0.050080467   -0.30959535     0.036226809   -0.19825268     0.00024872926
   2759000   0.050907103   -0.30931627     0.035767478   -0.19719306    -5.9800668e-05
   2760000   0.050671512   -0.30943806     0.036055301   -0.1973804      0.0014001782 
   2761000   0.050810257   -0.30951366     0.035721057   -0.19758213     0.00085752525
   2762000   0.050197837   -0.30945462     0.03639049    -0.19777224     0.00063506344
   2763000   0.050519275   -0.31012834     0.035331915   -0.1990224      0.00024679889
   2764000   0.049860344   -0.30940011     0.035483686   -0.19913073     0.00088754466
   2765000   0.04973196    -0.30950807     0.035199461   -0.19971549     0.00051340132
   2766000   0.050252691   -0.30914621     0.035744344   -0.19802769     0.0012367116 
   2767000   0.050277462   -0.30948385     0.03597825    -0.19809427    -0.00070465227
   2768000   0.050004925   -0.30964264     0.035502616   -0.19913748     0.00050964964
   2769000   0.050350339   -0.30935923     0.036183735   -0.19765485     0.00093935929
   2770000   0.050024511   -0.30940923     0.035948122   -0.19842919     0.00035488243
   2771000   0.049725191   -0.30902857     0.035691606   -0.19875399     0.0018685033 
   2772000   0.05015787    -0.30966701     0.036039893   -0.19839517    -0.00044943305
   2773000   0.049885263   -0.30927262     0.035763267   -0.19868628     0.0012127731 
   2774000   0.050468715   -0.30996858     0.035490217   -0.19878017     0.00086785935
   2775000   0.049587461   -0.30944467     0.035721899   -0.19934638     0.0020884431 
   2776000   0.049850909   -0.30971101     0.035706245   -0.19923323     0.00083393267
   2777000   0.049642505   -0.30967218     0.036175187   -0.19903804     0.0008620354 
   2778000   0.049662812   -0.30978183     0.035921974   -0.19937044    -0.00056619426
   2779000   0.049875581   -0.3098736      0.035622948   -0.19944211     0.0004474951 
   2780000   0.04900036    -0.30986509     0.035852653   -0.20051664    -0.00010912842
   2781000   0.049717603   -0.30999501     0.035637018   -0.1997864     -0.0001178882 
   2782000   0.049674823   -0.30987416     0.035484616   -0.19988212     0.00031871539
   2783000   0.049858492   -0.30983396     0.035673014   -0.19937804     0.00092392488
   2784000   0.050082229   -0.30956284     0.035177348   -0.19926699     0.0013238182 
   2785000   0.050192324   -0.30983666     0.035622997   -0.19893003     0.0013522221 
   2786000   0.05024934    -0.30961369     0.035816843   -0.1984277      0.00043982449
   2787000   0.049962584   -0.30955339     0.036062903   -0.19855144    -0.00060118154
   2788000   0.049904968   -0.31006623     0.035590057   -0.19962355    -0.00050309504
   2789000   0.049278574   -0.30978146     0.036016328   -0.19985204    -0.0012669466 
   2790000   0.049547285   -0.31036537     0.035206621   -0.20084262     0.00050670681
   2791000   0.049698852   -0.30992832     0.035899957   -0.1994849      0.00089108256
   2792000   0.049494518   -0.30988588     0.035575879   -0.20007302     0.00070322954
   2793000   0.050282219   -0.30985734     0.035158462   -0.19928041     0.00022920926
   2794000   0.049633831   -0.31016709     0.035901671   -0.19981947    -0.00084800826
   2795000   0.049738344   -0.31010228     0.035379978   -0.2001196     -0.00046125011
   2796000   0.04971953    -0.31020796     0.035289323   -0.20034415     0.00012244295
   2797000   0.050369872   -0.30980344     0.036061418   -0.19819209    -0.00016687893
   2798000   0.050448425   -0.30941393     0.035972371   -0.1977738     -0.0001725846 
   2799000   0.050347592   -0.31000052     0.035692325   -0.19879168    -0.00020265498
   2800000   0.050224722   -0.30981279     0.035969451   -0.19851112     0.00079460572
   2801000   0.050261774   -0.30965766     0.035350951   -0.19891892     0.0016721375 
   2802000   0.050114536   -0.30917352     0.035904514   -0.19810205    -0.00053051828
   2803000   0.049936874   -0.30971216     0.035859781   -0.1989519      5.8602148e-05
   2804000   0.049712434   -0.31005697     0.035719772   -0.19977336     0.0010436576 
   2805000   0.050321433   -0.30949498     0.035506627   -0.19851107     0.00020603205
   2806000   0.050214893   -0.30985025     0.035938571   -0.1985942      0.0017690298 
   2807000   0.04963962    -0.30974961     0.035594578   -0.1997004      0.00065233784
   2808000   0.04992306    -0.30941276     0.036087606   -0.19844539    -9.2553642e-05
   2809000   0.050535981   -0.30982988     0.035206032   -0.19882476     0.0010579773 
   2810000   0.050260183   -0.31005156     0.036315754   -0.1983504      0.00067189885
   2811000   0.050127582   -0.31005023     0.036190843   -0.19867286     0.00052702243
   2812000   0.050130214   -0.30972371     0.035597995   -0.19893524     0.00038799282
   2813000   0.049936593   -0.3102448      0.035710755   -0.19963399    -0.00018600487
   2814000   0.049993827   -0.30998999     0.035021467   -0.19998262    -0.00039947573
   2815000   0.049599197   -0.31002434     0.035964313   -0.19966603     0.00038267443
   2816000   0.049783323   -0.31025857     0.036244298   -0.19934411    -0.0019243547 
   2817000   0.049981651   -0.31011407     0.035892031   -0.1992544      0.00033357188
   2818000   0.049775877   -0.30983131     0.035765243   -0.19940707     5.9131111e-05
   2819000   0.050217457   -0.3099922      0.035782604   -0.19888827     0.00040081665
   2820000   0.050371174   -0.31000094     0.036061005   -0.19838805    -0.00021720606
   2821000   0.04966286    -0.31022285     0.036426424   -0.19930694    -0.0015813047 
   2822000   0.050292597   -0.30993201     0.036179379   -0.19831861     0.0011886164 
   2823000   0.050430793   -0.30972432     0.035848647   -0.19823436     0.00050213343
   2824000   0.050150256   -0.30996683     0.036275039   -0.19847126    -0.00086469168
   2825000   0.050243346   -0.31050878     0.036055568   -0.19909306    -0.00051448777
   2826000   0.049897022   -0.3101271      0.036316483   -0.19896991     0.00022285328
   2827000   0.050048112   -0.31000133     0.035743943   -0.19919006     0.00035127925
   2828000   0.050059319   -0.30979872     0.035837708   -0.19887688     0.00044593305
   2829000   0.050206845   -0.31011232     0.03545332    -0.19935359    -0.0011196059 
   2830000   0.04998017    -0.31001454     0.035557156   -0.19949197     0.00042388495
   2831000   0.049946214   -0.3102741      0.035492337   -0.19986727    -3.8970766e-05
   2832000   0.049966835   -0.30998181     0.035947838   -0.19908856    -0.00070697189
   2833000   0.050347504   -0.31001485     0.036393659   -0.19810481     0.00041551327
   2834000   0.049812648   -0.3102504      0.035987587   -0.19954866    -0.00098538898
   2835000   0.050007159   -0.30997413     0.036143927   -0.19882431     0.00020002961
   2836000   0.050090548   -0.31003868     0.035782559   -0.19912515    -0.00065734143
   2837000   0.049784107   -0.30981804     0.035075988   -0.20007071     0.00035999259
   2838000   0.050080036   -0.30992393     0.035563248   -0.19924547     0.00042809393
   2839000   0.050411138   -0.31023684     0.035099707   -0.1995253      0.0010640372 
   2840000   0.050167984   -0.30994797     0.03657747    -0.19812338     0.0012268336 
   2841000   0.050027896   -0.31028022     0.035852097   -0.19939112     3.1231586e-06
   2842000   0.050446738   -0.31058637     0.035900702   -0.19902044    -0.00037688609
   2843000   0.049359143   -0.31026542     0.035829484   -0.200402      -0.00025860053
   2844000   0.0495731     -0.31031423     0.035965108   -0.19999427     0.00074393217
   2845000   0.049594886   -0.31015916     0.036320135   -0.1994515     -0.00066331964
   2846000   0.050434871   -0.30994646     0.03586368    -0.19843536     0.00013246801
   2847000   0.050178915   -0.31015162     0.035670225   -0.19921788     0.00075244688
   2848000   0.049997067   -0.31014935     0.035409922   -0.19974866     0.0018460718 
   2849000   0.049459992   -0.30997004     0.036035063   -0.19974977     0.00032633301
   2850000   0.050362044   -0.31010461     0.035051317   -0.1995151     -8.8593484e-05
   2851000   0.049704399   -0.31075406     0.035630608   -0.20057166     0.00057711854
   2852000   0.050310685   -0.31012393     0.035789633   -0.19887314    -0.00016539806
   2853000   0.050202302   -0.31010126     0.035340182   -0.19946248     0.00050820961
   2854000   0.050161355   -0.31032415     0.035765211   -0.19932176     0.0010521178 
   2855000   0.050135461   -0.31029078     0.035786055   -0.19930639     0.00025349053
   2856000   0.049409437   -0.31021656     0.035997078   -0.20011011     0.00054993881
   2857000   0.0494446     -0.31049534     0.035633779   -0.20069945    -0.00081692815
   2858000   0.050068252   -0.3105689      0.035765904   -0.19970547     0.0013778045 
   2859000   0.050137424   -0.31070055     0.035860668   -0.19963859    -0.0003072867 
   2860000   0.050181916   -0.31060884     0.035416731   -0.19992409     0.00034202205
   2861000   0.04940108    -0.31038564     0.035943129   -0.20034567    -0.00077922203
   2862000   0.049896992   -0.31062415     0.035667807   -0.20011568     0.00040452883
   2863000   0.049867215   -0.31073113     0.035567662   -0.20036747     0.00014467453
   2864000   0.049584193   -0.3103936      0.035805332   -0.20021678     0.0006096555 
   2865000   0.049731718   -0.31048143     0.035680028   -0.20020864     0.00055615597
   2866000   0.050254559   -0.31028662     0.035685821   -0.19922382    -2.4902056e-05
   2867000   0.05053143    -0.31064671     0.035703185   -0.19915127     1.8990958e-05
   2868000   0.049618545   -0.3105178      0.036124685   -0.1999701      0.00083873768
   2869000   0.049764425   -0.31023696     0.034821116   -0.20077402     0.0010566389 
   2870000   0.049974602   -0.31021313     0.035651687   -0.19960438    -0.00023568954
   2871000   0.050009719   -0.31042247     0.036194583   -0.19921814     0.00018287694
   2872000   0.049856035   -0.3104435      0.035493633   -0.20017064     0.0012651209 
   2873000   0.049842123   -0.31005808     0.036334098   -0.19896562     2.1660113e-05
   2874000   0.050056786   -0.31079258     0.035450127   -0.20026211    -0.00085051227
   2875000   0.049466559   -0.31078586     0.035799207   -0.2007916     -0.00026538616
   2876000   0.050247965   -0.31077863     0.036140567   -0.19927097    -0.0011354856 
   2877000   0.049811416   -0.3105694      0.036193859   -0.19966324     0.0003316868 
   2878000   0.049723757   -0.31072065     0.035893251   -0.20024657    -0.0013121739 
   2879000   0.050032873   -0.31057927     0.03549019    -0.20004462     0.00028344263
   2880000   0.049386148   -0.3107899      0.035212828   -0.20150263     0.00078758739
   2881000   0.04993244    -0.31014596     0.035379735   -0.19987239     0.0015144259 
   2882000   0.050315182   -0.31050289     0.036098916   -0.19893607    -0.00023470171
   2883000   0.050004786   -0.31075188     0.036191372   -0.19955817    -0.0002126081 
   2884000   0.050350945   -0.31037884     0.03658958    -0.19826771    -0.00027421192
   2885000   0.050133203   -0.31040013     0.03574938    -0.19945579     0.00020949426
   2886000   0.050017782   -0.31071907     0.035894089   -0.19980314    -0.00065961998
   2887000   0.049639266   -0.31045723     0.036138948   -0.19986419    -0.00028139033
   2888000   0.049969208   -0.31075727     0.035433069   -0.20037522    -0.00047563259
   2889000   0.049533163   -0.31078592     0.035667966   -0.20082301     0.002407388  
   2890000   0.049574722   -0.31095486     0.035677027   -0.20092055    -0.0001778537 
   2891000   0.049748854   -0.31106896     0.035996035   -0.20045446    -0.0002481908 
   2892000   0.050018425   -0.3103242      0.035707491   -0.19959391    -0.00063016796
   2893000   0.050198269   -0.31069122     0.036435023   -0.19896365    -0.00079976898
   2894000   0.049890342   -0.31090264     0.036236627   -0.19983533    -0.00010350629
   2895000   0.050181007   -0.31058934     0.036395967   -0.19892671     0.0001294502 
   2896000   0.050217412   -0.31067539     0.035829911   -0.19952422    -0.00021482851
   2897000   0.050593136   -0.31076886     0.035460391   -0.19942366     0.0015391994 
   2898000   0.049981785   -0.31065246     0.036209779   -0.19947484     0.00044587178
   2899000   0.050091063   -0.31055947     0.035716814   -0.19971091     0.0018669406 
   2900000   0.050044976   -0.31038622     0.035977012   -0.19934659     0.0010788027 
   2901000   0.049797971   -0.31017423     0.035818208   -0.19966389     0.0010452667 
   2902000   0.049788091   -0.31058122     0.03572803    -0.20017587     0.00013128693
   2903000   0.049819886   -0.31048712     0.03529968    -0.20046243     0.00088051283
   2904000   0.050224114   -0.31061577     0.036071544   -0.19921292     0.00074952356
   2905000   0.050494327   -0.31058321     0.036342021   -0.19850458     0.00049362118
   2906000   0.049446294   -0.31052547     0.036017527   -0.20034329     8.8875657e-05
   2907000   0.049831173   -0.31041296     0.035828816   -0.19984221    -0.00018301935
   2908000   0.049915966   -0.31031489     0.035659134   -0.19978664     0.0014713261 
   2909000   0.050263532   -0.31018102     0.035602391   -0.1991882     -0.0011973653 
   2910000   0.050231727   -0.3107808      0.035434647   -0.20000342    -0.0013414144 
   2911000   0.049798337   -0.31092248     0.03561398    -0.20061581    -0.00050904972
   2912000   0.049774494   -0.31086938     0.035363037   -0.20084942     0.00027022038
   2913000   0.049589196   -0.3114824      0.035589481   -0.20151393     0.0010132246 
   2914000   0.049937131   -0.31085441     0.036120905   -0.19983264    -9.90926e-05  
   2915000   0.050121403   -0.31108027     0.035973804   -0.19992921     9.6310573e-05
   2916000   0.050597683   -0.31084007     0.035050771   -0.19989767    -4.4276493e-05
   2917000   0.050147745   -0.31076422     0.036031178   -0.19951627     0.00091674673
   2918000   0.050253682   -0.31082286     0.035674706   -0.1997725     -0.00071329248
   2919000   0.04980175    -0.31065305     0.035790668   -0.20016458    -0.00089278261
   2920000   0.050060287   -0.31100675     0.0360216     -0.19989956     0.00017426886
   2921000   0.050319219   -0.31061494     0.035617714   -0.19952326     4.8375735e-05
   2922000   0.04972528    -0.31122011     0.035798974   -0.20083803    -0.00092896365
   2923000   0.049734104   -0.31063093     0.035397314   -0.20063727    -6.9993635e-05
   2924000   0.050264827   -0.31099207     0.035954627   -0.19964507    -0.0013065478 
   2925000   0.050064716   -0.31111376     0.035745576   -0.20027595    -0.0009474227 
   2926000   0.049699512   -0.31089765     0.035140474   -0.20121272    -3.06112e-05  
   2927000   0.049952316   -0.3109307      0.035198862   -0.20080819    -0.00025464052
   2928000   0.049554184   -0.31077781     0.035712588   -0.20073875     0.00086034008
   2929000   0.049840576   -0.31098789     0.03631413    -0.19991772     0.00021579133
   2930000   0.050422855   -0.31037629     0.035927429   -0.19881946     0.00027644944
   2931000   0.049955675   -0.31080365     0.036223243   -0.19965173    -8.9453277e-05
   2932000   0.049738408   -0.31079154     0.035801687   -0.20038706     0.00029361211
   2933000   0.049861761   -0.31071661     0.035646492   -0.2002823      0.00054837265
   2934000   0.049984542   -0.31076816     0.036291972   -0.19950421    -0.00096509344
   2935000   0.049673863   -0.31081576     0.035781166   -0.20052861     0.00039975648
   2936000   0.049833293   -0.31102677     0.035968811   -0.20031284     0.00080422366
   2937000   0.0503128     -0.31086389     0.035853808   -0.19954575     0.00015615105
   2938000   0.050162065   -0.31095132     0.03566704    -0.20004604     0.00077337805
   2939000   0.050430703   -0.31089063     0.036125208   -0.19912425     0.00064981508
   2940000   0.050075453   -0.31077147     0.035415854   -0.20024728     0.00086894368
   2941000   0.049974211   -0.31086954     0.036569418   -0.19934365     0.00034904309
   2942000   0.049888729   -0.31092525     0.035813759   -0.20028323    -6.988537e-05 
   2943000   0.050029397   -0.31102674     0.036059169   -0.19992832     0.00059658251
   2944000   0.049619665   -0.31096625     0.036649436   -0.19989211    -0.00077518169
   2945000   0.050176279   -0.31122712     0.035653516   -0.20031404    -0.00055406974
   2946000   0.049632206   -0.31102008     0.03620123    -0.20037535    -9.6646115e-05
   2947000   0.049859033   -0.31108651     0.035329587   -0.2009732      0.00042529245
   2948000   0.049718938   -0.31129361     0.035687827   -0.20103219     0.00087126085
   2949000   0.04990745    -0.31100506     0.035920953   -0.20022776     0.00063046127
   2950000   0.049926869   -0.31084647     0.03556648    -0.20039452     0.00025528934
   2951000   0.04973695    -0.3110203      0.036060648   -0.20035904     0.00026596591
   2952000   0.050500862   -0.31114591     0.036044313   -0.19935519    -0.00013926115
   2953000   0.050051893   -0.31143958     0.035887038   -0.20047955    -0.0002634653 
   2954000   0.050394436   -0.31139196     0.0353378     -0.20046738    -0.00031496979
   2955000   0.05049611    -0.31096137     0.036382697   -0.1988394     -1.9130996e-05
   2956000   0.050489622   -0.31060889     0.035416284   -0.19946306     0.00078053209
   2957000   0.050401737   -0.31080327     0.035991984   -0.19921356    -0.00016136223
   2958000   0.049785501   -0.3111154      0.035398298   -0.20104367     0.0026912212 
   2959000   0.050129555   -0.31110466     0.035924057   -0.19999112    -0.0013130155 
   2960000   0.049733543   -0.31122648     0.035708395   -0.20092258    -0.0002272913 
   2961000   0.050157815   -0.31168017     0.036470585   -0.19997772    -0.00027882502
   2962000   0.049805795   -0.31103537     0.03611283    -0.20021866     0.0015664536 
   2963000   0.050155802   -0.31154418     0.035752332   -0.200563       0.00023638975
   2964000   0.049954682   -0.31145614     0.035840787   -0.20068816     0.00025586848
   2965000   0.050037316   -0.31149687     0.036198024   -0.20024772     0.00070682772
   2966000   0.049795602   -0.31112298     0.0358398     -0.2005946      0.00011500627
   2967000   0.049753329   -0.31129528     0.035194448   -0.20147566     0.00049156502
   2968000   0.04978981    -0.31175749     0.035602492   -0.2014751     -5.0303247e-05
   2969000   0.050372362   -0.31126384     0.035984805   -0.19972536     0.00020354687
   2970000   0.049886616   -0.31127037     0.035943089   -0.20050219     0.00058928917
   2971000   0.050359145   -0.31150367     0.035904609   -0.20006522    -0.0012508337 
   2972000   0.049426171   -0.31141048     0.036437053   -0.20083895     0.00036555037
   2973000   0.050195826   -0.31168046     0.03572191    -0.20066967     0.00050278785
   2974000   0.050032485   -0.31160726     0.035804331   -0.20075905     0.00032077137
   2975000   0.04948555    -0.31167646     0.035633399   -0.20181953     0.00060996609
   2976000   0.050430783   -0.31157973     0.034799506   -0.20113893     0.0016104133 
   2977000   0.04961236    -0.31201456     0.036234808   -0.20136602    -0.0013906361 
   2978000   0.049469872   -0.31153529     0.035568852   -0.20176642     0.00051307978
   2979000   0.049793411   -0.31138284     0.035883215   -0.20081433    -0.0012590718 
   2980000   0.050035405   -0.31171865     0.036222416   -0.20044797     0.00048308536
   2981000   0.050390032   -0.31156124     0.035977607   -0.20000346     0.0011951764 
   2982000   0.050651576   -0.31144433     0.035987757   -0.19948411     0.00019674823
   2983000   0.049914672   -0.311493       0.035977174   -0.20064865     0.00018818774
   2984000   0.049884341   -0.31200468     0.035764302   -0.2014187     -0.00040640783
   2985000   0.049971819   -0.31177609     0.035931104   -0.20089209    -0.00044483496
   2986000   0.050216385   -0.31170797     0.036448972   -0.19993928    -0.0012539696 
   2987000   0.050211125   -0.31215077     0.035884366   -0.20095457    -8.8641117e-05
   2988000   0.050126477   -0.31198734     0.035759134   -0.20104334    -0.00068728283
   2989000   0.049984659   -0.31165667     0.034911866   -0.20177265    -0.00025604482
   2990000   0.04987597    -0.31128654     0.035740348   -0.20073706    -0.00015707084
   2991000   0.049906163   -0.3119888      0.036144583   -0.2009898     -0.00050021047
   2992000   0.049897088   -0.31170158     0.035467602   -0.20139318     0.0014538618 
   2993000   0.04986978    -0.31158544     0.035957256   -0.20082834    -0.00044711053
   2994000   0.050011074   -0.31188403     0.035700189   -0.20117207    -0.00063216321
   2995000   0.049970509   -0.31187906     0.035497079   -0.20143105     0.00029605529
   2996000   0.049846486   -0.31195105     0.035699637   -0.20148651     0.00034079853
   2997000   0.050820856   -0.31158273     0.035954108   -0.19940226    -0.00019813864
   2998000   0.049574965   -0.31182702     0.035718052   -0.20175132     0.00011588389
   2999000   0.050159436   -0.31193534     0.036074827   -0.20062622     0.00032763817
   3000000   0.049445898   -0.31197228     0.035632574   -0.20217564    -0.00055082866
   3001000   0.049893063   -0.31207059     0.035525192   -0.20171063     0.00085061257
   3002000   0.04944349    -0.31205779     0.035593145   -0.2023042     -0.0013868501 
   3003000   0.05006921    -0.31186578     0.035275857   -0.20149095     0.0011761908 
   3004000   0.050018153   -0.31193866     0.036046875   -0.2008694      0.00050869802
   3005000   0.049868164   -0.31180927     0.035540715   -0.20147113     0.00055349685
   3006000   0.049323789   -0.31194045     0.035773101   -0.20218643     0.00022821892
   3007000   0.050283679   -0.31217992     0.036032632   -0.20072663     0.0007426967 
   3008000   0.050017729   -0.3115999      0.035871372   -0.20070677     0.00026837859
   3009000   0.050321165   -0.31154086     0.036177394   -0.19988659     0.001096855  
   3010000   0.050003945   -0.31185063     0.036170109   -0.20067945    -0.00031680396
   3011000   0.050327775   -0.3119071      0.035321204   -0.2010991      0.0010722563 
   3012000   0.049996812   -0.31202059     0.035917635   -0.20111258    -0.00037394397
   3013000   0.049346459   -0.31198807     0.035859102   -0.20211406    -0.00015486185
   3014000   0.049915503   -0.31187122     0.036317692   -0.2006851      0.0013498383 
   3015000   0.049652482   -0.31190267     0.036035723   -0.20139303    -0.00012351825
   3016000   0.050298731   -0.31158253     0.036045188   -0.20009411    -0.00024329794
   3017000   0.049524009   -0.31174886     0.035361819   -0.20210582     0.00048127849
   3018000   0.049824651   -0.31198312     0.035691603   -0.20155936     0.00059145792
   3019000   0.049893674   -0.31240254     0.035914647   -0.20165221    -0.0018843467 
   3020000   0.049534926   -0.31204215     0.035810232   -0.20193432    -0.00052348231
   3021000   0.049960511   -0.31242189     0.035682161   -0.20180379    -0.0012639594 
   3022000   0.0501633     -0.312162       0.035998076   -0.20092383    -0.00016928211
   3023000   0.05008268    -0.31217562     0.035399511   -0.20165694     0.00036986613
   3024000   0.049910955   -0.31195642     0.035872028   -0.20122279     0.00030770372
   3025000   0.050553662   -0.31215998     0.035455244   -0.20087914     0.00087119687
   3026000   0.050341824   -0.3121809      0.036023134   -0.2006499      0.00023148319
   3027000   0.050441812   -0.31288419     0.036309117   -0.20091723    -0.0010229601 
   3028000   0.050114195   -0.31244158     0.036593384   -0.20068176     0.00054937458
   3029000   0.05010543    -0.31185226     0.035970511   -0.20072845    -0.00048595291
   3030000   0.050277299   -0.31176714     0.036008009   -0.20034805     0.00039798967
   3031000   0.050181204   -0.31214176     0.036022495   -0.20085231     0.00039952379
   3032000   0.050187117   -0.31245891     0.035946924   -0.20123616    -0.00036579395
   3033000   0.050268188   -0.31215899     0.035811949   -0.20094962     0.00026613071
   3034000   0.050381856   -0.31214194     0.035482158   -0.20109187    -0.00045404024
   3035000   0.050117438   -0.31225753     0.035732647   -0.20135358     0.0020246091 
   3036000   0.049710837   -0.31233238     0.036149401   -0.20162154    -0.0014218144 
   3037000   0.050051615   -0.31224494     0.035605816   -0.20156654     0.0011853894 
   3038000   0.050244128   -0.31204988     0.035366742   -0.2013218      0.00053693999
   3039000   0.050198832   -0.31204747     0.035235118   -0.20151896     0.00035133582
   3040000   0.050155405   -0.31226918     0.036155061   -0.20088587     0.00058023927
   3041000   0.050003889   -0.31236093     0.035297275   -0.20206266     0.00061657899
   3042000   0.050172158   -0.31251299     0.035701977   -0.20155763    -0.00059768497
   3043000   0.050160866   -0.31187451     0.035903504   -0.20073456    -0.00028386894
   3044000   0.049579866   -0.31242647     0.036652598   -0.20140887    -0.00028476086
   3045000   0.049988186   -0.31231653     0.035915791   -0.2014233     -0.00072556754
   3046000   0.050078619   -0.31230287     0.035460206   -0.20172959     0.00031575435
   3047000   0.050186362   -0.31207577     0.035293996   -0.20150708     0.00052415792
   3048000   0.049908396   -0.31220735     0.036505485   -0.2008441     -0.00090116249
   3049000   0.049753623   -0.31207124     0.03575956    -0.20168606     4.7524525e-05
   3050000   0.050351898   -0.31247483     0.035727613   -0.20122425     0.00087047356
   3051000   0.050313588   -0.31219921     0.035848024   -0.20088567    -0.00050041517
   3052000   0.050466032   -0.31241095     0.03550321    -0.20121358     0.00014818656
   3053000   0.049886395   -0.31272358     0.035267289   -0.20263153     0.00072892076
   3054000   0.049904348   -0.31230641     0.035963238   -0.20149148     0.00095823196
   3055000   0.050335096   -0.31227096     0.036450118   -0.20032307     0.0015144159 
   3056000   0.050520134   -0.31206414     0.035836113   -0.20045271    -0.00025469913
   3057000   0.050255829   -0.31241078     0.035818151   -0.20121375     0.00012578783
   3058000   0.049985455   -0.31216108     0.035663967   -0.20152377     0.00032672722
   3059000   0.049938154   -0.31219886     0.03527483    -0.20202164     0.00034053094
   3060000   0.049793215   -0.31236011     0.035484307   -0.2021908      0.0011742076 
   3061000   0.04957611    -0.31226455     0.035319077   -0.20258611     0.00043353672
   3062000   0.049533663   -0.31198969     0.035641541   -0.20205245    -0.00053920993
   3063000   0.050129226   -0.31225246     0.035782061   -0.20128141    -0.00013458238
   3064000   0.04972479    -0.31257609     0.035660067   -0.20233365     3.6761157e-05
   3065000   0.050066008   -0.31295579     0.036124826   -0.2017368     -0.0011750073 
   3066000   0.050238068   -0.3121458      0.036214175   -0.20057938    -7.7493155e-05
   3067000   0.050290893   -0.31279096     0.035630953   -0.20172853     0.00085843837
   3068000   0.049926193   -0.31286097     0.036001196   -0.20197532    -0.00039003183
   3069000   0.050208728   -0.31257536     0.035695895   -0.20157123     4.219523e-06 
   3070000   0.04996198    -0.31296716     0.035711901   -0.20231712    -9.2966592e-05
   3071000   0.050085508   -0.31249847     0.036137225   -0.20123783     0.00063607246
   3072000   0.050236651   -0.31237115     0.036449357   -0.20057167    -0.0014799965 
   3073000   0.050034351   -0.31251293     0.035743213   -0.20172303    -0.00087198516
   3074000   0.049837379   -0.3122873      0.036163184   -0.20137287    -0.00057229842
   3075000   0.049997698   -0.31265293     0.035989609   -0.20167162    -0.0006730215 
   3076000   0.050039371   -0.31255906     0.035492134   -0.20201271     0.00071778043
   3077000   0.049796796   -0.31270429     0.035573012   -0.2024409      0.0014289441 
   3078000   0.049661712   -0.31289725     0.035568339   -0.20284115    -0.0011444887 
   3079000   0.04988765    -0.31268753     0.035411005   -0.20244987     0.00058999404
   3080000   0.049857455   -0.31304148     0.035733103   -0.20252702     0.00029307274
   3081000   0.050080961   -0.31295518     0.035518552   -0.20232003     8.7482053e-05
   3082000   0.049973479   -0.31268065     0.036275218   -0.20145005     0.00011789084
   3083000   0.050352846   -0.31281791     0.035638243   -0.20165527     0.00054480514
   3084000   0.049523434   -0.31208902     0.036325168   -0.20148349    -7.2317843e-05
   3085000   0.050079978   -0.31273116     0.035704642   -0.20191139     0.00071985693
   3086000   0.049569509   -0.31253773     0.03594531    -0.20224295     0.00028493898
   3087000   0.050124801   -0.31303577     0.036311596   -0.20154183    -0.00091314378
   3088000   0.049869127   -0.31311847     0.036376611   -0.20194299     0.0012582653 
   3089000   0.04935948    -0.31229939     0.035927239   -0.20233771     0.001223218  
   3090000   0.051015819   -0.31283716     0.035715109   -0.20060326    -0.00017332019
   3091000   0.049775911   -0.31281086     0.036206589   -0.20194522     0.00076868598
   3092000   0.050094208   -0.31226568     0.03615683    -0.20097239    -9.7426859e-05
   3093000   0.049723839   -0.31288953     0.036032404   -0.20227618     0.00075211868
   3094000   0.04983839    -0.31258203     0.035652816   -0.20217645    -0.00074508256
   3095000   0.049775664   -0.31272942     0.035925497   -0.20214525     0.00095452345
   3096000   0.05029656    -0.31264272     0.035505168   -0.20169758     0.00098305889
   3097000   0.050031208   -0.31290758     0.035824541   -0.20204107     0.00087336505
   3098000   0.049452329   -0.31340562     0.035515685   -0.20371622    -0.00099049065
   3099000   0.049214893   -0.31313498     0.035597996   -0.2037194      0.00076081791
   3100000   0.049876201   -0.31288209     0.034951002   -0.20312161    -0.00025823292
   3101000   0.049838536   -0.31321068     0.035470442   -0.20298726     0.0012363447 
   3102000   0.049857654   -0.31311237     0.035467589   -0.20286313     0.0010004744 
   3103000   0.04953534    -0.3128445      0.035631727   -0.20291456     0.00036657094
   3104000   0.050507664   -0.31301872     0.035666692   -0.20159542     0.0013266454 
   3105000   0.049777333   -0.31334032     0.03586299    -0.20281615    -0.00029136153
   3106000   0.049987444   -0.31316733     0.036397843   -0.20179316     0.00032670469
   3107000   0.05010663    -0.3130522      0.035734713   -0.20216239     0.00020826336
   3108000   0.050295758   -0.31298435     0.035602574   -0.201943       0.00089083633
   3109000   0.049829699   -0.3132514      0.035688084   -0.20282359     0.00077593184
   3110000   0.050021711   -0.31286155     0.03586114    -0.20197269    -0.00071638508
   3111000   0.05030556    -0.31366794     0.035866566   -0.20234791    -0.00015962888
   3112000   0.050246007   -0.31300704     0.03582277    -0.20182012     0.00017802064
   3113000   0.04989396    -0.31307042     0.035505655   -0.20272865    -0.0019138597 
   3114000   0.049481659   -0.31352448     0.03573107    -0.20357571    -0.00025774493
   3115000   0.050138406   -0.31323518     0.035259286   -0.20277314     0.00018670986
   3116000   0.050022438   -0.31326566     0.035122225   -0.20311462     0.0010442876 
   3117000   0.050155672   -0.3129742      0.035691416   -0.20205413     0.00022437647
   3118000   0.049879121   -0.31281522     0.035662866   -0.2023385     -0.00025172545
   3119000   0.050165171   -0.31315105     0.035966888   -0.20194127    -0.0003052704 
   3120000   0.049425207   -0.3130168      0.035609253   -0.20327452    -0.00030269247
   3121000   0.050086732   -0.31286585     0.035626473   -0.20211413     0.0018562284 
   3122000   0.049621839   -0.31317767     0.035749774   -0.20299994     0.00090024623
   3123000   0.049978928   -0.31330952     0.035707359   -0.2026386     -0.0007377076 
   3124000   0.050486038   -0.31316989     0.035909661   -0.20153606    -0.001368429  
   3125000   0.050226767   -0.31317197     0.035924157   -0.20191252     9.279652e-05 
   3126000   0.049665945   -0.31286355     0.035655154   -0.20271428     0.00019700631
   3127000   0.049970253   -0.31336126     0.035182439   -0.20322828     0.00085504928
   3128000   0.049481481   -0.31321499     0.035486377   -0.20351118     0.0011304288 
   3129000   0.05026493    -0.31339015     0.035819806   -0.20217782    -0.00084132397
   3130000   0.049905859   -0.31314532     0.035835113   -0.20245625     0.00033055335
   3131000   0.050285584   -0.31322204     0.036208745   -0.20158978     0.00041150213
   3132000   0.050224237   -0.31355145     0.036370232   -0.20184972     0.00025439889
   3133000   0.05014485    -0.31336335     0.035775315   -0.20237562    -0.00073280722
   3134000   0.050368253   -0.31356238     0.035332878   -0.202682      -0.0011926887 
   3135000   0.049347285   -0.31320447     0.035836014   -0.20335231    -0.001025331  
   3136000   0.050006732   -0.31351234     0.034810489   -0.20369659     0.00063071124
   3137000   0.049970231   -0.31343727     0.035072702   -0.20341405     0.00053001015
   3138000   0.049602325   -0.31291062     0.035512231   -0.2029997      0.00058412064
   3139000   0.050173094   -0.31327572     0.035397764   -0.20262317    -0.00078927126
   3140000   0.050258673   -0.31311079     0.035831894   -0.20189575     0.00012188171
   3141000   0.05037444    -0.31322529     0.036366532   -0.20130197    -0.001019334  
   3142000   0.051021368   -0.31320812     0.035830617   -0.20085038    -0.00032638628
   3143000   0.050021931   -0.31365264     0.036313049   -0.20231154    -0.0010728007 
   3144000   0.049900867   -0.31307025     0.035653033   -0.20257075    -0.0014892968 
   3145000   0.05010915    -0.31300245     0.035846988   -0.20199659     0.00024519265
   3146000   0.050204972   -0.31373662     0.035538798   -0.20289522     0.00050227851
   3147000   0.050339419   -0.31337961     0.036570216   -0.20130514     0.00024101841
   3148000   0.049823906   -0.31341056     0.036315752   -0.20236378    -4.5440041e-05
   3149000   0.05017114    -0.3135486      0.035511255   -0.20278549    -0.00076778103
   3150000   0.049828927   -0.31294194     0.036508306   -0.20169506     0.00060517699
   3151000   0.050608715   -0.31262771     0.036023161   -0.20069638    -0.00014717493
   3152000   0.050271009   -0.31351166     0.036473342   -0.20163667    -0.00060297291
   3153000   0.050384547   -0.31302036     0.035644002   -0.20180442     0.00058658556
   3154000   0.050362726   -0.31328031     0.036395641   -0.20134545     0.00039991443
   3155000   0.049861339   -0.31294413     0.035219583   -0.20293737     0.0011196879 
   3156000   0.050016218   -0.31314696     0.035751137   -0.20237634    -0.00047363286
   3157000   0.050540773   -0.31375795     0.035954975   -0.2019967      0.00045587379
   3158000   0.050270521   -0.31295843     0.035960992   -0.20159652     0.00037649759
   3159000   0.050181526   -0.31299944     0.03568364    -0.20204837     0.0017502593 
   3160000   0.050263592   -0.31308136     0.035323619   -0.20236722     0.0016856504 
   3161000   0.049731485   -0.3131251      0.036285036   -0.20224765    -0.00075256868
   3162000   0.049926657   -0.31311903     0.035922224   -0.20231165     0.00069084202
   3163000   0.049758711   -0.31309054     0.035744026   -0.20271326     0.00020874681
   3164000   0.049765611   -0.31348864     0.036262002   -0.20258304    -0.0015318116 
   3165000   0.049663403   -0.313424       0.035908197   -0.2030255     -0.00039191224
   3166000   0.049828204   -0.31349794     0.035001371   -0.20375908     0.00052146088
   3167000   0.05024455    -0.31343623     0.035385811   -0.20268846     0.00072502398
   3168000   0.050142715   -0.31343833     0.035911043   -0.20231807    -0.00058631124
   3169000   0.049903792   -0.31340825     0.036019692   -0.2025377     -0.00052969335
   3170000   0.05025396    -0.31325796     0.035785935   -0.20209595    -0.00082347624
   3171000   0.050566118   -0.31330606     0.035176867   -0.20228491     0.0012909333 
   3172000   0.050401903   -0.3132654      0.035468955   -0.20219847    -0.00041036697
   3173000   0.049456533   -0.31324275     0.035811333   -0.20325141     0.00035253732
   3174000   0.049904221   -0.31317644     0.035892917   -0.20243202    -6.1228214e-05
   3175000   0.049834921   -0.31355063     0.035928918   -0.20287416     0.00015221334
   3176000   0.050275585   -0.31339697     0.035654507   -0.20233395    -0.0011778474 
   3177000   0.049575221   -0.31336608     0.036050502   -0.20295755     0.0014113908 
   3178000   0.049758764   -0.31360118     0.035814553   -0.2031533      5.0272873e-05
   3179000   0.049252019   -0.31390113     0.035634591   -0.20439328    -0.0011914717 
   3180000   0.050300322   -0.31356474     0.035992601   -0.20212652     0.00017331087
   3181000   0.050495981   -0.31312878     0.035191138   -0.20219856     0.00049827388
   3182000   0.049872098   -0.31337024     0.035424086   -0.20314283     0.00025925518
   3183000   0.050154117   -0.3133896      0.035788769   -0.20237451    -0.00022160672
   3184000   0.049813754   -0.31379237     0.035749393   -0.20332717    -0.0010310076 
   3185000   0.050375089   -0.31342838     0.035379711   -0.20249091     0.00065300255
   3186000   0.050060657   -0.31397028     0.036032744   -0.2028514     -0.00068338949
   3187000   0.04956553    -0.3136497      0.035823487   -0.20348271    -0.0011008242 
   3188000   0.049266667   -0.31364463     0.036538416   -0.20321098    -0.0012290856 
   3189000   0.050312318   -0.31336533     0.036183123   -0.2017186     -0.0001722205 
   3190000   0.050282655   -0.3131258      0.035811844   -0.20189484     0.00022141482
   3191000   0.049992915   -0.31357586     0.036260639   -0.20233069     0.00098151981
   3192000   0.049724677   -0.31353661     0.035650996   -0.20330341     0.00059516427
   3193000   0.050325876   -0.3136395      0.035751387   -0.20240417    -0.00015857141
   3194000   0.049991293   -0.31365087     0.035459933   -0.20320883    -0.00074877168
   3195000   0.049504621   -0.31363215     0.035803667   -0.20357634     0.00011535348
   3196000   0.049937968   -0.31309852     0.035280607   -0.20291579     0.0018009432 
   3197000   0.049248066   -0.31342222     0.03560686    -0.20394802     0.00037449457
   3198000   0.050176508   -0.31365366     0.035672543   -0.20272121     0.00063979798
   3199000   0.049906602   -0.31356843     0.035655875   -0.20305748     0.00082537208
   3200000   0.050252966   -0.3136588      0.036118409   -0.20216581    -0.00044700784
   3201000   0.04986576    -0.31361065     0.036235105   -0.20258173     0.00075323928
   3202000   0.050220303   -0.3137481      0.03593218    -0.20249032     0.00037851903
   3203000   0.049713401   -0.31356051     0.036033877   -0.20296134    -8.4930175e-05
   3204000   0.04985464    -0.31328097     0.03596603    -0.20253781    -8.9787142e-05
   3205000   0.049874584   -0.3134232      0.036122131   -0.20249402     0.00044268532
   3206000   0.049926222   -0.31342712     0.035306216   -0.2032364      0.00068772737
   3207000   0.050269734   -0.31367885     0.035617844   -0.20266127     0.00072249639
   3208000   0.050515908   -0.31344764     0.036313598   -0.20136507     0.00026866638
   3209000   0.050335922   -0.31401271     0.035666707   -0.20284699    -3.8807288e-05
   3210000   0.050704904   -0.31370346     0.035926725   -0.20172428     7.4206676e-05
   3211000   0.050548786   -0.31387569     0.036027793   -0.20202961     0.0014215065 
   3212000   0.049825943   -0.31392378     0.035769645   -0.20342004    -0.00047624704
   3213000   0.050046552   -0.31411749     0.035865972   -0.20318653    -0.00037758926
   3214000   0.050105117   -0.3138329      0.035537323   -0.20314275     0.00015396471
   3215000   0.049727404   -0.31353661     0.035832654   -0.20311767    -0.00078660436
   3216000   0.050567969   -0.31369875     0.036075634   -0.20177605     0.00085007091
   3217000   0.049998357   -0.31386942     0.035981559   -0.20289516    -0.00080085408
   3218000   0.049866799   -0.3137125      0.036059577   -0.20285755    -0.0002331289 
   3219000   0.049667241   -0.31396459     0.036634499   -0.20283404     0.0006385528 
   3220000   0.049945705   -0.31403034     0.035824631   -0.20329199     0.0006874863 
   3221000   0.049804433   -0.31418327     0.035804912   -0.20367653     0.00041457481
   3222000   0.049586168   -0.31394396     0.035886763   -0.20368275    -0.00081896985
   3223000   0.049768366   -0.31392913     0.035797784   -0.20348361     0.0004378161 
   3224000   0.050265163   -0.31365054     0.035217125   -0.20304054     0.0015497816 
   3225000   0.049928354   -0.31386755     0.035411667   -0.20356819     0.00045818658
   3226000   0.04926277    -0.31384577     0.035972855   -0.20398352    -0.00060860927
   3227000   0.049929264   -0.31395923     0.035297391   -0.20377278    -0.00048264872
   3228000   0.049982277   -0.3138175      0.036098201   -0.20275072     0.00084618405
   3229000   0.050195021   -0.31387467     0.035983468   -0.20260353     0.00083887216
   3230000   0.049995443   -0.31398882     0.035728518   -0.20327197    -0.00069753579
   3231000   0.050542392   -0.31389218     0.036179154   -0.20190433    -0.00026263056
   3232000   0.050459246   -0.31394069     0.035888044   -0.20236866    -0.0001385903 
   3233000   0.049799954   -0.3138501      0.036135353   -0.20301963     1.3675114e-05
   3234000   0.05013065    -0.31395874     0.035435862   -0.20333176    -0.00036395734
   3235000   0.049885853   -0.31381733     0.035788592   -0.20320478     0.000327963  
   3236000   0.050299347   -0.31376368     0.035469418   -0.20285011     0.00067904939
   3237000   0.049969      -0.31409893     0.035167565   -0.2039827      0.00087249876
   3238000   0.049987871   -0.31376982     0.035655555   -0.2031373      0.0013848806 
   3239000   0.049688559   -0.31402419     0.036361636   -0.20313453    -0.00021238738
   3240000   0.049440378   -0.31375607     0.036406409   -0.20319388    -0.00034618014
   3241000   0.050155358   -0.31409567     0.035269043   -0.20359845     0.00090408617
   3242000   0.05004241    -0.31427094     0.035772079   -0.20344009     0.0012574573 
   3243000   0.049256502   -0.31374653     0.035334936   -0.2045316      0.0011559078 
   3244000   0.050013345   -0.31417465     0.035733632   -0.20342584     0.00098299961
   3245000   0.050205348   -0.31414857     0.035337077   -0.20350833     0.00046454484
   3246000   0.050373108   -0.31398654     0.035270483   -0.20316127     0.00036866625
   3247000   0.049669148   -0.31408152     0.035932177   -0.20365042    -0.00033295158
   3248000   0.050541974   -0.31468247     0.035963934   -0.20291046    -0.00051007198
   3249000   0.049491967   -0.31422958     0.035883018   -0.20411341     0.00055205794
   3250000   0.050470665   -0.31418404     0.035165768   -0.20331716     0.00087775319
   3251000   0.049710367   -0.31405271     0.035900212   -0.20359176    -0.00052198747
   3252000   0.049591696   -0.31416098     0.035839676   -0.20393856    -0.0011687751 
   3253000   0.049902512   -0.31434038     0.035695987   -0.20379546     0.00096331305
   3254000   0.049940032   -0.31438778     0.035936544   -0.20354602    -0.00086826353
   3255000   0.050292978   -0.3142736      0.035709733   -0.20312927     0.00028830229
   3256000   0.050126615   -0.31426134     0.035851435   -0.20322484     0.00091391821
   3257000   0.050548656   -0.31416857     0.035454946   -0.20289553    -8.0486297e-05
   3258000   0.050265397   -0.3142866      0.035973856   -0.20291951     0.00071901629
   3259000   0.050402698   -0.31463438     0.035710039   -0.20332518    -7.4245998e-05
   3260000   0.050395458   -0.31453603     0.035871786   -0.20307593    -0.00020110324
   3261000   0.050331855   -0.31464893     0.03582691    -0.20332911     0.00016637706
   3262000   0.049562225   -0.31466263     0.035142023   -0.20518207    -0.00044373132
   3263000   0.049770443   -0.31427853     0.035396417   -0.20423126    -0.00040250085
   3264000   0.049729921   -0.31450581     0.035344801   -0.20457094    -0.00070102737
   3265000   0.049844332   -0.31419979     0.035733593   -0.20370452     0.0003145306 
   3266000   0.050258549   -0.31448293     0.036121311   -0.20297866    -0.00077097711
   3267000   0.049984945   -0.31427104     0.035205651   -0.20409281     0.002263211  
   3268000   0.050176862   -0.31429446     0.036188444   -0.20284558    -0.00019485879
   3269000   0.050258376   -0.31475787     0.036412612   -0.20296256     0.0011100726 
   3270000   0.049744279   -0.31473872     0.035912551   -0.20421456     0.00071720581
   3271000   0.049289917   -0.31448318     0.035698578   -0.20485449    -0.0003211562 
   3272000   0.049573514   -0.31471426     0.035705787   -0.204653       0.00026405414
   3273000   0.04940451    -0.3149759      0.035488386   -0.20538553    -0.00021626065
   3274000   0.050559445   -0.31487714     0.035662654   -0.20338021    -0.00032174744
   3275000   0.050116851   -0.31484536     0.035957904   -0.20371704     0.00072226822
   3276000   0.049428352   -0.31479009     0.03537125    -0.20528109     0.00097045802
   3277000   0.050296334   -0.31467847     0.035562627   -0.20367621     0.001323584  
   3278000   0.049836125   -0.31496072     0.035860412   -0.20435095     0.00076201588
   3279000   0.049923305   -0.31483228     0.035728636   -0.20422352    -0.00011027925
   3280000   0.050518255   -0.31475451     0.035360791   -0.20362123     0.0005411914 
   3281000   0.049295695   -0.31465685     0.035002604   -0.20571547    -0.00094231362
   3282000   0.0498024     -0.31492419     0.035533451   -0.20469196    -0.00036570611
   3283000   0.050361488   -0.31485111     0.036037759   -0.20327599     0.00048364637
   3284000   0.049520711   -0.31472651     0.036452344   -0.20399789     0.00019214466
   3285000   0.050639993   -0.31495024     0.035631491   -0.20336366    -0.00090756396
   3286000   0.049747644   -0.31475553     0.036011986   -0.20412689    -0.00075906649
   3287000   0.049752657   -0.31457333     0.035830125   -0.20411903    -8.6847854e-05
   3288000   0.050663385   -0.31507466     0.036322545   -0.20276194     0.00076024662
   3289000   0.050498608   -0.31480837     0.036574362   -0.20249098     0.00046458826
   3290000   0.049866169   -0.31465246     0.036147872   -0.20371016    -0.000518888  
   3291000   0.049870685   -0.31479447     0.035101057   -0.20489221     0.00017267197
   3292000   0.049502216   -0.31464025     0.036340801   -0.20405091    -0.0010664631 
   3293000   0.050369305   -0.31491395     0.035314587   -0.20405028     0.0017122224 
   3294000   0.049535678   -0.31513041     0.036043481   -0.20478821     0.00014357374
   3295000   0.049808397   -0.31529354     0.036000953   -0.20458481    -0.00099134649
   3296000   0.049505682   -0.31524474     0.036313252   -0.20467775    -0.00059456268
   3297000   0.050239214   -0.31535986     0.036309046   -0.20369686     0.00021433692
   3298000   0.04992355    -0.31516025     0.036276594   -0.20400316     5.1736684e-05
   3299000   0.050188178   -0.31454777     0.035561704   -0.20370866     0.0030279169 
   3300000   0.050205598   -0.31494476     0.035904054   -0.20373717    -4.5884522e-06
   3301000   0.050194232   -0.31522667     0.036053578   -0.2038866      0.00082378745
   3302000   0.050108855   -0.31500861     0.035708192   -0.20414199    -0.0008101129 
   3303000   0.049289454   -0.31465528     0.035382619   -0.20534325     0.00128534   
   3304000   0.049976323   -0.31472042     0.036490672   -0.2032701     -0.00052025258
   3305000   0.049528065   -0.31465479     0.035877686   -0.2044898     -0.00027500544
   3306000   0.050474773   -0.31496734     0.035889952   -0.20337011    -0.0001908453 
   3307000   0.050166762   -0.31513851     0.035077863   -0.20481536     0.0014111512 
   3308000   0.050322267   -0.31493044     0.035182722   -0.20426919     0.0012213781 
   3309000   0.050020131   -0.31502121     0.035877424   -0.20411843     0.00024939434
   3310000   0.050565179   -0.31505763     0.03563869    -0.20357607     0.00057614854
   3311000   0.049615109   -0.31515364     0.035769983   -0.20496579     0.00095523127
   3312000   0.04973289    -0.31510831     0.035691907   -0.20482188     0.0014415361 
   3313000   0.050340614   -0.31539696     0.035713739   -0.20417717     0.00037604551
   3314000   0.049382817   -0.31500112     0.035562933   -0.20536874    -0.00058075185
   3315000   0.050123638   -0.31520905     0.035634661   -0.20439378    -0.00032412349
   3316000   0.049996595   -0.31515858     0.035636173   -0.20453235     0.00030313921
   3317000   0.049960031   -0.31520096     0.036283326   -0.20398242     0.000301888  
   3318000   0.050430957   -0.31553791     0.036230574   -0.20366578    -0.0015153542 
   3319000   0.050123041   -0.31518984     0.036250239   -0.20375989     0.00093180395
   3320000   0.050037276   -0.31520875     0.035677772   -0.20447991     0.00042275219
   3321000   0.050673768   -0.31527322     0.036098915   -0.20316856     0.00034244664
   3322000   0.050581373   -0.31507511     0.036018332   -0.20318961     3.3119556e-05
   3323000   0.049988306   -0.31546727     0.036174765   -0.20431488     0.00038413183
   3324000   0.050122053   -0.31516029     0.036452807   -0.20352926     0.00075057873
   3325000   0.049919009   -0.31562492     0.036119689   -0.20463155     0.00062480957
   3326000   0.050576622   -0.31549129     0.035969877   -0.20366138     0.00014002662
   3327000   0.04978411    -0.31543526     0.035726365   -0.20503755    -0.00033333342
   3328000   0.049663815   -0.31549604     0.035623227   -0.2053819      0.0014637952 
   3329000   0.050352143   -0.31586197     0.035688895   -0.20464973     0.00038746688
   3330000   0.050096358   -0.31586402     0.036378553   -0.20434577    -0.0018253948 
   3331000   0.050148944   -0.31548296     0.035773253   -0.20449115     0.0018431668 
   3332000   0.049648631   -0.31588201     0.036268762   -0.20514511    -0.0010583611 
   3333000   0.049848952   -0.31511801     0.035506298   -0.20484311     0.0017255565 
   3334000   0.050415933   -0.31523525     0.035192632   -0.2044236      0.0010351338 
   3335000   0.049900299   -0.3153531      0.035369085   -0.20513839     0.0012239535 
   3336000   0.049841435   -0.31551234     0.03572079    -0.20503423     0.00033095812
   3337000   0.04993123    -0.31537243     0.035695989   -0.20478443     0.0011640965 
   3338000   0.049832322   -0.31558586     0.036077547   -0.20476465     0.00044938912
   3339000   0.049862786   -0.31540042     0.035681982   -0.20492908     0.00036032856
   3340000   0.05001202    -0.31532131     0.035967369   -0.20434075    -0.00067003866
   3341000   0.050460373   -0.31584622     0.036151629   -0.20400891    -0.00083286318
   3342000   0.050227706   -0.31536246     0.035999673   -0.20402608     0.00033018685
   3343000   0.049921033   -0.31565432     0.036017403   -0.2047602     -0.00032987572
   3344000   0.049930753   -0.31522173     0.036217538   -0.2041129      0.00063555703
   3345000   0.049786678   -0.31538876     0.03563883    -0.20507473     0.00098523992
   3346000   0.049871405   -0.31512911     0.035677793   -0.20464904     0.0010836402 
   3347000   0.049859152   -0.31566303     0.035771795   -0.20510734     0.00015431834
   3348000   0.049900302   -0.31597874     0.035413867   -0.20571925     0.0013340645 
   3349000   0.050034675   -0.315804       0.035484114   -0.20527272    -0.00022975414
   3350000   0.049462262   -0.31524758     0.036106074   -0.2049529     -0.00023125329
   3351000   0.050043042   -0.31562428     0.03593284    -0.20463172     0.0012687448 
   3352000   0.049969372   -0.31548476     0.035967155   -0.20456838    -0.0011531994 
   3353000   0.049899729   -0.31538703     0.035661037   -0.20488123    -0.0014302672 
   3354000   0.049928333   -0.31571302     0.036081326   -0.20474403    -0.0010848095 
   3355000   0.049811956   -0.31554323     0.036100452   -0.20472967     0.0015505856 
   3356000   0.050671586   -0.31559742     0.036243019   -0.20335192     1.5210055e-05
   3357000   0.049738449   -0.31547052     0.035977007   -0.20489065    -1.9565987e-05
   3358000   0.050297033   -0.31546653     0.036414265   -0.20361159     0.0002723401 
   3359000   0.050170973   -0.31490835     0.035165843   -0.2044909      0.0027151399 
   3360000   0.050178391   -0.31618683     0.035544997   -0.2053791      0.00031129401
   3361000   0.049766491   -0.31565556     0.03567434    -0.20533629     0.00045362083
   3362000   0.049596236   -0.31540748     0.03546253    -0.20555539     0.00093524677
   3363000   0.050138289   -0.3151978      0.036089354   -0.20390586     0.0016880277 
   3364000   0.050259424   -0.31555177     0.035836675   -0.20433082     0.00094137249
   3365000   0.050202813   -0.31574085     0.036278283   -0.2041632     -0.0019025924 
   3366000   0.050096552   -0.31575372     0.035818167   -0.20479557    -0.00031235292
   3367000   0.050364264   -0.31555795     0.036209274   -0.20380715    -0.00068552221
   3368000   0.05000214    -0.31581002     0.036043525   -0.20476812    -0.00037219992
   3369000   0.050445526   -0.315548       0.03526664    -0.20461795     0.00092691864
   3370000   0.049311179   -0.31566178     0.035092126   -0.20660766     0.00050084064
   3371000   0.049372603   -0.31567945     0.035790428   -0.2058349      0.00065351731
   3372000   0.049966316   -0.3152808      0.035461154   -0.204875       0.00044275087
   3373000   0.050221932   -0.31552399     0.035967306   -0.20422864     0.00083041893
   3374000   0.050162699   -0.31556564     0.036414935   -0.20391151     0.00039178953
   3375000   0.05052142    -0.31548043     0.036682945   -0.20302024     0.0007111738 
   3376000   0.050417779   -0.31550276     0.035819314   -0.20406165     0.0020778917 
   3377000   0.050468496   -0.31551944     0.036262153   -0.20355943     0.00040945078
   3378000   0.049867902   -0.31568937     0.036332117   -0.20456022     5.6496839e-05
   3379000   0.050192476   -0.31560759     0.035495486   -0.20482825     0.00019983155
   3380000   0.049965617   -0.31587783     0.035547179   -0.20538706     0.00075129414
   3381000   0.049727577   -0.31532819     0.035668687   -0.20507295    -0.00062212464
   3382000   0.049895708   -0.31564799     0.035652101   -0.20515715     0.00091007458
   3383000   0.049871688   -0.31555145     0.035493669   -0.20525508     0.00020117877
   3384000   0.04961002    -0.31582466     0.03590456    -0.20550987    -0.00013253373
   3385000   0.049719445   -0.31570081     0.036250766   -0.20487568    -0.00037529935
   3386000   0.050477309   -0.31587474     0.035686296   -0.20447737     0.0006866944 
   3387000   0.050247549   -0.31583208     0.035902107   -0.20456351    -0.00059976285
   3388000   0.050013137   -0.31588631     0.035804815   -0.20506663    -0.0011178858 
   3389000   0.0495674     -0.31596605     0.035755383   -0.20586436    -0.00059502588
   3390000   0.049992407   -0.31602888     0.035783291   -0.20526181    -0.0016381628 
   3391000   0.049885915   -0.31578251     0.036023603   -0.20493486    -0.00053354704
   3392000   0.049482937   -0.31568669     0.036024203   -0.20544287     0.00053749971
   3393000   0.050401244   -0.31573355     0.035386687   -0.20474988     0.00028509706
   3394000   0.049416537   -0.31607909     0.035587351   -0.20637171     0.00012452644
   3395000   0.049888884   -0.31613489     0.035944032   -0.20536236     6.0113361e-05
   3396000   0.049807344   -0.31589861     0.035993348   -0.20519907    -0.0002578685 
   3397000   0.049897484   -0.31625257     0.036469871   -0.2049413     -0.00044277336
   3398000   0.050193338   -0.31613944     0.035293628   -0.20556066     0.00043000466
   3399000   0.049870505   -0.31609384     0.035618744   -0.20567417    -0.00060999365
   3400000   0.04963276    -0.31612816     0.036005889   -0.20567794    -0.0017602869 
   3401000   0.04979889    -0.31582041     0.036011293   -0.2051156      0.00076458109
   3402000   0.050110592   -0.31573744     0.035108966   -0.20546744     0.00093541608
   3403000   0.049721129   -0.31627239     0.035685862   -0.20600965     0.0013909594 
   3404000   0.049907968   -0.31620992     0.036049564   -0.20530324    -0.00060992096
   3405000   0.049849885   -0.31630514     0.036197656   -0.20533748    -0.00012459361
   3406000   0.04937287    -0.31605613     0.036067215   -0.20593439    -0.00028272116
   3407000   0.049866895   -0.31610434     0.035388925   -0.2059199      0.00066398566
   3408000   0.050130779   -0.31623528     0.036063141   -0.20498082     0.00052357634
   3409000   0.049828283   -0.31631055     0.035747886   -0.20582506     0.00083026983
   3410000   0.049889755   -0.31613988     0.035661922   -0.20564816     0.00024435992
   3411000   0.050167217   -0.31631688     0.03606124    -0.20500967    -0.00080997102
   3412000   0.049786168   -0.31617392     0.035781155   -0.20571833     0.0011146465 
   3413000   0.050138213   -0.31628793     0.035610237   -0.20547523     0.00077002019
   3414000   0.050393399   -0.31643836     0.035986842   -0.2048663     -0.00084214328
   3415000   0.049759896   -0.3165927      0.036192582   -0.20576509    -0.00057150426
   3416000   0.049916566   -0.31649693     0.036023654   -0.20560326    -0.0010937989 
   3417000   0.049464095   -0.31641571     0.036152436   -0.20607192     0.00091535216
   3418000   0.050244696   -0.3164067      0.035970109   -0.20507441     0.00091807101
   3419000   0.050295948   -0.31615766     0.03571238    -0.20500622     0.0021469623 
   3420000   0.049835631   -0.31636009     0.036036612   -0.20557485     0.00011147943
   3421000   0.050302795   -0.31593297     0.035449498   -0.20503415     0.00078284463
   3422000   0.049941993   -0.31615358     0.035950084   -0.20529534     0.0015254988 
   3423000   0.0509205     -0.3161964      0.035690373   -0.20413021    -0.00055566714
   3424000   0.050753488   -0.31607979     0.035769509   -0.20418496     0.00067601228
   3425000   0.05020813    -0.31592963     0.03585595    -0.20476634     0.00067352657
   3426000   0.050379133   -0.31640943     0.036020259   -0.20482535    -0.00027003703
   3427000   0.049956116   -0.31663755     0.03563282    -0.2060754     -0.00060883968
   3428000   0.049478129   -0.31674117     0.035690917   -0.20683785     0.0011041626 
   3429000   0.049477641   -0.31658421     0.035699283   -0.20667326    -0.00066759501
   3430000   0.049876634   -0.31665404     0.03556252    -0.2062814      0.00017652351
   3431000   0.049997123   -0.31635194     0.036209686   -0.20515141    -4.2126094e-05
   3432000   0.050128597   -0.31679304     0.035902665   -0.20570233    -0.00048825953
   3433000   0.049799825   -0.31633958     0.036039242   -0.20560542    -0.00036411423
   3434000   0.04944888    -0.31652851     0.035835745   -0.20652423     0.00080355162
   3435000   0.049952231   -0.31638051     0.035879232   -0.20557777    -0.00094337166
   3436000   0.049625402   -0.31624468     0.035299415   -0.20651197    -0.00067663666
   3437000   0.050186858   -0.3166745      0.035430242   -0.20596883     0.00098947938
   3438000   0.049764145   -0.31648018     0.036165478   -0.2056733      0.00091403344
   3439000   0.049637079   -0.31650818     0.036025514   -0.20603185     0.00032555763
   3440000   0.050274148   -0.31654086     0.036023257   -0.20511124     0.00034781262
   3441000   0.049897214   -0.31636363     0.035964127   -0.20555851    -0.0013364617 
   3442000   0.050371405   -0.31681846     0.035421848   -0.20584438     0.0006213838 
   3443000   0.050712338   -0.31651682     0.036189981   -0.20426324     0.00049340465
   3444000   0.050409672   -0.31655859     0.035800185   -0.20514878    -0.00011301065
   3445000   0.05029775    -0.31669253     0.035436203   -0.20581457     0.0010526763 
   3446000   0.050176239   -0.31628365     0.035901144   -0.205123       0.00045057179
   3447000   0.050042346   -0.31652919     0.036113622   -0.20535689     0.0010356594 
   3448000   0.050394399   -0.31633817     0.036230012   -0.20452144     0.00045300325
   3449000   0.050009015   -0.31660597     0.036417757   -0.20517953     0.00071191017
   3450000   0.049936193   -0.31684313     0.035830797   -0.20611288     0.00089065479
   3451000   0.049671615   -0.31658264     0.036458748   -0.20562128     0.0011520368 
   3452000   0.050178888   -0.31610266     0.035818866   -0.20502032     0.0013738353 
   3453000   0.049620417   -0.31598895     0.036094065   -0.20546906     0.0004582594 
   3454000   0.049940451   -0.31662216     0.035700196   -0.20601612     0.00090737433
   3455000   0.050208944   -0.31654929     0.035884422   -0.20535631     7.8665963e-05
   3456000   0.050492336   -0.31677495     0.035765173   -0.20527615     0.00015200236
   3457000   0.050033732   -0.31710157     0.035847883   -0.20620793     0.0011857202 
   3458000   0.04976826    -0.31677998     0.035863371   -0.20626904    -3.7265029e-06
   3459000   0.04986449    -0.31644247     0.035818712   -0.20583185     0.00041625862
   3460000   0.049670015   -0.31661966     0.036231994   -0.20588745     0.00027112225
   3461000   0.050034816   -0.31653347     0.036221759   -0.20526433    -0.00027168962
   3462000   0.050082614   -0.31641289     0.035913361   -0.20538045     0.00064847479
   3463000   0.049910378   -0.31702113     0.03564577    -0.20651462     0.00016119926
   3464000   0.050310225   -0.31652592     0.035827774   -0.20523767     0.00083673351
   3465000   0.050605228   -0.3168425      0.036608763   -0.20433079    -0.00077056432
   3466000   0.050560628   -0.31674135     0.036096086   -0.20480922     2.204284e-05 
   3467000   0.049595643   -0.3168079      0.035795704   -0.20662353    -0.00029638934
   3468000   0.049619562   -0.31716469     0.036093849   -0.2066463      0.00038387644
   3469000   0.050263089   -0.31695388     0.03522041    -0.2063437     -0.00012867431
   3470000   0.050236972   -0.31678937     0.036256725   -0.20518205    -0.00033484143
   3471000   0.049917949   -0.31701226     0.035576563   -0.20656361    -5.0862361e-05
   3472000   0.049470886   -0.31684822     0.035312223   -0.20733445     0.00046839518
   3473000   0.049985764   -0.31709441     0.035660384   -0.20646021     0.0015701347 
   3474000   0.050081266   -0.31659296     0.035583479   -0.20589243     0.00037758704
   3475000   0.04995675    -0.31713829     0.035835503   -0.20637249     0.0010601681 
   3476000   0.049794757   -0.31660361     0.03552082    -0.20639548    -3.6792378e-05
   3477000   0.049844303   -0.31675405     0.035421404   -0.20657102     0.0002705537 
   3478000   0.049783064   -0.31708585     0.036501017   -0.20591505    -0.00036466171
   3479000   0.050418264   -0.31665185     0.036160179   -0.20486915     0.00066197706
   3480000   0.050421754   -0.31718276     0.035741552   -0.20581345    -0.00037972344
   3481000   0.0500581     -0.31681045     0.036224942   -0.2055032     -0.00042048895
   3482000   0.050162712   -0.31679682     0.036644274   -0.20491333     0.00031353915
   3483000   0.050503153   -0.3164626      0.036090418   -0.20462234    -0.00015981951
   3484000   0.050738938   -0.31675108     0.035566411   -0.20508118     9.3992868e-06
   3485000   0.049442449   -0.31673188     0.036157871   -0.20641512     0.00036913003
   3486000   0.049645599   -0.31703524     0.035562354   -0.20700929     0.00047507577
   3487000   0.050320388   -0.31721718     0.035506735   -0.20623474    -0.0005398367 
   3488000   0.05001143    -0.31703873     0.035895737   -0.20613069     0.00032584925
   3489000   0.05003549    -0.31668427     0.035358186   -0.20627769     0.00080255558
   3490000   0.04957719    -0.31645691     0.035297947   -0.20679798     2.9575697e-05
   3491000   0.04973956    -0.31681987     0.035386793   -0.20682855     0.00049258787
   3492000   0.049758704   -0.31706604     0.035715687   -0.20671711    -0.00011612658
   3493000   0.05012404    -0.31687084     0.03567638    -0.20601325     3.5639288e-05
   3494000   0.049496905   -0.3171135      0.035900884   -0.20697205     8.7143871e-05
   3495000   0.049917378   -0.31712191     0.035661669   -0.20658901     0.0011905909 
   3496000   0.050216603   -0.31722804     0.035490874   -0.20641712     1.4827808e-05
   3497000   0.049827296   -0.31675888     0.035770072   -0.20625269     0.0010556891 
   3498000   0.049816561   -0.31706904     0.036201663   -0.20614735     0.00028981088
   3499000   0.050034944   -0.31741541     0.036151062   -0.20621677    -0.00069309055
   3500000   0.04999556    -0.317402       0.035594075   -0.20681942     0.00026322943
   3501000   0.049668745   -0.3173247      0.035512491   -0.2073139      0.00034253035
   3502000   0.05010679    -0.31735924     0.035735842   -0.20646807     0.00057889364
   3503000   0.049670327   -0.3179044      0.035959463   -0.20744425     0.0013619258 
   3504000   0.049243739   -0.31748919     0.035813012   -0.20781534     0.00092055041
   3505000   0.049899609   -0.31760439     0.035951275   -0.20680853    -0.00097978716
   3506000   0.050154533   -0.31670632     0.035829936   -0.20564943     0.0013930615 
   3507000   0.050240012   -0.31716715     0.03571568    -0.20609632     0.00026693977
   3508000   0.050620782   -0.31736022     0.036041424   -0.20539252    -8.1353528e-05
   3509000   0.049942916   -0.31765235     0.0351051     -0.20763771     0.00061516938
   3510000   0.049934712   -0.31722491     0.036075935   -0.20625174    -0.00021069863
   3511000   0.050105723   -0.31735388     0.035739934   -0.20646021     0.0011998601 
   3512000   0.050310056   -0.3168917      0.036158091   -0.20527339     0.0014114041 
   3513000   0.049617769   -0.31718231     0.035857149   -0.20690331    -0.00014801163
   3514000   0.049959332   -0.31757679     0.036068695   -0.20657393     0.00036151753
   3515000   0.049793484   -0.31787245     0.036265873   -0.20692117     0.00030400039
   3516000   0.050226195   -0.31765324     0.036629354   -0.20568945    -0.00047197031
   3517000   0.050158123   -0.31761157     0.036451885   -0.20592736    -0.00074672245
   3518000   0.049995238   -0.3174174      0.035705065   -0.20672432     0.00057717893
   3519000   0.050349222   -0.31744644     0.035081672   -0.20684581     0.0028981519 
   3520000   0.050311244   -0.31763853     0.035209083   -0.20696745     0.00048312723
   3521000   0.049726944   -0.31723145     0.03590747    -0.20673838     0.00051819129
   3522000   0.049768928   -0.31760505     0.035768225   -0.20718824    -0.00015515864
   3523000   0.049915597   -0.31784112     0.035999154   -0.2069734      0.00023564891
   3524000   0.050003161   -0.31740252     0.035791969   -0.20661065    -0.00018475706
   3525000   0.049952848   -0.31749804     0.03623799    -0.20633561     0.0021882368 
   3526000   0.050516262   -0.31777298     0.036122031   -0.20588145    -0.00047218377
   3527000   0.050302301   -0.31783596     0.036091306   -0.20629607    -0.0013775221 
   3528000   0.049970514   -0.31757061     0.03618267    -0.20643701    -0.00035520733
   3529000   0.049996095   -0.31730609     0.036052659   -0.20626413    -5.3051665e-05
   3530000   0.050267819   -0.31712789     0.035405175   -0.20632585     0.0010047336 
   3531000   0.050502677   -0.31778451     0.035336499   -0.20669888     0.0014434628 
   3532000   0.050100914   -0.31772619     0.035902379   -0.20667729    -0.00014001501
   3533000   0.04999303    -0.31785468     0.036052394   -0.20681758     0.00020952944
   3534000   0.049747197   -0.31773432     0.035826015   -0.20729233     0.00010914486
   3535000   0.04979049    -0.31736797     0.035802551   -0.20688451     0.00085117371
   3536000   0.050197149   -0.31796887     0.035539141   -0.20713886     0.00058539628
   3537000   0.050266042   -0.31739512     0.035262703   -0.20673822     0.0001611592 
   3538000   0.050101587   -0.31783837     0.036244186   -0.20644665    -0.0012177796 
   3539000   0.050067976   -0.3180224      0.036115682   -0.2068096      0.00071344761
   3540000   0.050049466   -0.31808045     0.035949789   -0.20706131    -0.00058971346
   3541000   0.049584332   -0.31784783     0.035785089   -0.20769104     0.00013257431
   3542000   0.04993568    -0.31799058     0.036383103   -0.20670879    -0.0011643878 
   3543000   0.050042451   -0.31813893     0.035848195   -0.2072319     -0.0007966446 
   3544000   0.049912528   -0.3180858      0.035749364   -0.20747247     6.8157107e-05
   3545000   0.049712833   -0.3179827      0.035636141   -0.20778213    -0.0011513286 
   3546000   0.04982037    -0.31807863     0.03589125    -0.20746164     0.00052209199
   3547000   0.050004384   -0.3179472      0.035556216   -0.20738924     0.0017160671 
   3548000   0.050487867   -0.31808168     0.035451917   -0.20690285    -0.00014218298
   3549000   0.050003384   -0.31786853     0.03521941    -0.20764889     0.0013351249 
   3550000   0.050011716   -0.3178466      0.035512209   -0.20732166     0.00058998782
   3551000   0.049568164   -0.31798515     0.036561038   -0.20707666    -0.00073542909
   3552000   0.050213658   -0.31801594     0.036180479   -0.20651983    -0.00027105355
   3553000   0.049367529   -0.31845683     0.035931669   -0.20847864    -0.00021291333
   3554000   0.050193755   -0.31803139     0.035757288   -0.20698832     0.00066666247
   3555000   0.050188673   -0.31802625     0.036352639   -0.20639546    -4.8527023e-05
   3556000   0.049578497   -0.31739676     0.036438533   -0.20659528    -0.00025063342
   3557000   0.049892439   -0.31771563     0.035419818   -0.20746198     0.00066118942
   3558000   0.050488203   -0.31774709     0.035845605   -0.20617406     2.0439056e-05
   3559000   0.05006853    -0.31833649     0.036136747   -0.2071018      0.0003447563 
   3560000   0.050269742   -0.31817208     0.035920763   -0.20685157     0.00027788942
   3561000   0.049982867   -0.31783268     0.035317554   -0.20754566     0.0011550013 
   3562000   0.050137111   -0.31815992     0.036216893   -0.20674221     0.00055368576
   3563000   0.049857906   -0.31793978     0.035664837   -0.20749291     0.00011299871
   3564000   0.050145039   -0.3177054      0.035983151   -0.20650954    -0.00060442983
   3565000   0.050281755   -0.31831873     0.036092028   -0.20680894    -0.000946277  
   3566000   0.050035456   -0.31791663     0.035810547   -0.20705774     0.00076186177
   3567000   0.049953564   -0.31779493     0.036152962   -0.20671646     0.00012272274
   3568000   0.049573061   -0.31783992     0.035184471   -0.20830065     0.00082353685
   3569000   0.050182625   -0.31801259     0.035811921   -0.20693159     0.0003162199 
   3570000   0.050554871   -0.31816519     0.035883835   -0.20645394    -0.00057568948
   3571000   0.049864421   -0.31813911     0.035981516   -0.20736579    -0.0011042587 
   3572000   0.04993008    -0.31844746     0.035641774   -0.2079154     -0.00049119986
   3573000   0.049836609   -0.31803713     0.035739435   -0.2075476     -0.00073352903
   3574000   0.049843871   -0.31841311     0.036296282   -0.20735584    -0.00062478905
   3575000   0.050466904   -0.31802443     0.035996992   -0.20633196     0.00012846798
   3576000   0.050208648   -0.31834086     0.03632556    -0.20670719    -0.0014915958 
   3577000   0.04997597    -0.31806917     0.035771787   -0.20733827     0.00035633045
   3578000   0.049703111   -0.31809035     0.035394527   -0.20814597    -0.0017244703 
   3579000   0.049443997   -0.31775413     0.03576197    -0.20783094     0.00031636874
   3580000   0.049987095   -0.31815691     0.036293542   -0.20688756     0.00016331648
   3581000   0.050418018   -0.31828748     0.035817397   -0.20684794     9.5404292e-05
   3582000   0.050109029   -0.31790328     0.035451576   -0.207293       0.00052626324
   3583000   0.050536813   -0.31795733     0.035576934   -0.20658006     0.00043652005
   3584000   0.049780356   -0.31777284     0.036009767   -0.20709735     0.00076262067
   3585000   0.049759204   -0.31820585     0.03562131    -0.20795055     0.00017494759
   3586000   0.050417806   -0.31801083     0.035893624   -0.20649538    -0.0010422224 
   3587000   0.050435246   -0.31824352     0.03565225    -0.20694328     9.6412351e-05
   3588000   0.050143156   -0.31766756     0.036018512   -0.20643917     0.00028472912
   3589000   0.049990673   -0.31799279     0.035619552   -0.20739207    -0.00079557111
   3590000   0.049849102   -0.31803524     0.036283096   -0.20698331    -0.00070177339
   3591000   0.049773693   -0.31761026     0.03575379    -0.20720075     0.00089625791
   3592000   0.049607101   -0.31801984     0.035210572   -0.20840342     0.00042178743
   3593000   0.049815126   -0.31835935     0.035627424   -0.20801406    -0.00020570804
   3594000   0.050757429   -0.31833425     0.034876277   -0.20732674     5.3723863e-05
   3595000   0.049598773   -0.3182507      0.036271117   -0.20758622    -0.0021312084 
   3596000   0.049830346   -0.31812907     0.035953892   -0.20743448     0.00090359936
   3597000   0.049972483   -0.31819032     0.035522465   -0.20771397     0.00029262185
   3598000   0.049755447   -0.31799672     0.036108241   -0.20726013     3.6309191e-05
   3599000   0.050566804   -0.31837997     0.035689737   -0.20684492    -0.00073618236
   3600000   0.050390442   -0.31822555     0.036042037   -0.20660273     0.00079618768
   3601000   0.050055902   -0.31805765     0.036282516   -0.20669612    -0.00062675179
   3602000   0.049746141   -0.31855714     0.036346399   -0.20759635    -0.00061311626
   3603000   0.050243046   -0.31810295     0.036044784   -0.20669846     0.00092885475
   3604000   0.050360725   -0.31782959     0.036597175   -0.2056962      0.0005524907 
   3605000   0.050211063   -0.31786463     0.035980439   -0.20657245     0.00039495296
   3606000   0.049991734   -0.31826368     0.036167005   -0.20711391     0.00061921808
   3607000   0.049721737   -0.31820311     0.036030159   -0.20759515    -1.6631018e-05
   3608000   0.05023833    -0.31833289     0.035770447   -0.20720981    -0.00019741223
   3609000   0.04986071    -0.31823211     0.036197596   -0.20724827     0.00022481763
   3610000   0.050188911   -0.31838519     0.035231763   -0.20787492    -0.00016126159
   3611000   0.050231689   -0.31847073     0.035621508   -0.20750655     0.00043184871
   3612000   0.050054807   -0.31827977     0.03644514    -0.20675726    -0.00044313062
   3613000   0.050079161   -0.31832736     0.036075821   -0.20713765    -9.1495044e-05
   3614000   0.049623299   -0.3184476      0.035947819   -0.20806963    -0.0010510624 
   3615000   0.049703908   -0.3181158      0.036120045   -0.2074447      0.00042505719
   3616000   0.05028033    -0.3184175      0.03654713    -0.20645474     0.00089531889
   3617000   0.05023628    -0.31795934     0.035528175   -0.2070816     -0.0001828547 
   3618000   0.050261493   -0.31800186     0.035853449   -0.20676103     0.0024848687 
   3619000   0.050266426   -0.31823599     0.035666335   -0.20717488    -5.078523e-05 
   3620000   0.05061198    -0.31830164     0.036138337   -0.20625023     0.00067121429
   3621000   0.050595402   -0.31820944     0.035826259   -0.20649497    -0.0014798341 
   3622000   0.050482107   -0.31806612     0.036084196   -0.20626365     0.00025413753
   3623000   0.049915308   -0.31801131     0.03578737    -0.20735581     0.00055759989
   3624000   0.049409906   -0.31794787     0.035673252   -0.20816454     0.0010556401 
   3625000   0.049578412   -0.31813644     0.036217067   -0.20755656     2.1701305e-05
   3626000   0.04992113    -0.31848629     0.035567314   -0.20804211     0.00084483684
   3627000   0.050346856   -0.31859834     0.035721063   -0.20736186    -0.00023493963
   3628000   0.050173821   -0.31875307     0.035444853   -0.20805234     0.0012579465 
   3629000   0.049429016   -0.31848204     0.036008045   -0.20833526     0.00018236447
   3630000   0.049254078   -0.31802466     0.035437062   -0.20871125     0.0014567567 
   3631000   0.049800562   -0.31887948     0.035530742   -0.20865271     0.0003936331 
   3632000   0.049699285   -0.31824932     0.035689799   -0.20801541     0.00058297924
   3633000   0.049739034   -0.31862437     0.036142799   -0.20787784    -0.00092346527
   3634000   0.050157179   -0.3183502      0.03552025    -0.20759903    -0.0010858445 
   3635000   0.050039487   -0.3183869      0.036343108   -0.2069894      0.00047434963
   3636000   0.050790558   -0.31898223     0.035880896   -0.20692041    -5.5428365e-05
   3637000   0.049597715   -0.31855469     0.03584862    -0.20831429    -0.00037439185
   3638000   0.049993336   -0.31883287     0.036327372   -0.20752034    -0.00014744926
   3639000   0.050290806   -0.31827148     0.035808943   -0.20703119    -0.0010353716 
   3640000   0.050148174   -0.31877814     0.035707188   -0.20785354    -0.00018584869
   3641000   0.049980271   -0.31856287     0.035923941   -0.20767336     0.00045530282
   3642000   0.05006601    -0.31880645     0.035695847   -0.20801644    -0.00047481615
   3643000   0.049788672   -0.3185912      0.036301918   -0.20761109    -0.00066410055
   3644000   0.04962401    -0.31872263     0.03513731    -0.20915411    -2.8790466e-05
   3645000   0.049227394   -0.31841282     0.035691457   -0.20888504     0.00032490378
   3646000   0.050266845   -0.31831074     0.035657813   -0.20725752     0.00073376342
   3647000   0.050210898   -0.31870225     0.036194735   -0.20719603    -0.0011929454 
   3648000   0.049760167   -0.31856559     0.0362317     -0.20769846     0.00090632668
   3649000   0.050131097   -0.31858476     0.035699059   -0.20769391    -0.00064513119
   3650000   0.050118076   -0.31850442     0.036486955   -0.2068452      0.0011204068 
   3651000   0.050518407   -0.31867067     0.036234432   -0.20666352     0.001119903  
   3652000   0.04983274    -0.31801139     0.035511711   -0.20775539    -3.226429e-05 
   3653000   0.049733813   -0.31836549     0.035876368   -0.20789322     0.00061530748
   3654000   0.05020219    -0.31829969     0.036345702   -0.20665556    -0.00046325543
   3655000   0.050263083   -0.31844751     0.035713602   -0.20734414     0.0004538963 
   3656000   0.049556519   -0.31874459     0.03583473    -0.20857988     0.00069465415
   3657000   0.049994411   -0.31846145     0.036270772   -0.2072039     -0.00033046572
   3658000   0.050370169   -0.31850284     0.035970473   -0.20698198     0.00046771086
   3659000   0.050001529   -0.31858115     0.036108653   -0.20747504     0.00027023502
   3660000   0.050244994   -0.31825532     0.036254781   -0.20663792     0.00016220311
   3661000   0.05051695    -0.31887227     0.036147132   -0.2069546      0.0010771469 
   3662000   0.049696489   -0.31894515     0.036022664   -0.20838256     5.4964843e-05
   3663000   0.050233074   -0.31820303     0.036181144   -0.20667713    -5.4097025e-07
   3664000   0.049880207   -0.31827964     0.035470389   -0.20799377     0.0012467608 
   3665000   0.050108949   -0.31878069     0.036318816   -0.2073033      0.00013680389
   3666000   0.050161758   -0.31867442     0.035831065   -0.20760557    -0.00051988594
   3667000   0.050331602   -0.31819604     0.035413496   -0.20729001     0.0013344108 
   3668000   0.050371955   -0.31893737     0.035815201   -0.20756911    -0.0019117908 
   3669000   0.049474597   -0.31871031     0.036418547   -0.20808466    -4.4276952e-05
   3670000   0.049991658   -0.31865346     0.036117735   -0.20755308     0.00041848083
   3671000   0.049875494   -0.31860704     0.035653246   -0.20814538    -8.3829918e-07
   3672000   0.05031867    -0.31833657     0.035933297   -0.20693014     0.00096336029
   3673000   0.049587679   -0.31870032     0.035968668   -0.20835493     1.6203039e-05
   3674000   0.050212472   -0.31892981     0.036007699   -0.20760827     0.00088394653
   3675000   0.050690798   -0.31885647     0.03561223    -0.20721295    -0.00062642693
   3676000   0.050363537   -0.3188366      0.035662355   -0.20763381     0.001258482  
   3677000   0.050406032   -0.31883809     0.035218291   -0.20801563     0.00082126339
   3678000   0.049982853   -0.31888727     0.036080341   -0.20783749    -0.00040734264
   3679000   0.049984389   -0.31870112     0.035901881   -0.20782749     0.0023452561 
   3680000   0.050233692   -0.31910025     0.035325143   -0.20842943     0.00014240328
   3681000   0.049748367   -0.31868586     0.035469006   -0.20859912     0.00055820665
   3682000   0.049883931   -0.3188392      0.035905461   -0.20811267    -0.0002671306 
   3683000   0.049795519   -0.31899115     0.035613694   -0.20868899     0.0012415099 
   3684000   0.050138727   -0.31856264     0.035167516   -0.20819188     0.00053967751
   3685000   0.050659689   -0.31866871     0.035860252   -0.20682383    -0.000966975  
   3686000   0.050448239   -0.31856878     0.0362148     -0.2066865      0.00095671144
   3687000   0.050678472   -0.31837404     0.036086351   -0.20627489    -0.00022928932
   3688000   0.05004343    -0.31875423     0.035557155   -0.20813677     0.00094661372
   3689000   0.049631915   -0.31886887     0.036303823   -0.20812198     0.00053546059
   3690000   0.050089886   -0.31872319     0.036093502   -0.20749971     0.00017398598
   3691000   0.049780429   -0.3191826      0.035636128   -0.20888064     0.00040476314
   3692000   0.049778497   -0.31897479     0.035700568   -0.20861129     0.00041284108
   3693000   0.049528543   -0.31874028     0.035868729   -0.20858353    -0.00053422983
   3694000   0.050207058   -0.31866337     0.035872885   -0.20748476     0.00047040279
   3695000   0.049869926   -0.31922566     0.035600315   -0.20882528     0.0002761087 
   3696000   0.049845296   -0.31886362     0.035728423   -0.20837208    -8.8287132e-05
   3697000   0.049666354   -0.31859834     0.036108711   -0.2079949      0.0006043047 
   3698000   0.049898032   -0.31849104     0.036202076   -0.20744675    -0.00082616652
   3699000   0.050073498   -0.31953637     0.035785864   -0.2086451     -0.00026902686
   3700000   0.049045344   -0.31942993     0.035615639   -0.21025103     0.0016071295 
   3701000   0.050097553   -0.3189877      0.036318888   -0.20752734     0.0012006536 
   3702000   0.05007402    -0.31902145     0.036194559   -0.2077207     -0.00049180405
   3703000   0.049823864   -0.31907322     0.035202392   -0.20913986     0.00013262647
   3704000   0.050237722   -0.31893582     0.035142436   -0.20844167    -0.00030021906
   3705000   0.050020232   -0.31922215     0.035950819   -0.20824583     0.00024674133
   3706000   0.050135596   -0.31904886     0.035951308   -0.20789901    -0.00051710469
   3707000   0.049881904   -0.31909536     0.03613209    -0.20814524     0.0011477702 
   3708000   0.049896072   -0.31888385     0.035946491   -0.20809808    -0.00042292235
   3709000   0.049858059   -0.31891458     0.036187898   -0.20794442    -0.00016119661
   3710000   0.049817489   -0.31969057     0.03586266    -0.20910649     0.00059552002
   3711000   0.049629087   -0.31923213     0.035388464   -0.20940484     0.00088942643
   3712000   0.049535226   -0.3187199      0.03563891    -0.20878295    -0.00034956759
   3713000   0.050084649   -0.31902649     0.0357564     -0.20814796    -0.00026953401
   3714000   0.050256034   -0.3191374      0.035105884   -0.20865233    -0.00020484873
   3715000   0.050303804   -0.31918814     0.036116018   -0.20762128     0.00037272524
   3716000   0.050218805   -0.31923057     0.035933751   -0.20797347     0.00060540379
   3717000   0.049936402   -0.31897467     0.035789856   -0.20828505     8.8930155e-05
   3718000   0.049260589   -0.3191891      0.036244216   -0.20905877     0.0004124995 
   3719000   0.050022254   -0.31918779     0.035492341   -0.20866691    -0.00060786368
   3720000   0.050019638   -0.31925084     0.036486285   -0.20773994     0.0001934259 
   3721000   0.049340189   -0.31896678     0.036001007   -0.20896027     3.6930899e-06
   3722000   0.049844902   -0.31921955     0.0360347     -0.20842232    -0.00065683592
   3723000   0.050428936   -0.31888092     0.035661199   -0.2075812      0.00023580616
   3724000   0.050004405   -0.31895002     0.036278828   -0.20766942    -0.0014338903 
   3725000   0.050425136   -0.31866668     0.036401083   -0.20663277    -0.00040472442
   3726000   0.049853376   -0.3187238      0.036263221   -0.20768533    -0.00076114464
   3727000   0.049816979   -0.31926599     0.036278472   -0.20826687    -0.00022356471
   3728000   0.049935219   -0.3186453      0.036416585   -0.20733072    -0.0001295277 
   3729000   0.049908422   -0.3188105      0.036552798   -0.2073999     -0.0015104349 
   3730000   0.050544022   -0.31934457     0.036447704   -0.20708573     0.00053685558
   3731000   0.050109042   -0.31924389     0.036202726   -0.20788245     0.0007047779 
   3732000   0.050171085   -0.31926576     0.036452694   -0.20756129     0.0011562184 
   3733000   0.050819168   -0.31890601     0.035916548   -0.20676563     6.636279e-05 
   3734000   0.050304044   -0.31922286     0.035881633   -0.20789003    -0.00017466249
   3735000   0.049908423   -0.31950095     0.035624485   -0.20901866    -0.0006365772 
   3736000   0.050101789   -0.31893985     0.035638184   -0.20815384    -0.00059059262
   3737000   0.050083959   -0.31921752     0.035579179   -0.20851725     0.0011469028 
   3738000   0.050067215   -0.31937929     0.035950294   -0.20833302    -0.0011341449 
   3739000   0.050097167   -0.31947205     0.035901029   -0.20843012     0.00067252018
   3740000   0.050046234   -0.31934728     0.035875508   -0.20840727     0.00051590509
   3741000   0.049969206   -0.31931589     0.036193869   -0.20817305    -0.0010556883 
   3742000   0.050416399   -0.31947641     0.03613413    -0.20772256    -0.0010308155 
   3743000   0.050034665   -0.31919651     0.036372721   -0.20777664     0.0001107776 
   3744000   0.04976363    -0.31863354     0.03570391    -0.208289       0.00054989145
   3745000   0.050393759   -0.31873043     0.035686283   -0.20745838     0.00068044697
   3746000   0.049577124   -0.31944152     0.035446359   -0.20963427     0.0016488078 
   3747000   0.050186218   -0.3194036      0.03597535    -0.20815378    -0.00021377745
   3748000   0.049956805   -0.31929003     0.036071353   -0.20828831    -0.00049071293
   3749000   0.049764989   -0.31898944     0.035713367   -0.2086334      0.0017928762 
   3750000   0.050043847   -0.31902483     0.035934441   -0.20802946    -0.00097707036
   3751000   0.050627204   -0.31942242     0.035642309   -0.2078442     -0.00020964473
   3752000   0.050300738   -0.31934849     0.036145362   -0.20775689     0.00023461117
   3753000   0.050515311   -0.31959581     0.035570819   -0.20825691     0.00027068561
   3754000   0.049592482   -0.31957727     0.035719256   -0.20947409    -0.00052909768
   3755000   0.049666336   -0.31930961     0.036761847   -0.20805306    -0.00023734727
   3756000   0.050117209   -0.31962249     0.03669089    -0.20776063    -0.0017410132 
   3757000   0.050204008   -0.31919464     0.035572352   -0.20832114     9.1561061e-05
   3758000   0.049329827   -0.31885479     0.035526599   -0.20933822     2.7210333e-05
   3759000   0.049380632   -0.31934572     0.03545199    -0.20982756     0.00047318241
   3760000   0.049581057   -0.31945869     0.036042547   -0.20904935     0.00013608706
   3761000   0.050431386   -0.31967346     0.036373263   -0.207658      -0.00028667177
   3762000   0.049778899   -0.31922532     0.035407873   -0.20915392     0.001992422  
   3763000   0.050141517   -0.31945173     0.036305756   -0.20793855    -0.00013289392
   3764000   0.049888806   -0.31913822     0.036222931   -0.20808691    -0.0010883358 
   3765000   0.050125603   -0.31926351     0.035702039   -0.20837792     0.00035183553
   3766000   0.049813367   -0.31921147     0.035851372   -0.20864487     0.00026661689
   3767000   0.049781688   -0.31966362     0.036506588   -0.20848932     0.0002213199 
   3768000   0.049712136   -0.31932419     0.03611285    -0.20864795     0.0015501237 
   3769000   0.050708473   -0.31940939     0.035385539   -0.20796604     0.00096752282
   3770000   0.050262616   -0.3195457      0.035343809   -0.20881283    -3.4708216e-05
   3771000   0.049527984   -0.31925221     0.035951045   -0.20901398    -0.0012967937 
   3772000   0.050115628   -0.31969416     0.035814575   -0.208711      -0.0008137414 
   3773000   0.050071276   -0.31935432     0.036153432   -0.20809882    -0.00029508591
   3774000   0.0504563     -0.31967804     0.036322749   -0.20767572    -0.00049476965
   3775000   0.049990989   -0.31950658     0.036351688   -0.20817325     0.00037523815
   3776000   0.05016571    -0.3196448      0.036269806   -0.20813128     0.00024518191
   3777000   0.050339565   -0.31938679     0.036429523   -0.20745279    -0.00064387653
   3778000   0.050257646   -0.31940326     0.036264531   -0.20775713    -0.00032510741
   3779000   0.050055342   -0.31954823     0.035622943   -0.20884712     0.001093881  
   3780000   0.050093378   -0.31956318     0.035672733   -0.20875523     0.0010688475 
   3781000   0.049901285   -0.31942608     0.036409721   -0.20816926     0.0001208099 
   3782000   0.049842456   -0.3193225      0.035788645   -0.208775       0.0018190497 
   3783000   0.049751418   -0.31916323     0.035740339   -0.20880057     0.0013229249 
   3784000   0.050560126   -0.31929564     0.035463433   -0.20799691     0.0016140042 
   3785000   0.049591169   -0.31982275     0.035882292   -0.20955851    -0.00061056941
   3786000   0.049836263   -0.31967778     0.036733185   -0.20819502    -0.0012334498 
   3787000   0.050363208   -0.31963697     0.035795329   -0.20830171     0.0011748631 
   3788000   0.050062815   -0.31941053     0.036015732   -0.20830542     0.0015136285 
   3789000   0.050588697   -0.31968251     0.035614821   -0.20818954     0.00010531952
   3790000   0.050810223   -0.3195141      0.036365523   -0.20693816     0.001303854  
   3791000   0.050409949   -0.32006063     0.035956362   -0.20849423    -0.00055370169
   3792000   0.050328141   -0.3198058      0.035945704   -0.20837276     0.00039865365
   3793000   0.049968422   -0.31943716     0.035737526   -0.20875184     0.00022270337
   3794000   0.049927956   -0.31948399     0.036033336   -0.20856355     0.00074006547
   3795000   0.050157836   -0.31975639     0.035893371   -0.20863112     0.00036301038
   3796000   0.050063075   -0.3194818      0.036020434   -0.2083716      0.0012205535 
   3797000   0.049686818   -0.31978947     0.035817936   -0.20944612     0.0001327081 
   3798000   0.050262589   -0.31961304     0.035915208   -0.20830881    -0.00026930851
   3799000   0.050333996   -0.31950696     0.0355696     -0.20844123     0.0018013288 
   3800000   0.049956493   -0.3198935      0.036857718   -0.20810588     0.00010164631
   3801000   0.050558206   -0.31965737     0.035943239   -0.20788172     0.0011193546 
   3802000   0.050297279   -0.3195129      0.036150179   -0.20792167    -0.00028592909
   3803000   0.050096777   -0.31964709     0.036537936   -0.20796883    -0.0011789918 
   3804000   0.050113061   -0.3194168      0.035704555   -0.2085475      0.0016640161 
   3805000   0.049790997   -0.31976087     0.03629039    -0.2087888     -0.0014868702 
   3806000   0.049217139   -0.31970687     0.035822034   -0.21006389     0.00018153774
   3807000   0.0503473     -0.31972845     0.036050476   -0.20816189    -0.00027329411
   3808000   0.05066128    -0.31969992     0.03622481    -0.2074881     -0.00027773656
   3809000   0.050015093   -0.31972065     0.035534248   -0.2091686      0.0010315901 
   3810000   0.049427367   -0.3194967      0.036217977   -0.20914246    -0.00047328762
   3811000   0.050421481   -0.31986903     0.036136803   -0.20810489     0.0010185135 
   3812000   0.049766716   -0.31973312     0.035674645   -0.20941322     0.00026155017
   3813000   0.04937089    -0.31994257     0.036272597   -0.20961842    -0.00036351868
   3814000   0.049933485   -0.31910876     0.035790049   -0.20842332     0.0012815088 
   3815000   0.050365429   -0.3197185      0.036193263   -0.20798196    -0.00053277198
   3816000   0.049685747   -0.32015313     0.036602718   -0.2090266     -0.0014412471 
   3817000   0.050441144   -0.32032512     0.035866694   -0.20880159    -0.0013388692 
   3818000   0.050343248   -0.31986828     0.035916139   -0.20844214     0.0013110939 
   3819000   0.050150507   -0.31965691     0.036405923   -0.20803008    -0.00072055028
   3820000   0.050245819   -0.31972209     0.035646221   -0.20871201    -0.00076075096
   3821000   0.049811403   -0.32004843     0.035513733   -0.20982241     0.00013324925
   3822000   0.049631183   -0.3200526      0.035858133   -0.2097525     -7.6512259e-05
   3823000   0.050081329   -0.31985994     0.036752974   -0.20798982     0.00011943405
   3824000   0.049944511   -0.32000991     0.035750512   -0.20934746     0.0010391914 
   3825000   0.050055367   -0.31999844     0.036128649   -0.20879159    -0.0003730879 
   3826000   0.049847971   -0.31971117     0.035823762   -0.20912028     0.00060912929
   3827000   0.049767935   -0.31960268     0.036422102   -0.20853349    -0.00062020495
   3828000   0.050223408   -0.32012292     0.036065581   -0.20872708    -0.00064895291
   3829000   0.050323443   -0.32010882     0.035368366   -0.20926016     0.00087563532
   3830000   0.049687772   -0.3195167      0.036105656   -0.2088842     -0.00026762349
   3831000   0.050067909   -0.32013681     0.035881349   -0.20915844    -2.4964406e-05
   3832000   0.049917295   -0.31956819     0.036261204   -0.20843587    -2.5168304e-05
   3833000   0.050163105   -0.3196423      0.03563638    -0.20876612    -0.00040349845
   3834000   0.049861745   -0.31967244     0.036569844   -0.2083148      0.00064924904
   3835000   0.050635766   -0.31986769     0.035803184   -0.20811576     0.0009510964 
   3836000   0.049805887   -0.31973394     0.036185333   -0.2088446      0.0016210464 
   3837000   0.049919055   -0.31944054     0.035862734   -0.20870405     0.00064307979
   3838000   0.049545175   -0.3199304      0.036020387   -0.20959705    -0.0018833583 
   3839000   0.049669295   -0.31968409     0.036170805   -0.20901415     0.00080492928
   3840000   0.049992453   -0.31949874     0.0364883     -0.2080266      0.0011127339 
   3841000   0.050182047   -0.31973998     0.035983535   -0.20848823    -0.0009711995 
   3842000   0.049786578   -0.31962135     0.03587244    -0.20907386    -0.00034713168
   3843000   0.050036815   -0.31976943     0.036194045   -0.20852501     0.00014976782
   3844000   0.049880143   -0.31981694     0.03597659    -0.20902496     0.00024069089
   3845000   0.050470765   -0.31955941     0.036282939   -0.20757521     0.00033117543
   3846000   0.050088875   -0.31956376     0.036067636   -0.20836766     0.0014032238 
   3847000   0.049972224   -0.31979803     0.03545438    -0.20939016     0.00083659318
   3848000   0.049962175   -0.32027265     0.035904192   -0.20943003     0.00010691569
   3849000   0.050053768   -0.31985837     0.036038857   -0.2087437     -0.00016804084
   3850000   0.050104464   -0.31996725     0.03571476    -0.20910064    -9.7362715e-05
   3851000   0.049585626   -0.31992458     0.035895891   -0.20965505     0.00073204282
   3852000   0.050055572   -0.32014024     0.035619352   -0.20944238     0.00035954877
   3853000   0.049703078   -0.3201678      0.035698452   -0.20991954    -0.0001482442 
   3854000   0.049893949   -0.31995356     0.035970917   -0.20914655    -0.00018256282
   3855000   0.05033376    -0.31981411     0.035819324   -0.20849902     0.0014482745 
   3856000   0.050034384   -0.31989488     0.035951275   -0.20889687     0.00093407955
   3857000   0.050397096   -0.31984099     0.036376636   -0.20787359    -0.00042937155
   3858000   0.050575634   -0.31985882     0.035976792   -0.20802348     0.00047353879
   3859000   0.05032676    -0.31993382     0.03556405    -0.2088845      0.0013605105 
   3860000   0.050334401   -0.32016592     0.035992916   -0.20867627    -0.00027403943
   3861000   0.050026781   -0.31976905     0.03575387    -0.20897985     0.00017328884
   3862000   0.050032067   -0.31997246     0.03574172    -0.20918748     0.00061140012
   3863000   0.04950242    -0.31985998     0.036098253   -0.20951289     0.0011338061 
   3864000   0.049944364   -0.31970128     0.035827973   -0.2089616      0.0012644939 
   3865000   0.050383376   -0.31991928     0.036160966   -0.20818812    -0.00011245522
   3866000   0.050137097   -0.31987621     0.035939842   -0.20873557     0.0019063446 
   3867000   0.050142141   -0.31991843     0.035382309   -0.20932776     0.0004844465 
   3868000   0.049661196   -0.32023979     0.036415707   -0.20933709     0.00027570531
   3869000   0.049571877   -0.32052541     0.036023475   -0.21014892    -0.00033769103
   3870000   0.050272457   -0.31973821     0.035572341   -0.20876205     0.0015140638 
   3871000   0.0499688     -0.32005376     0.035362995   -0.2097424      0.00024876778
   3872000   0.04996156    -0.32035189     0.03628752    -0.20912687    -0.00049187077
   3873000   0.049879915   -0.3207084      0.036124911   -0.20976845    -7.9966806e-05
   3874000   0.050368953   -0.3207488      0.035522349   -0.2096779      0.0005838003 
   3875000   0.050421733   -0.3198352      0.036378646   -0.20782883     0.0021587023 
   3876000   0.049746636   -0.32009085     0.035660502   -0.20981521    -0.00016482182
   3877000   0.050960312   -0.3206318      0.035132926   -0.20906334     0.0018920153 
   3878000   0.049839008   -0.320142       0.036028583   -0.20935973     0.00063642216
   3879000   0.049928413   -0.32025418     0.035593925   -0.20977246     0.00051786124
   3880000   0.049733759   -0.31997116     0.035889618   -0.20948571     0.00083487574
   3881000   0.049896836   -0.31990858     0.0360056     -0.20906255     0.00089850544
   3882000   0.050475495   -0.32012061     0.036030401   -0.20838185    -0.00016332268
   3883000   0.050353474   -0.32019942     0.036109443   -0.20856464     0.00035685989
   3884000   0.05026008    -0.32020794     0.035504366   -0.20931832     0.00052089564
   3885000   0.05046575    -0.320361       0.035913079   -0.20875418     0.00034485452
   3886000   0.050145236   -0.32020053     0.036043553   -0.20894398    -0.00020241399
   3887000   0.050589381   -0.32004463     0.035695801   -0.20846965     0.00015091292
   3888000   0.050337632   -0.32098245     0.036812215   -0.20866866     0.00032080941
   3889000   0.050332143   -0.32040863     0.036595809   -0.20831947    -0.0009453463 
   3890000   0.04987422    -0.32063498     0.036182625   -0.20964585     0.0001962582 
   3891000   0.050010907   -0.32026557     0.035827477   -0.20942657     0.00079445986
   3892000   0.050808106   -0.32004666     0.035731405   -0.20810801     0.0010539456 
   3893000   0.050015035   -0.32005919     0.036302366   -0.20873911     0.0013005431 
   3894000   0.050229311   -0.32028913     0.035592986   -0.20935703    -0.0011127713 
   3895000   0.049650524   -0.32036266     0.035300118   -0.21059156     0.00061435385
   3896000   0.049965991   -0.32042206     0.035757984   -0.20971992     4.9581764e-05
   3897000   0.049826858   -0.32024023     0.035422498   -0.21008227     0.0012952151 
   3898000   0.049776963   -0.32017796     0.035487763   -0.21002957     0.0007481639 
   3899000   0.049729978   -0.32022687     0.036150821   -0.20948589     0.00029511764
   3900000   0.049221722   -0.31977518     0.036374884   -0.20957248     0.00014217166
   3901000   0.049495825   -0.32003661     0.035684936   -0.21011273     0.0009840754 
   3902000   0.049715709   -0.32047733     0.035636578   -0.210272       0.0009206064 
   3903000   0.050117518   -0.32001148     0.035616633   -0.20922342    -0.00072628855
   3904000   0.050424086   -0.32025139     0.036084565   -0.20853558     0.00099294037
   3905000   0.050421516   -0.32023941     0.036073927   -0.20853809    -0.00092778908
   3906000   0.050924397   -0.32054502     0.036191852   -0.2079715      0.00033572131
   3907000   0.050328096   -0.32017553     0.035465173   -0.20922308    -0.00025439253
   3908000   0.050198781   -0.32073183     0.036386552   -0.20905196    -0.00038740625
   3909000   0.050968668   -0.32019        0.036070288   -0.20767164    -8.6900737e-05
   3910000   0.050148394   -0.32002971     0.035798661   -0.20901331     0.0018087796 
   3911000   0.050075379   -0.32002251     0.035489491   -0.2094248     -0.0011681017 
   3912000   0.050307433   -0.32015641     0.035840632   -0.20885949    -0.00089185483
   3913000   0.04993071    -0.32043814     0.036261099   -0.20928581    -0.0010183362 
   3914000   0.04941253    -0.32038732     0.035663139   -0.21061016    -6.5306738e-05
   3915000   0.049888287   -0.3204453      0.036348205   -0.20926949     0.0006380356 
   3916000   0.049731939   -0.32066368     0.035808238   -0.21026235     0.0015779212 
   3917000   0.050225961   -0.32052884     0.036364296   -0.20883047    -0.00063508353
   3918000   0.050044639   -0.32039992     0.03649931    -0.2088385      0.0004034042 
   3919000   0.050114817   -0.3204367      0.036032873   -0.20923645    -1.6861499e-05
   3920000   0.050172895   -0.32044981     0.035100182   -0.21009514     0.00023822879
   3921000   0.049572678   -0.32051404     0.035673571   -0.21048625    -0.00071093005
   3922000   0.050180561   -0.32072585     0.035652144   -0.20980772     0.00070197061
   3923000   0.050070996   -0.32023852     0.036654701   -0.20848217    -0.00022493137
   3924000   0.050263486   -0.3201602      0.036273067   -0.20849677     0.00047772726
   3925000   0.049743627   -0.32045533     0.035383539   -0.21046117     0.0018304003 
   3926000   0.049915417   -0.32039496     0.035785171   -0.2097415     -0.0003954786 
   3927000   0.050012208   -0.32044942     0.035817444   -0.20961851    -0.002025256  
   3928000   0.049951906   -0.32079869     0.036228146   -0.20964752     0.00081667808
   3929000   0.049780393   -0.32078298     0.035909525   -0.21020769     0.0013865499 
   3930000   0.050467042   -0.32050624     0.036051198   -0.20875937     7.7895722e-05
   3931000   0.050155609   -0.32010395     0.036198233   -0.20867716    -0.0010201639 
   3932000   0.050187999   -0.32026927     0.035919657   -0.20907247    -0.00092088122
   3933000   0.050204871   -0.32058962     0.035265505   -0.21002167     0.0023308608 
   3934000   0.050522524   -0.32020216     0.03540599    -0.20901728    -0.00011332876
   3935000   0.049582462   -0.32085269     0.0362256     -0.2102582     -0.00013721243
   3936000   0.050224126   -0.32017824     0.035640785   -0.20920613    -0.00020137425
   3937000   0.049556608   -0.32047452     0.036489087   -0.20965531     0.00017718238
   3938000   0.050010968   -0.32023257     0.036372151   -0.2088488      0.0012149733 
   3939000   0.049742883   -0.32053351     0.036458646   -0.20946535    -0.00065940264
   3940000   0.05016472    -0.32063159     0.035704967   -0.2096844     -0.00034393905
   3941000   0.050261077   -0.32040775     0.036096521   -0.20892448    -0.00077271298
   3942000   0.050033318   -0.32072148     0.036027105   -0.20964924    -0.00016329315
   3943000   0.049868766   -0.32025246     0.036353292   -0.20910085     0.00041999722
   3944000   0.049805851   -0.32072863     0.036142849   -0.20988182     0.0012790694 
   3945000   0.049701453   -0.32068132     0.036274715   -0.20985923     0.00077895466
   3946000   0.050524978   -0.32060419     0.036204423   -0.20861719     0.00019746799
   3947000   0.050333053   -0.32089995     0.036188026   -0.20921722     0.00035529955
   3948000   0.049557585   -0.32039573     0.035983886   -0.21008027     8.4819305e-05
   3949000   0.050056703   -0.32059975     0.035938891   -0.20958065     0.00063634237
   3950000   0.04912302    -0.32031028     0.036468748   -0.21016176    -0.0012274875 
   3951000   0.050353419   -0.3207317      0.035977431   -0.20922902     0.00070320176
   3952000   0.049870941   -0.32069612     0.035915416   -0.20997912     0.0013556542 
   3953000   0.050121836   -0.3204518      0.036528893   -0.208745      -0.00045380705
   3954000   0.049870214   -0.32096507     0.035953107   -0.21021147     0.00027326446
   3955000   0.049430153   -0.32105793     0.036133598   -0.21078388    -0.00041773789
   3956000   0.049525237   -0.32080197     0.036654596   -0.20986431    -0.00090024288
   3957000   0.050192186   -0.32058615     0.035932119   -0.20937061    -2.9962336e-05
   3958000   0.050487733   -0.32060812     0.03597328    -0.20890812     7.4960383e-05
   3959000   0.049855593   -0.32075739     0.036086587   -0.20989224     0.00046323081
   3960000   0.049908481   -0.32122849     0.03593114    -0.21043946    -0.00089705225
   3961000   0.050168065   -0.32065069     0.035777426   -0.20962603     0.0016524071 
   3962000   0.049134058   -0.32048324     0.035798533   -0.21098838    -0.00027444824
   3963000   0.050291108   -0.32113799     0.035767834   -0.20993836     0.00015922345
   3964000   0.049849104   -0.32050573     0.035891271   -0.20984562     0.001051231  
   3965000   0.049920587   -0.320399       0.036009498   -0.20951345     0.0002823574 
   3966000   0.049976701   -0.32061027     0.036256276   -0.20939378     0.00094767527
   3967000   0.049601773   -0.32053535     0.035638744   -0.21049874    -0.00070512328
   3968000   0.049815658   -0.32039902     0.035999199   -0.20968116     0.0002980115 
   3969000   0.049505121   -0.32017876     0.036040121   -0.20988575    -8.1626512e-05
   3970000   0.05044858    -0.32071237     0.036100152   -0.20894423     0.0023127141 
   3971000   0.050397829   -0.3202898      0.035918943   -0.20877899     0.0011229054 
   3972000   0.050395094   -0.32081286     0.036827295   -0.2083978     -0.00032294482
   3973000   0.050172603   -0.320811       0.036705206   -0.20885174    -0.00035036785
   3974000   0.050015873   -0.32037945     0.036134371   -0.20922611     0.0014423287 
   3975000   0.050607964   -0.32026479     0.036031541   -0.2083262      0.00022931094
   3976000   0.050304135   -0.32054698     0.035668366   -0.20942728     0.00040755234
   3977000   0.050616768   -0.32087799     0.035561353   -0.20939638     0.0011428499 
   3978000   0.049787158   -0.32085772     0.036187263   -0.20999454    -5.273263e-05 
   3979000   0.04956136    -0.32064012     0.036084172   -0.2102187     -3.9449928e-05
   3980000   0.050266191   -0.32094138     0.035672528   -0.20987443    -0.00031082759
   3981000   0.050190456   -0.32091667     0.035929802   -0.20970604     0.00023488531
   3982000   0.050045971   -0.32098574     0.035471029   -0.2104506      0.0010596874 
   3983000   0.050636907   -0.32126785     0.03583998    -0.20947741    -0.00014009156
   3984000   0.050386526   -0.32110152     0.036389383   -0.20913722    -0.00035155305
   3985000   0.050414119   -0.3209083      0.036114347   -0.20917766     0.00033083542
   3986000   0.050256985   -0.32073569     0.036248126   -0.20910695     0.00021145262
   3987000   0.049999284   -0.32062156     0.036207268   -0.2094202      0.0014274783 
   3988000   0.050147908   -0.32087034     0.035707367   -0.20994597     0.0015858079 
   3989000   0.049969463   -0.32091745     0.03616149    -0.20980661    -0.0007041077 
   3990000   0.049968209   -0.32080421     0.035709852   -0.21014689    -0.00011177545
   3991000   0.050168945   -0.32118465     0.036092242   -0.20984384    -0.00088993196
   3992000   0.049744487   -0.32109755     0.036178603   -0.21030703    -0.00030300656
   3993000   0.049903286   -0.32108839     0.035525252   -0.21071304     0.00028418328
   3994000   0.049963921   -0.32083251     0.036061594   -0.20982987     0.00025859762
   3995000   0.049676854   -0.32110283     0.035789978   -0.21080238    -0.00035839471
   3996000   0.049964744   -0.32084592     0.035767727   -0.21013591     0.00013027738
   3997000   0.049442917   -0.32097917     0.035609674   -0.2112099     -0.0010969439 
   3998000   0.050029401   -0.32077235     0.035656209   -0.21007688     0.00096822683
   3999000   0.050404868   -0.32097592     0.03590699    -0.2094665     -0.00072975141
   4000000   0.049955153   -0.32046839     0.036395832   -0.20914466     0.00013223711
   4001000   0.050007488   -0.32050755     0.036315977   -0.20918518     0.00050264444
   4002000   0.050447869   -0.32086671     0.036195578   -0.20900421     0.00057705416
   4003000   0.049834727   -0.32119171     0.036084071   -0.21036037    -0.0014038165 
   4004000   0.049870247   -0.32119326     0.035492609   -0.2109001     -0.00039668177
   4005000   0.049981765   -0.32064637     0.035941775   -0.20973678    -0.00055722411
   4006000   0.049883168   -0.32099116     0.036121      -0.21005023     0.00049339737
   4007000   0.050077119   -0.32107995     0.036030893   -0.20993822    -0.00060677369
   4008000   0.049868028   -0.32123796     0.035801551   -0.21063919    -0.001718927  
   4009000   0.04966862    -0.32115134     0.036330773   -0.21032245    -0.00072898332
   4010000   0.049638506   -0.32080338     0.035624867   -0.21072556     0.00081238376
   4011000   0.050008064   -0.32080827     0.036764218   -0.2090368      0.00085627425
   4012000   0.050227549   -0.32068858     0.036294017   -0.2090581     -0.00018867531
   4013000   0.05078753    -0.32083816     0.035394546   -0.20926724     0.0015701168 
   4014000   0.050129309   -0.32098627     0.035853897   -0.20994326     1.8035134e-05
   4015000   0.049784256   -0.32093475     0.0356929     -0.21057028    -0.00090894963
   4016000   0.049967716   -0.32087091     0.03615434    -0.20976983    -0.00026676511
   4017000   0.049651675   -0.32147251     0.035916101   -0.2110837      0.0002185013 
   4018000   0.049514938   -0.32104921     0.036482229   -0.21029936    -0.0016478916 
   4019000   0.049577457   -0.32124896     0.036097777   -0.21078979    -0.00088828625
   4020000   0.049845622   -0.32142559     0.036546212   -0.21011577     0.0011143496 
   4021000   0.049995928   -0.32143001     0.03571435    -0.2107266      0.00038797288
   4022000   0.04955028    -0.32146536     0.035813452   -0.21133128     0.00059915033
   4023000   0.049287317   -0.32110964     0.035524121   -0.21165931     0.000136464  
   4024000   0.050110239   -0.32092491     0.036028925   -0.20973548     0.0010908093 
   4025000   0.049831232   -0.32120639     0.036071483   -0.21039288    -0.0016093154 
   4026000   0.049806474   -0.32074837     0.0358283     -0.21021518     0.0011529856 
   4027000   0.049779206   -0.32099914     0.035585605   -0.21074954     0.0011294097 
   4028000   0.050102751   -0.32103013     0.03604704    -0.20983381     0.00043747018
   4029000   0.050277213   -0.32132419     0.035827745   -0.21008549     2.1906477e-05
   4030000   0.049280375   -0.32125575     0.035428533   -0.21191142     0.00091137866
   4031000   0.050033686   -0.32150251     0.035461873   -0.21099495     0.00073024677
   4032000   0.049801046   -0.32113036     0.035429127   -0.21100449     0.00034842367
   4033000   0.050018895   -0.32088473     0.035409373   -0.21045185     0.00087814398
   4034000   0.050003347   -0.32098083     0.03513869    -0.21084196     0.0014777508 
   4035000   0.050361596   -0.32054143     0.035573261   -0.20943065    -0.00018551715
   4036000   0.050071442   -0.3208073      0.035452995   -0.21025199     0.0004371993 
   4037000   0.050192078   -0.32104543     0.035457207   -0.21030496     0.00011430776
   4038000   0.049832626   -0.3214785      0.036450174   -0.21028421     0.00084490535
   4039000   0.049558397   -0.32128535     0.035688126   -0.21126442     0.00039320402
   4040000   0.049624778   -0.32147297     0.035765542   -0.21127506    -0.00019212396
   4041000   0.050632104   -0.32101073     0.035665343   -0.20940213     0.00089561887
   4042000   0.04946895    -0.32115716     0.036173612   -0.21078491     0.0010012441 
   4043000   0.050037836   -0.32143872     0.036348734   -0.21003807    -0.00027494997
   4044000   0.049929299   -0.32120438     0.035456276   -0.21085899     0.00074479638
   4045000   0.050880521   -0.32140526     0.03580094    -0.20928847     0.0015870861 
   4046000   0.051078035   -0.32119467     0.035794111   -0.20878845     0.00051206067
   4047000   0.050200705   -0.3210454      0.036327198   -0.209422       0.0011041127 
   4048000   0.049850764   -0.32135355     0.036159058   -0.21042317    -0.0001068084 
   4049000   0.050022048   -0.32081236     0.036253098   -0.20953103    -0.00055104919
   4050000   0.050141273   -0.32146362     0.036429072   -0.20982749     0.0012220812 
   4051000   0.050260866   -0.32129573     0.035628989   -0.21028031    -9.9220204e-05
   4052000   0.049997574   -0.32152456     0.036099696   -0.21043334    -0.00010248274
   4053000   0.050045724   -0.32132548     0.036424477   -0.20983726     4.4562894e-05
   4054000   0.050761393   -0.32151674     0.035862642   -0.20951692    -0.00047677828
   4055000   0.050081024   -0.32174531     0.036105129   -0.21052349    -0.00050538556
   4056000   0.050108452   -0.3212292      0.036003387   -0.21006799     0.00046312546
   4057000   0.049804847   -0.32102201     0.03622093    -0.21009863     0.00057877396
   4058000   0.049569907   -0.32164792     0.036446637   -0.21085122     0.0001963543 
   4059000   0.049622114   -0.32125405     0.035718656   -0.21110703     0.00096059085
   4060000   0.049522149   -0.32144857     0.035623667   -0.21154647     0.0003167734 
   4061000   0.050351664   -0.32167224     0.036379643   -0.20976997    -0.0011098032 
   4062000   0.050410784   -0.32157327     0.036266534   -0.20969544     0.00038141627
   4063000   0.049642958   -0.32136961     0.036569116   -0.21034087     0.00016672997
   4064000   0.050225309   -0.32114322     0.035775365   -0.21003475     0.00038040665
   4065000   0.050366511   -0.32179851     0.036086181   -0.21016743     0.00030881988
   4066000   0.049468678   -0.32120149     0.035846454   -0.21115681     0.00054846988
   4067000   0.050013294   -0.32116011     0.036246502   -0.20989851     0.000701507  
   4068000   0.050156803   -0.32128288     0.035558906   -0.21049362     0.0016662718 
   4069000   0.050035688   -0.32103512     0.035318948   -0.21066748     0.00043748085
   4070000   0.049961251   -0.32158452     0.035876988   -0.2107705      0.00089507121
   4071000   0.049634934   -0.3218303      0.036126132   -0.21125657     4.6298336e-05
   4072000   0.049824409   -0.32149025     0.035386777   -0.21137168     0.0011609936 
   4073000   0.050058973   -0.32137424     0.035747137   -0.21054349     0.0010761043 
   4074000   0.050689347   -0.32169745     0.036190902   -0.20947743     0.00085655214
   4075000   0.050738261   -0.32172699     0.036260586   -0.20936392    -9.8323527e-05
   4076000   0.049815305   -0.32123511     0.035932192   -0.21058478    -0.00018956864
   4077000   0.050804494   -0.32170652     0.035653185   -0.20985151     8.9657186e-05
   4078000   0.050170706   -0.32118235     0.036265646   -0.2096655      0.00099084339
   4079000   0.050568303   -0.32146908     0.036312667   -0.20930885    -0.0003321617 
   4080000   0.050324459   -0.32123766     0.036159297   -0.20959655     4.4803207e-06
   4081000   0.050163942   -0.32120238     0.035257267   -0.21070405     0.0013869286 
   4082000   0.049590911   -0.32160424     0.036136975   -0.21108569     0.00056401029
   4083000   0.049912344   -0.32140327     0.036237408   -0.21030218    -0.00071783792
   4084000   0.049726065   -0.32125523     0.036036582   -0.21063436     0.0012752907 
   4085000   0.050148718   -0.32106118     0.03624266    -0.2096003     -0.00038602332
   4086000   0.049978762   -0.3215308      0.035858862   -0.21070863    -0.00030287858
   4087000   0.049683646   -0.32120392     0.03598674    -0.21069652    -0.00053187322
   4088000   0.049441434   -0.32126558     0.036104873   -0.21100334     0.0019578418 
   4089000   0.049506954   -0.32119426     0.035589289   -0.21134933     0.00013181192
   4090000   0.049810892   -0.3214915      0.035749192   -0.21103079     0.00017434804
   4091000   0.049369534   -0.32113455     0.0356172     -0.21146783    -0.00081348955
   4092000   0.049763796   -0.32158458     0.035296078   -0.21164763     0.00060148514
   4093000   0.049469279   -0.32145477     0.036080616   -0.21117502    -0.0014472882 
   4094000   0.049312683   -0.32158731     0.036319564   -0.21130349    -0.00055320639
   4095000   0.049531895   -0.32161453     0.036276283   -0.2110452     -0.0015717439 
   4096000   0.050206806   -0.3217081      0.036442825   -0.20995992    -0.00067342276
   4097000   0.050444463   -0.3213912      0.036354484   -0.2093749      0.001006694  
   4098000   0.049929588   -0.32151275     0.036663545   -0.20995966    -0.00055659004
   4099000   0.050136981   -0.32139696     0.035946497   -0.21024984    -0.0015575038 
   4100000   0.049806289   -0.32139297     0.036394107   -0.21029425    -0.00068463256
   4101000   0.050080409   -0.32138044     0.036280795   -0.20998388     0.00059462715
   4102000   0.050158814   -0.321487       0.03602271    -0.21023092    -0.00030106526
   4103000   0.049963316   -0.32118263     0.036046845   -0.21019565    -0.00070303341
   4104000   0.049914446   -0.32126715     0.035884418   -0.2105159      0.00070614023
   4105000   0.04973386    -0.32146455     0.035419027   -0.21144954    -0.00039760721
   4106000   0.049739159   -0.32144277     0.035836174   -0.21100267     0.00024728861
   4107000   0.049558013   -0.32140202     0.03612754    -0.21094225     0.00067418322
   4108000   0.049882128   -0.32132281     0.035786358   -0.21071808    -0.00070020939
   4109000   0.049868954   -0.32177449     0.035641974   -0.21133391     0.00057447685
   4110000   0.0496525     -0.3217225      0.035416635   -0.21183193     0.00069100739
   4111000   0.04940994    -0.3215962      0.035543493   -0.21194258     0.0011848706 
   4112000   0.049590179   -0.32155634     0.035374323   -0.21180155     0.00032751978
   4113000   0.049699477   -0.32193299     0.035627469   -0.21176111    -0.00017654205
   4114000   0.049871285   -0.3217891      0.035490294   -0.21149671     0.00049825918
   4115000   0.050288097   -0.32179946     0.035887943   -0.21048424     0.0001106118 
   4116000   0.050446183   -0.32183195     0.036038565   -0.21012899    -0.0011237917 
   4117000   0.050734731   -0.32173325     0.035760234   -0.20987583     0.00016640431
   4118000   0.050059428   -0.32145229     0.035826939   -0.21054106    -0.00015290604
   4119000   0.049853169   -0.32191616     0.036062472   -0.21107876    -0.0007821967 
   4120000   0.04985528    -0.321698       0.036353279   -0.21056663     0.00033877196
   4121000   0.049783205   -0.32125077     0.035517949   -0.21106283     0.00029805603
   4122000   0.049925334   -0.32197561     0.035787255   -0.21130518     0.0006375773 
   4123000   0.049996062   -0.32206094     0.036059956   -0.21101173    -0.00071347191
   4124000   0.049500404   -0.32206729     0.035894154   -0.21192732     8.6407256e-05
   4125000   0.049442687   -0.32125345     0.0359401     -0.2111541      0.00023076757
   4126000   0.050573588   -0.32217692     0.036192494   -0.21012894     6.4953985e-05
   4127000   0.049665547   -0.32206527     0.035715675   -0.21185608    -0.00050863884
   4128000   0.049500368   -0.32173605     0.036221817   -0.21126847    -0.0012972239 
   4129000   0.049758777   -0.32173115     0.03563609    -0.21146171     0.0001022601 
   4130000   0.04937727    -0.32200863     0.035380724   -0.21256677     0.00079980285
   4131000   0.049161068   -0.32210849     0.036177448   -0.21219419     0.00021895784
   4132000   0.049260712   -0.32205086     0.035500434   -0.21266412     0.00016768174
   4133000   0.049710404   -0.32172659     0.035966796   -0.211199       0.0021093069 
   4134000   0.050508079   -0.32227849     0.036932454   -0.20958881    -0.00077114027
   4135000   0.049712997   -0.32161796     0.035738782   -0.21131449     0.00018783489
   4136000   0.050351821   -0.32202183     0.035634151   -0.21086482    -0.00084240101
   4137000   0.050328561   -0.32211951     0.036100619   -0.21053092    -5.2065335e-05
   4138000   0.049893613   -0.32241795     0.036311434   -0.21127092     0.0022685292 
   4139000   0.049856668   -0.32215693     0.03595203    -0.21142472     0.0016919969 
   4140000   0.050121149   -0.32194523     0.035708347   -0.21106001     0.0011848018 
   4141000   0.04972293    -0.32195884     0.035965804   -0.21141345     0.0009502011 
   4142000   0.050082338   -0.32209733     0.036422532   -0.21055614    -0.0010276826 
   4143000   0.050001047   -0.32172371     0.035867421   -0.21085956    -0.00026498052
   4144000   0.049948996   -0.32201433     0.03553935    -0.21155632     0.00039137179
   4145000   0.05021648    -0.32165582     0.035959613   -0.21037635    -0.00018524188
   4146000   0.049867106   -0.32230437     0.035856885   -0.21165165    -0.00026937109
   4147000   0.049655942   -0.32212193     0.036326532   -0.21131629    -0.001500744  
   4148000   0.050354553   -0.32221814     0.035954245   -0.21073694    -0.0014147222 
   4149000   0.050040708   -0.32177355     0.036030048   -0.21068728     0.00040886169
   4150000   0.04974515    -0.32203646     0.03610176    -0.21132179    -0.00086435781
   4151000   0.049524291   -0.32212061     0.036111364   -0.2117276      0.0013280162 
   4152000   0.049731231   -0.32210744     0.035544055   -0.21197135     0.001444314  
   4153000   0.049848688   -0.32174612     0.035901303   -0.21107661     0.00093759857
   4154000   0.049776776   -0.32157191     0.035696433   -0.21121513    -0.00011835516
   4155000   0.049790877   -0.32205176     0.035843308   -0.21152695     0.00018251627
   4156000   0.049774392   -0.32223101     0.035842831   -0.21173141     0.0010223023 
   4157000   0.049695866   -0.32205584     0.036398674   -0.21111818     9.4366878e-05
   4158000   0.049928351   -0.32195927     0.035744011   -0.21132756    -4.7834403e-05
   4159000   0.04999629    -0.32214579     0.036492811   -0.21066338    -0.00021629354
   4160000   0.050074471   -0.32196882     0.035818395   -0.21104356    -0.0011274857 
   4161000   0.049551062   -0.32230462     0.036133919   -0.21184891     0.0014766058 
   4162000   0.050077491   -0.32213873     0.035669658   -0.21135768    -0.00029686415
   4163000   0.050151919   -0.32182515     0.036046976   -0.21055515     0.00013144714
   4164000   0.050402414   -0.32233735     0.036292085   -0.21044652    -0.00010114671
   4165000   0.049985753   -0.32246566     0.03633245    -0.21115942    -0.0005249189 
   4166000   0.050029247   -0.32240445     0.035900621   -0.2114648      0.0001064548 
   4167000   0.049386935   -0.32191447     0.036244232   -0.21159462    -0.0011797365 
   4168000   0.05005726    -0.32181661     0.036140709   -0.21059485    -6.0763775e-05
   4169000   0.04999062    -0.32194823     0.035939975   -0.21102716     0.00027522566
   4170000   0.04975144    -0.32222871     0.035646952   -0.21195942    -0.00027561668
   4171000   0.049778973   -0.32189298     0.035879051   -0.21135029     0.0022286431 
   4172000   0.049983026   -0.32192743     0.036140795   -0.21081693     0.00076966279
   4173000   0.050485068   -0.32186963     0.036082657   -0.21006425    -0.00015569485
   4174000   0.050014496   -0.32197919     0.036412998   -0.21054929    -0.0011451747 
   4175000   0.050268745   -0.32182788     0.036423483   -0.21000614     0.00046749605
   4176000   0.050285136   -0.32164041     0.036325974   -0.2098916     -0.00073672493
   4177000   0.050252393   -0.32215766     0.035616972   -0.21116696    -0.00035395935
   4178000   0.050133343   -0.32211477     0.035010073   -0.21190954    -0.00014029301
   4179000   0.050103949   -0.32220928     0.035742937   -0.21131526     0.00010969193
   4180000   0.049845202   -0.32191127     0.035913803   -0.21123449     0.00028371194
   4181000   0.04973012    -0.32221792     0.035647432   -0.21198012     0.00097547586
   4182000   0.049839321   -0.32205862     0.035620156   -0.21168431    -5.2644125e-05
   4183000   0.049398928   -0.32212052     0.03544619    -0.21258071    -0.00014224239
   4184000   0.050044571   -0.32219271     0.035631466   -0.21149923     0.00092611788
   4185000   0.050293785   -0.32249846     0.036199676   -0.21086298     0.00026471454
   4186000   0.050310598   -0.32239306     0.03552699    -0.21140505    -0.00039423716
   4187000   0.049767442   -0.32194707     0.035980465   -0.21132026     0.00013812046
   4188000   0.049751074   -0.32191155     0.036053788   -0.21123597     0.0010262396 
   4189000   0.050403303   -0.32234096     0.03541318    -0.21132771     0.0013014163 
   4190000   0.05006842    -0.32221155     0.036651871   -0.21046189    -0.00030472614
   4191000   0.05003782    -0.32226613     0.03596276    -0.21125148    -0.0010252664 
   4192000   0.050009453   -0.32226378     0.035546978   -0.21170746     0.0012255322 
   4193000   0.050123349   -0.32223143     0.035796021   -0.21125524     0.0011945109 
   4194000   0.04959634    -0.32259879     0.036435201   -0.21177388     0.00035556301
   4195000   0.050392784   -0.32226442     0.035592859   -0.21108726     0.0005278552 
   4196000   0.049172714   -0.32231822     0.035916928   -0.21264698    -0.0006903341 
   4197000   0.05002454    -0.32249158     0.036206087   -0.21125352    -0.0010601503 
   4198000   0.049566069   -0.32227361     0.036188292   -0.21174101     0.00097668436
   4199000   0.050101837   -0.32233707     0.035727668   -0.21146149     0.00043085963
   4200000   0.04975793    -0.32211157     0.035959731   -0.21151976     0.00077410698
   4201000   0.049780447   -0.32207141     0.036099396   -0.21130616    -0.00075122929
   4202000   0.049949496   -0.3220891      0.036130114   -0.21103957    -0.00032934729
   4203000   0.050201834   -0.32186235     0.035689382   -0.21087507    -0.00029678901
   4204000   0.050129793   -0.32203213     0.036576425   -0.21026587    -0.00058029639
   4205000   0.050091397   -0.32185545     0.036109513   -0.21061369    -0.00031316539
   4206000   0.049934704   -0.32251446     0.036726217   -0.21089102     0.0010794036 
   4207000   0.050359578   -0.32253585     0.03573878    -0.21126258     0.00069732977
   4208000   0.050087842   -0.32206084     0.035929139   -0.21100479     0.0004338843 
   4209000   0.049946692   -0.32224587     0.036072917   -0.21125775     0.00026795256
   4210000   0.049442082   -0.32219701     0.035728897   -0.21230977    -0.00037089646
   4211000   0.049445571   -0.3222704      0.035632185   -0.21247465    -0.0007449652 
   4212000   0.049773153   -0.32213355     0.036275825   -0.21120282     0.00032770094
   4213000   0.050174125   -0.32236888     0.035639987   -0.21147256    -6.6105829e-05
   4214000   0.049320612   -0.32205429     0.035639524   -0.21243862    -0.0001518974 
   4215000   0.049744208   -0.32246594     0.035303565   -0.21255087     0.00012516749
   4216000   0.049482763   -0.32249691     0.036110947   -0.21216661    -0.00028681171
   4217000   0.050096117   -0.32264871     0.035942363   -0.21156701    -0.00023078997
   4218000   0.049582901   -0.32222128     0.036406169   -0.21144556    -0.0012528336 
   4219000   0.049978014   -0.32207532     0.035730721   -0.21138241    -0.00031222176
   4220000   0.050135627   -0.32236135     0.036407752   -0.21075501    -0.00032380793
   4221000   0.050369239   -0.32223814     0.036000044   -0.21068911     0.0011520564 
   4222000   0.049777717   -0.32193001     0.035543265   -0.21172499     0.00052303981
   4223000   0.05010937    -0.32222143     0.035542023   -0.2115202      0.00020881721
   4224000   0.049862505   -0.32230551     0.036027615   -0.21148896    -0.00018070928
   4225000   0.04999108    -0.32234568     0.036101724   -0.21126217    -0.00014420508
   4226000   0.050289279   -0.32263673     0.035641066   -0.21156662    -0.00056188463
   4227000   0.049849116   -0.32173436     0.035909409   -0.2110561     -6.2753581e-06
   4228000   0.049916321   -0.3222441      0.03622102    -0.21115343     0.00093587572
   4229000   0.050370592   -0.3221144      0.036184997   -0.21037839     0.0010434404 
   4230000   0.050609561   -0.32238052     0.035731944   -0.21073913    -1.5461509e-05
   4231000   0.049870084   -0.32234961     0.035519208   -0.2120301      0.0018593029 
   4232000   0.049410634   -0.32277407     0.035843213   -0.21281969    -0.00095065891
   4233000   0.050504947   -0.32265836     0.035339869   -0.21156596    -0.00043112463
   4234000   0.050162949   -0.3222152      0.035835526   -0.2111401      0.00045595849
   4235000   0.049651077   -0.32151334     0.03632596    -0.21071557     0.00023919584
   4236000   0.050675395   -0.32249929     0.035846012   -0.21064509     0.00036076684
   4237000   0.05071905    -0.32205213     0.035477048   -0.21050142     0.0017181237 
   4238000   0.050095178   -0.32239551     0.036099479   -0.21115812    -0.00087513237
   4239000   0.049589697   -0.32235369     0.035979936   -0.21199401     0.00040841943
   4240000   0.050201944   -0.32292825     0.035740999   -0.21188919    -0.00017610458
   4241000   0.050202457   -0.32255582     0.036143112   -0.21111388    -0.0004979703 
   4242000   0.050177781   -0.32265695     0.035868945   -0.21152619     0.00039562874
   4243000   0.050539363   -0.32248697     0.035642611   -0.21104021    -0.0005080264 
   4244000   0.050045559   -0.32261095     0.036434224   -0.21111323     0.00041430581
   4245000   0.050013583   -0.32268507     0.03611153    -0.211558      -0.0013523897 
   4246000   0.049954815   -0.32228934     0.036183638   -0.21117831    -0.00042903239
   4247000   0.049976258   -0.32237756     0.03618199    -0.21123602    -0.0004556734 
   4248000   0.049951224   -0.32297804     0.035745506   -0.21231054     0.00024957948
   4249000   0.04970732    -0.32268729     0.036083506   -0.21204761    -0.0013608323 
   4250000   0.049656788   -0.32247205     0.035981167   -0.21201051     0.00097756527
   4251000   0.04952906    -0.32220944     0.036009363   -0.21191128     0.00089694213
   4252000   0.050432472   -0.32226465     0.03529937    -0.21132145     0.0010086204 
   4253000   0.049682864   -0.32229438     0.035493642   -0.21228125     0.0022924253 
   4254000   0.049901062   -0.32252698     0.035476139   -0.21220408    -0.0019747308 
   4255000   0.050031368   -0.32272354     0.03593985    -0.21174148    -0.00019590943
   4256000   0.04926579    -0.32200273     0.036217769   -0.21189105     0.0031176648 
   4257000   0.050021552   -0.32254565     0.035580085   -0.21193808     0.00063544168
   4258000   0.04935778    -0.32286254     0.036108521   -0.21272213    -0.0011259028 
   4259000   0.049732221   -0.32252189     0.035958446   -0.21196993     0.00058226078
   4260000   0.05053674    -0.32243586     0.035490816   -0.21114482     0.00065751826
   4261000   0.049822028   -0.32218696     0.035950295   -0.21150844    -0.00033907939
   4262000   0.049979905   -0.32249213     0.035969589   -0.21155752     0.000389212  
   4263000   0.049053873   -0.32212843     0.035509907   -0.21304246     0.0010923211 
   4264000   0.049932023   -0.32266912     0.035445278   -0.21233064     0.0019054464 
   4265000   0.049665913   -0.32232381     0.035798278   -0.21203147    -0.00078470199
   4266000   0.05043331    -0.32272218     0.036033292   -0.21104381     0.00054888961
   4267000   0.05002951    -0.32305525     0.035579328   -0.2124365     -0.00060436846
   4268000   0.049646574   -0.32256017     0.03570426    -0.21239086     0.0011168698 
   4269000   0.049985961   -0.3224259      0.035836832   -0.21161497     0.0012050614 
   4270000   0.050607298   -0.32263014     0.036356507   -0.21036758     6.6323802e-05
   4271000   0.050121324   -0.32253365     0.035947396   -0.21140912     0.00095348443
   4272000   0.050292511   -0.32243441     0.03645635    -0.21054416     0.00037844758
   4273000   0.050001465   -0.32236131     0.035824479   -0.21153947     0.0003455255 
   4274000   0.050512771   -0.32261689     0.035663285   -0.21118934    -0.00054644356
   4275000   0.04970111    -0.3226571      0.036250592   -0.21185966    -0.00050198768
   4276000   0.050345128   -0.32277213     0.035479856   -0.21177946     0.0012520224 
   4277000   0.050176944   -0.32292231     0.035882165   -0.21177958    -0.00031534041
   4278000   0.050078135   -0.32284425     0.036215601   -0.21151629     0.00022753401
   4279000   0.049939679   -0.32213925     0.03633828    -0.21089629     0.00079712273
   4280000   0.050439717   -0.32260224     0.035581909   -0.21136564    -0.00040176745
   4281000   0.049516392   -0.32257657     0.036216682   -0.2120901      0.0014289198 
   4282000   0.049598454   -0.3223014      0.035660139   -0.21224838     0.00090377967
   4283000   0.050404819   -0.32254866     0.03611902    -0.21082729     0.00057142331
   4284000   0.05054904    -0.32280715     0.036620696   -0.21036778     0.0001575199 
   4285000   0.049685377   -0.32241008     0.035527114   -0.21235971     0.00066276265
   4286000   0.0497383     -0.32247045     0.03629594    -0.21157188    -0.00065975502
   4287000   0.050151501   -0.32261456     0.036320145   -0.21107202     0.0001097033 
   4288000   0.050381262   -0.32248781     0.035900213   -0.21102057    -0.0010325464 
   4289000   0.049337293   -0.32268465     0.036698026   -0.21198546    -0.0010245967 
   4290000   0.050551369   -0.32253921     0.035920457   -0.21079659     0.0005701936 
   4291000   0.049979316   -0.32262551     0.036342655   -0.21131872    -0.0019016957 
   4292000   0.050195785   -0.32271254     0.036378202   -0.21104552     0.00072278818
   4293000   0.050129609   -0.32237933     0.036100363   -0.2110894      0.0012587502 
   4294000   0.050133348   -0.32254214     0.036225041   -0.21112193     0.0013591575 
   4295000   0.050251925   -0.32249489     0.035513076   -0.21160879     0.00096772217
   4296000   0.049890163   -0.32251        0.036057235   -0.21162235     6.0309455e-05
   4297000   0.050481693   -0.32266795     0.035872228   -0.21107807    -0.00038766641
   4298000   0.049766768   -0.32254245     0.035762785   -0.21213433    -0.00032781501
   4299000   0.04998404    -0.32256213     0.035856779   -0.21173413     0.00070655727
   4300000   0.049456648   -0.32230888     0.036222022   -0.21190668     0.00058847417
   4301000   0.049883785   -0.32249336     0.034998516   -0.21267399     0.00034261183
   4302000   0.049862024   -0.32279641     0.035873897   -0.2121343      1.8363983e-05
   4303000   0.050354885   -0.3228834      0.035568826   -0.21178712     0.0016398034 
   4304000   0.050064299   -0.32287597     0.036117219   -0.21166715     0.00039440231
   4305000   0.050396618   -0.32280668     0.035842025   -0.21137461     0.00043542789
   4306000   0.050125103   -0.32306843     0.035714103   -0.21217152    -0.00093207144
   4307000   0.050297688   -0.32270426     0.036266395   -0.2109962      0.00026468829
   4308000   0.05050925    -0.32266099     0.036246143   -0.21065586     0.001839966  
   4309000   0.050577542   -0.32242365     0.03590321    -0.21065902     0.00067152762
   4310000   0.0504289     -0.32242719     0.035982834   -0.21080588    -0.00068307739
   4311000   0.049787146   -0.32253253     0.035896701   -0.21195993    -0.00093481484
   4312000   0.049603551   -0.3230265      0.035322662   -0.21330332     9.6053332e-05
   4313000   0.049396123   -0.32307659     0.035699871   -0.21328731     0.00066745243
   4314000   0.049641594   -0.32311716     0.035982563   -0.21267701     0.00031659384
   4315000   0.049968988   -0.3232567      0.035615186   -0.21269287    -0.00057616445
   4316000   0.049666537   -0.32316795     0.036186285   -0.21248667     0.00053232258
   4317000   0.049839294   -0.32269076     0.036481679   -0.21145496     0.00071945723
   4318000   0.049945033   -0.32290629     0.036013727   -0.21197985     0.0006413879 
   4319000   0.050492807   -0.32281644     0.035614456   -0.21146766     4.5864305e-05
   4320000   0.04968679    -0.32253821     0.036484645   -0.21152819     0.00081128607
   4321000   0.049809686   -0.3232392      0.03563922    -0.21289027     0.00089157471
   4322000   0.050059885   -0.32311509     0.035079452   -0.21295066     0.00054438131
   4323000   0.050525088   -0.32305769     0.035543029   -0.21173192     0.00063710944
   4324000   0.050071633   -0.32241259     0.036165368   -0.21114462    -0.00091634761
   4325000   0.050176081   -0.32244883     0.035515498   -0.21167407     0.0018277923 
   4326000   0.050462787   -0.32301196     0.035869757   -0.2114529      0.00037227966
   4327000   0.049711653   -0.32285357     0.036172575   -0.21211833     0.00011443349
   4328000   0.050156162   -0.32286561     0.036168741   -0.21146748     0.00079257759
   4329000   0.050452384   -0.32264695     0.035906751   -0.21106651     0.00022129845
   4330000   0.050111219   -0.32271314     0.03619031    -0.21136085    -0.00070377194
   4331000   0.050190025   -0.32253696     0.035973566   -0.21128322     0.0005018672 
   4332000   0.049836784   -0.32266859     0.036097803   -0.21182044     0.00047897725
   4333000   0.050621396   -0.32294216     0.036153196   -0.21086177    -0.0012819761 
   4334000   0.050275826   -0.32301745     0.035948944   -0.21165963    -0.00092725674
   4335000   0.050119677   -0.32294944     0.035786856   -0.21198792     0.00045609037
   4336000   0.04991658    -0.32269039     0.035613199   -0.21220715    -9.8773512e-05
   4337000   0.050212473   -0.32261671     0.035753959   -0.2115489      0.00028408061
   4338000   0.050017715   -0.32283784     0.036180061   -0.21163604     0.0012096032 
   4339000   0.049924216   -0.322911       0.036009607   -0.2120199      0.00065302286
   4340000   0.049986515   -0.32283161     0.036125158   -0.21173152    -3.8428894e-05
   4341000   0.05005072    -0.32349209     0.035901445   -0.21251941     0.00033131328
   4342000   0.049818313   -0.32294631     0.035735585   -0.21248807     0.00020910262
   4343000   0.050347162   -0.32301383     0.035561294   -0.21193667    -0.00062046482
   4344000   0.04971913    -0.32313481     0.03623365    -0.21232728    -0.00070706752
   4345000   0.049932925   -0.32297639     0.035216724   -0.21286511     0.00099217163
   4346000   0.049586833   -0.32306644     0.035222896   -0.2134681      0.00019125393
   4347000   0.050083975   -0.32301678     0.035839007   -0.21205665     0.00043209828
   4348000   0.049487155   -0.32318969     0.036184616   -0.21277913    -0.00095864481
   4349000   0.050148404   -0.32329762     0.036412717   -0.21166714     8.0611562e-05
   4350000   0.049896118   -0.32278679     0.0358579     -0.21208954     0.00093484377
   4351000   0.05020608    -0.32320566     0.03629242    -0.21160898    -0.0015547093 
   4352000   0.050120895   -0.32304338     0.036897404   -0.21096949    -0.00097138396
   4353000   0.050355498   -0.32303069     0.03637198    -0.21113033     0.0010023442 
   4354000   0.049764214   -0.32289346     0.036071247   -0.2121807      0.0014554534 
   4355000   0.050162952   -0.32303384     0.035622968   -0.2121713     -0.00025549695
   4356000   0.049972296   -0.32325762     0.035923055   -0.21238095     0.00019457516
   4357000   0.050098137   -0.32329694     0.035937911   -0.21221667     0.00057815358
   4358000   0.049393282   -0.32300366     0.035812773   -0.21310575    -0.00029272893
   4359000   0.049824581   -0.32295261     0.036481415   -0.21173914     0.00087752357
   4360000   0.05033061    -0.32300123     0.036266337   -0.21124385    -0.00040453195
   4361000   0.050151822   -0.32333706     0.036076342   -0.21203783     0.00024058981
   4362000   0.049751553   -0.32359407     0.03565783    -0.21331372    -0.00086889617
   4363000   0.050062383   -0.32355376     0.035465397   -0.21299963     0.00052880914
   4364000   0.0500432     -0.32300453     0.035861558   -0.21208301     0.00067226966
   4365000   0.049904242   -0.32307984     0.035893827   -0.21233448     0.0001390807 
   4366000   0.049535718   -0.32291446     0.035947382   -0.21266829     0.00094417591
   4367000   0.050813209   -0.32311884     0.03555807    -0.21134588     0.0010690868 
   4368000   0.050140079   -0.32294062     0.036527316   -0.21120803     0.0005631682 
   4369000   0.049443623   -0.32315929     0.036158632   -0.21284001     0.00086958471
   4370000   0.050256431   -0.32296759     0.035807037   -0.21178077     0.00085966808
   4371000   0.050455402   -0.32322157     0.03627573    -0.21126762     0.00036582129
   4372000   0.050252574   -0.32289537     0.035919129   -0.21160225     0.00032942591
   4373000   0.049942773   -0.32313095     0.035825936   -0.21239569    -0.00011139464
   4374000   0.050075111   -0.32353881     0.036057939   -0.21237305     0.00079413737
   4375000   0.049803396   -0.32341937     0.035725978   -0.21299312     0.00063211895
   4376000   0.049936954   -0.32333293     0.035920725   -0.21251161     0.00069835719
   4377000   0.049561002   -0.32298618     0.035284093   -0.21336539     0.001058371  
   4378000   0.049397195   -0.32359346     0.035546526   -0.21395593    -0.0014417535 
   4379000   0.050199638   -0.32333915     0.03584288    -0.21220167    -0.00093376367
   4380000   0.050129136   -0.32341124     0.036331633   -0.21189076     0.00055469756
   4381000   0.050304823   -0.3233313      0.036203661   -0.21167527     0.00040020523
   4382000   0.050028785   -0.32314627     0.03627829    -0.21182965     0.00054904404
   4383000   0.050228745   -0.32304713     0.035847732   -0.21186114    -3.8901788e-05
   4384000   0.050003476   -0.32341713     0.036147011   -0.21226974     0.00066416153
   4385000   0.049181728   -0.32317426     0.036310747   -0.21309568     0.00050153653
   4386000   0.050176556   -0.32313988     0.035558904   -0.212321       5.2275482e-05
   4387000   0.050177657   -0.32269289     0.036040135   -0.21139113     0.0010719907 
   4388000   0.050046342   -0.32339979     0.035956222   -0.2123789     -7.138011e-05 
   4389000   0.050427304   -0.32357771     0.035550966   -0.21239066     0.00020309197
   4390000   0.049769215   -0.3238284      0.036365414   -0.21281398    -0.0011735841 
   4391000   0.050187254   -0.3235451      0.036481718   -0.21178735    -0.00063960261
   4392000   0.050004628   -0.32337248     0.035652034   -0.21271835     0.00046211391
   4393000   0.049514606   -0.323253       0.035854451   -0.21313143     0.00030615537
   4394000   0.050594474   -0.32321914     0.03508793    -0.21224439     0.001194003  
   4395000   0.05015091    -0.32340588     0.036187868   -0.2119965     -0.00019724359
   4396000   0.05017819    -0.32262034     0.036283538   -0.21107437    -2.3602599e-05
   4397000   0.05025401    -0.32315442     0.035899107   -0.21187917     0.00098101763
   4398000   0.050135555   -0.32350858     0.036068268   -0.21224184    -1.7576856e-05
   4399000   0.049871581   -0.32326512     0.035518631   -0.21294394     0.00050134582
   4400000   0.049136068   -0.32332374     0.035718112   -0.21390628     3.7865619e-05
   4401000   0.049367729   -0.32333468     0.035567156   -0.21372071    -0.0004394812 
   4402000   0.049908717   -0.32362986     0.035810522   -0.2129611      0.0011157726 
   4403000   0.050019454   -0.32361658     0.035615734   -0.21297651    -0.0007717642 
   4404000   0.049456335   -0.32349702     0.035882483   -0.21343483    -5.0858063e-05
   4405000   0.049690214   -0.32343216     0.036144734   -0.21275691    -0.00012951667
   4406000   0.049559888   -0.32335319     0.03613678    -0.21288137     0.0001355301 
   4407000   0.049920453   -0.32325928     0.035387851   -0.21299558     0.00012912939
   4408000   0.049829441   -0.32338245     0.035606692   -0.21303642    -0.00042412396
   4409000   0.049915467   -0.32328186     0.035894855   -0.21251863     0.00073982249
   4410000   0.049950128   -0.32317946     0.036379598   -0.21187951    -0.00049753487
   4411000   0.050207447   -0.32322029     0.036458091   -0.21145589     0.00039571482
   4412000   0.049957933   -0.32277193     0.035576044   -0.21226382     0.00049938473
   4413000   0.049924873   -0.32309555     0.034879101   -0.21333397     0.0020672957 
   4414000   0.049333071   -0.32323899     0.036235066   -0.2130091      0.00018749914
   4415000   0.050467988   -0.32351387     0.035760256   -0.21205652    -0.0011289553 
   4416000   0.049524251   -0.32330348     0.036549184   -0.21247271     0.00077949006
   4417000   0.050197458   -0.3233944      0.03577038    -0.21233269    -3.3285359e-05
   4418000   0.050132371   -0.32366248     0.035795707   -0.21267307     0.00035170329
   4419000   0.050630786   -0.32350753     0.036030987   -0.21153527    -0.0003705784 
   4420000   0.050164209   -0.3234441      0.036272751   -0.21192989    -0.0024645552 
   4421000   0.049945101   -0.32318464     0.036521054   -0.21175077     0.00081120418
   4422000   0.05042658    -0.3232852      0.03605992    -0.21159028     0.00035847711
   4423000   0.050049948   -0.32303561     0.036034468   -0.21193106     0.00072160579
   4424000   0.050164606   -0.323003       0.035663363   -0.21209758    -0.00080298481
   4425000   0.050224742   -0.32360416     0.036431211   -0.2118407      0.00072928282
   4426000   0.049905836   -0.32365327     0.036135971   -0.21266337     0.00079680757
   4427000   0.049745912   -0.32321429     0.03545307    -0.21314717     0.00093341217
   4428000   0.049701313   -0.32327443     0.0359565     -0.21277077     0.00058008806
   4429000   0.049535683   -0.32367349     0.036191556   -0.21318321    -0.0016844183 
   4430000   0.050331928   -0.32346573     0.03592191    -0.2120508      0.00037085489
   4431000   0.050291164   -0.32362811     0.035657122   -0.21253911     0.0008186543 
   4432000   0.049773226   -0.32304702     0.036142684   -0.21224931     0.00047521146
   4433000   0.050061302   -0.32294023     0.03607464    -0.21177848    -0.00013478852
   4434000   0.050408475   -0.32342709     0.035625033   -0.21219423     0.00080207618
   4435000   0.049815517   -0.32317012     0.036078095   -0.21237357     0.0003966324 
   4436000   0.050236258   -0.32345597     0.036787381   -0.21131907    -0.0014220821 
   4437000   0.050663769   -0.32340039     0.035711005   -0.21169863    -0.00038356562
   4438000   0.050114301   -0.32348501     0.03671281    -0.2116056     -0.00064265976
   4439000   0.049367267   -0.32341784     0.036124666   -0.21324705    -4.7330696e-05
   4440000   0.049964347   -0.32338757     0.036589226   -0.21185666    -0.00080927538
   4441000   0.050067964   -0.32353749     0.03601702    -0.21242337    -0.00082829826
   4442000   0.050230163   -0.32350002     0.03624196    -0.21191768     0.0011005509 
   4443000   0.049957553   -0.32399584     0.036818853   -0.2122455      0.00024691485
   4444000   0.050399224   -0.32312765     0.036221124   -0.21131256    -0.00025603187
   4445000   0.049705851   -0.32328625     0.035915943   -0.21281634     0.00064178884
   4446000   0.05001888    -0.32336628     0.036104262   -0.21223854     0.00098257161
   4447000   0.050033004   -0.32344606     0.036044629   -0.21235677     0.00029856587
   4448000   0.049774888   -0.32335839     0.03587595    -0.21282493     0.00179124   
   4449000   0.050167989   -0.3235979      0.036386188   -0.21196459    -0.0016440994 
   4450000   0.050303019   -0.32339109     0.036445181   -0.21149625     0.00016290108
   4451000   0.049789424   -0.32376272     0.036246274   -0.21283713     5.2156951e-06
   4452000   0.050050239   -0.32359276     0.035872146   -0.2126501      0.0009443258 
   4453000   0.050495677   -0.32369409     0.036275921   -0.21167954    -0.00074198639
   4454000   0.04956128    -0.32368076     0.036579769   -0.21276386    -0.00041311478
   4455000   0.049942978   -0.32307129     0.03594287    -0.21221879     0.00088796716
   4456000   0.050421888   -0.32337168     0.036203557   -0.21154017     0.00024008119
   4457000   0.04961487    -0.32370566     0.03594156    -0.21334659     7.2704702e-05
   4458000   0.049775168   -0.32360246     0.035894463   -0.21305006    -0.00011636113
   4459000   0.049809054   -0.32337495     0.036233741   -0.21243244    -9.4225916e-06
   4460000   0.049974943   -0.32371073     0.03620554    -0.21254762     0.00040103237
   4461000   0.050258696   -0.32345743     0.036452496   -0.21162176    -0.001198379  
   4462000   0.049957877   -0.32337932     0.0361447     -0.21230264    -0.00087499608
   4463000   0.049782569   -0.32353161     0.035348292   -0.21351429    -0.00022473146
   4464000   0.049959926   -0.3238606      0.035674946   -0.2132506     -0.00076022682
   4465000   0.050102035   -0.32313729     0.03554473    -0.21244436     0.0010736622 
   4466000   0.050366565   -0.32309243     0.035843438   -0.21170402    -4.9226153e-05
   4467000   0.05051912    -0.32302413     0.035541176   -0.21170916     0.0010771032 
   4468000   0.050444094   -0.3238661      0.035808904   -0.21239594     2.9492296e-05
   4469000   0.050739899   -0.32370459     0.036683235   -0.21091641     0.00072545748
   4470000   0.050424851   -0.32377284     0.035216567   -0.21292388     0.0014925861 
   4471000   0.04976163    -0.32348108     0.035766869   -0.21307658     0.00061284679
   4472000   0.049444237   -0.32374602     0.035956023   -0.21362843     0.00045415592
   4473000   0.050132858   -0.32369577     0.035950209   -0.21255112     0.00019098741
   4474000   0.050017621   -0.32362609     0.035567685   -0.21303682     0.0017589979 
   4475000   0.050119893   -0.3239553      0.035541449   -0.21323886     0.00032155174
   4476000   0.049892081   -0.32373803     0.035600762   -0.21330398     0.0013663861 
   4477000   0.049661817   -0.32387587     0.035886051   -0.2135019      0.00032150841
   4478000   0.050323369   -0.3237323      0.035153996   -0.21309812     0.00096493479
   4479000   0.049627296   -0.32377492     0.035857643   -0.21348114     0.00064859854
   4480000   0.049765441   -0.32432075     0.035305146   -0.21437226     0.0016006116 
   4481000   0.049542572   -0.32402051     0.035800831   -0.21391062     0.00081417389
   4482000   0.05014457    -0.32386005     0.036564623   -0.21208342     0.0014328671 
   4483000   0.050160344   -0.32395132     0.035563658   -0.213152       0.0010212221 
   4484000   0.050398858   -0.32417094     0.036368354   -0.21220917     0.00011985837
   4485000   0.050160062   -0.32368001     0.036725159   -0.21171962     0.00024438706
   4486000   0.050428709   -0.32393829     0.036170318   -0.21212979     0.00084272538
   4487000   0.049384992   -0.32344402     0.035670246   -0.21370106     0.00076769598
   4488000   0.050204863   -0.32379751     0.035705069   -0.21279       -0.00037661563
   4489000   0.049873799   -0.32407525     0.03559378    -0.21367559     0.00073537917
   4490000   0.05000005    -0.32438607     0.035538923   -0.21385191     0.00056294203
   4491000   0.050080276   -0.32393047     0.035589597   -0.2132253      0.0017832856 
   4492000   0.049688945   -0.32401543     0.035926073   -0.21356075    -0.00057523968
   4493000   0.050096169   -0.32374558     0.036174078   -0.21243209     0.0018022311 
   4494000   0.049986113   -0.32390774     0.03590406    -0.21302935     0.00067853358
   4495000   0.049670505   -0.32400239     0.036078962   -0.21342247    -0.00065321994
   4496000   0.050041515   -0.32400467     0.036329419   -0.21261782     0.00062889209
   4497000   0.049773047   -0.32386853     0.036120925   -0.21309285    -0.0017377672 
   4498000   0.050101443   -0.32371673     0.035898965   -0.21267045    -0.0010845287 
   4499000   0.049914791   -0.32435139     0.036418308   -0.21306572    -0.0010305373 
   4500000   0.049422426   -0.32397598     0.035748895   -0.21409823    -0.00031121483
   4501000   0.049945017   -0.32378562     0.035670414   -0.21320252     0.00077862321
   4502000   0.049689347   -0.32442264     0.036958861   -0.21293457    -0.00098807722
   4503000   0.049697478   -0.32415864     0.035630656   -0.21398658     0.00067487963
   4504000   0.04948056    -0.32358316     0.035673816   -0.21369329     0.00054785569
   4505000   0.04977823    -0.32412029     0.03585775    -0.21360001     0.0011348715 
   4506000   0.049809568   -0.32386626     0.036092911   -0.21306382    -0.00028500048
   4507000   0.049096301   -0.32383448     0.035368569   -0.21482621     0.00078488331
   4508000   0.04976676    -0.32393718     0.035709431   -0.21358243    -0.00033795556
   4509000   0.049903902   -0.32383419     0.035953423   -0.21302975    -0.00017933888
   4510000   0.049948631   -0.32413231     0.036138154   -0.21307604     0.00079127158
   4511000   0.049961548   -0.32451764     0.036267097   -0.21331306     0.00063136465
   4512000   0.050420122   -0.32362356     0.035663233   -0.21233503     3.0120179e-05
   4513000   0.050113054   -0.32422172     0.036716305   -0.21234069    -0.00049772056
   4514000   0.049580817   -0.32393457     0.035561436   -0.2140067      0.00059246735
   4515000   0.050125582   -0.3246581      0.036018437   -0.21345614    -0.00034869007
   4516000   0.049697618   -0.32370612     0.036092697   -0.2130718     -0.00032888622
   4517000   0.049770267   -0.32384404     0.036758915   -0.21243454     0.00087768416
   4518000   0.050017867   -0.32400483     0.036455584   -0.21252729    -0.0015697965 
   4519000   0.050374234   -0.32435471     0.036178514   -0.21261972     1.4195647e-05
   4520000   0.050385373   -0.32374643     0.036099624   -0.21207362     8.4865358e-05
   4521000   0.049898093   -0.32389563     0.035988552   -0.21306477     0.0013026884 
   4522000   0.049909559   -0.3239935      0.035859187   -0.21327481     0.00026082078
   4523000   0.049686689   -0.32402691     0.036621947   -0.21287974     0.00052796519
   4524000   0.05053467    -0.32375275     0.036996225   -0.21095942     0.00090762923
   4525000   0.050363709   -0.3239376      0.036447603   -0.21194931    -8.0673116e-05
   4526000   0.049870815   -0.32393258     0.035582911   -0.21354828    -0.00046495119
   4527000   0.049946603   -0.32373007     0.035759294   -0.2130557      0.00046781568
   4528000   0.050142494   -0.32378539     0.035746912   -0.21282959    -0.0009642685 
   4529000   0.049701528   -0.32401572     0.03583811    -0.21363013     0.00046402297
   4530000   0.049994311   -0.32451315     0.035256203   -0.21427032     0.0010734153 
   4531000   0.0498643     -0.32426096     0.036145448   -0.21332388    -0.00019695781
   4532000   0.049903378   -0.32385682     0.035730238   -0.21327634     0.001003952  
   4533000   0.049798422   -0.32418356     0.035533602   -0.21395714    -0.00040301112
   4534000   0.049854414   -0.32362513     0.036053572   -0.21279476    -0.0012066777 
   4535000   0.049641438   -0.32390137     0.03562677    -0.21381724     0.0010476117 
   4536000   0.049761427   -0.32440201     0.035891604   -0.21387308    -0.00050451404
   4537000   0.049696976   -0.32432446     0.036510347   -0.21327346    -0.00099335517
   4538000   0.049363391   -0.32416061     0.036030275   -0.21409003     0.0010260179 
   4539000   0.049475719   -0.32391201     0.036012776   -0.21369044     0.00017150702
   4540000   0.050315956   -0.32430084     0.035986993   -0.21284478    -0.00044563692
   4541000   0.049957364   -0.32397673     0.036030693   -0.21301482    -0.0010028009 
   4542000   0.049700344   -0.32415971     0.036375339   -0.21323866    -0.00063905269
   4543000   0.049905012   -0.32432829     0.03581248    -0.21366312     0.00037940109
   4544000   0.049769507   -0.32417863     0.035879643   -0.21364954    -0.00062694487
   4545000   0.050012669   -0.32420715     0.036377726   -0.21281527    -0.0016577017 
   4546000   0.050594892   -0.32414099     0.035796843   -0.2124567     -0.0002660536 
   4547000   0.050166625   -0.32396736     0.035947348   -0.21277493     0.0012671358 
   4548000   0.049390498   -0.32404904     0.036098665   -0.2138694     -0.00037239233
   4549000   0.049727186   -0.32431921     0.035983216   -0.21375003     0.00075032019
   4550000   0.04982426    -0.32435236     0.03599129    -0.21362951     0.00017211111
   4551000   0.049765355   -0.32420691     0.036108056   -0.21345564    -0.0005786223 
   4552000   0.049904039   -0.32407078     0.035466752   -0.2137528      0.00081286873
   4553000   0.050592029   -0.32389609     0.036327973   -0.21168497     0.0017770147 
   4554000   0.049944457   -0.32400473     0.036052517   -0.21304037     0.00031130341
   4555000   0.050303921   -0.32369137     0.035951828   -0.21228853     0.00084708203
   4556000   0.050270882   -0.32401825     0.036019342   -0.21259745     0.00095003094
   4557000   0.049731108   -0.32462845     0.036247046   -0.21378956    -0.0011030601 
   4558000   0.049523911   -0.32404526     0.035890361   -0.21387382     0.00058031689
   4559000   0.049502189   -0.32399547     0.036304854   -0.21344212    -0.00014830312
   4560000   0.05008739    -0.32418151     0.035832487   -0.21322278     0.0020906481 
   4561000   0.050150702   -0.32384534     0.035197834   -0.21342631     0.00022615901
   4562000   0.050195511   -0.3242574      0.036187458   -0.21278153     0.0021113382 
   4563000   0.050096588   -0.32451922     0.035718682   -0.2136605      0.00018086916
   4564000   0.049531314   -0.32422654     0.035962194   -0.21397217    -0.00020473642
   4565000   0.050170707   -0.32408616     0.03582717    -0.21300779    -0.0002059703 
   4566000   0.050085749   -0.32402394     0.036120302   -0.21277986     0.0010471496 
   4567000   0.049614207   -0.32392229     0.03608795    -0.21341783     0.00074739182
   4568000   0.049962739   -0.32420569     0.035508477   -0.21375794    -9.6049337e-05
   4569000   0.050182113   -0.32436297     0.035889297   -0.21320536     0.0010797974 
   4570000   0.050043427   -0.32395738     0.036150076   -0.212747      -0.0009828889 
   4571000   0.0499158     -0.32397922     0.035159273   -0.21395108     0.00091587398
   4572000   0.049963882   -0.32398552     0.036121871   -0.21292266     0.0003311053 
   4573000   0.050266481   -0.32420506     0.03632189    -0.21248831     0.00068933756
   4574000   0.050052806   -0.32418547     0.036148595   -0.21296251     0.00045183096
   4575000   0.04998888    -0.32422485     0.036359816   -0.21288655     0.00029573448
   4576000   0.050247384   -0.32424418     0.035871885   -0.21300609    -0.00042778559
   4577000   0.050180922   -0.32390535     0.036593839   -0.21204499    -0.00095072952
   4578000   0.05047166    -0.32433731     0.036044906   -0.21258979    -0.00033825544
   4579000   0.049825811   -0.32415589     0.036057539   -0.21336445     0.00027452275
   4580000   0.050164806   -0.32452761     0.03566132    -0.21362393    -0.00012560422
   4581000   0.049833103   -0.32431607     0.035897898   -0.21367334    -0.00031722593
   4582000   0.049558603   -0.32434708     0.035554314   -0.21445966    -0.0010746476 
   4583000   0.049197723   -0.32450527     0.036131521   -0.21458193     4.1274034e-05
   4584000   0.049852742   -0.32459031     0.035909614   -0.2139064      0.0010495202 
   4585000   0.05041866    -0.32421397     0.036117618   -0.21247324     0.0007081698 
   4586000   0.050295882   -0.32425952     0.035394789   -0.21342577     0.00034704215
   4587000   0.049691871   -0.32461732     0.036285743   -0.21379858    -0.00081614794
   4588000   0.049939865   -0.32392047     0.036026653   -0.21298885    -0.00039010734
   4589000   0.049662924   -0.32458997     0.035858075   -0.21424231     0.00044081344
   4590000   0.049739349   -0.32447823     0.035729183   -0.21414483    -0.00070962161
   4591000   0.05044223    -0.32428128     0.035926367   -0.21269645    -0.00059664896
   4592000   0.050365703   -0.32467622     0.036523998   -0.21260854     0.00030719781
   4593000   0.050215507   -0.32440951     0.035038524   -0.21405258     0.00022673258
   4594000   0.049884679   -0.32446817     0.036149474   -0.2134965      8.3074726e-05
   4595000   0.050277261   -0.32446984     0.035960244   -0.21309857    -8.6620405e-05
   4596000   0.050096539   -0.32409644     0.035718776   -0.2132377      7.2198595e-05
   4597000   0.050022663   -0.32440931     0.035878016   -0.21350214     0.00062427801
   4598000   0.049648948   -0.32452566     0.035487227   -0.21456981     0.00063529621
   4599000   0.049822079   -0.32410963     0.036360235   -0.21302109     0.0013871756 
   4600000   0.050069684   -0.32440973     0.036375458   -0.21293459    -0.001266212  
   4601000   0.050413748   -0.3240578      0.036511017   -0.21193104     0.0021044564 
   4602000   0.05069592    -0.32473789     0.036394936   -0.21230398    -0.00034700589
   4603000   0.049963134   -0.3248437      0.036300708   -0.21360312    -0.00074453426
   4604000   0.050056343   -0.32413123     0.036328679   -0.21272289     0.00026464262
   4605000   0.049606069   -0.32386086     0.036121535   -0.21333502     1.9447776e-05
   4606000   0.049835878   -0.32421683     0.036152519   -0.21331531     1.1638356e-05
   4607000   0.049973763   -0.32437254     0.035921649   -0.21349508     8.6852877e-05
   4608000   0.049530047   -0.3241747      0.036105554   -0.21377887    -0.00022188852
   4609000   0.049786261   -0.32428502     0.036713443   -0.21289701    -0.00085026337
   4610000   0.050221688   -0.32393645     0.036174235   -0.21243454     0.00022300499
   4611000   0.050496696   -0.32427989     0.035677243   -0.21286249     0.0021600682 
   4612000   0.049975649   -0.32421387     0.036349201   -0.21290603    -0.0010183453 
   4613000   0.050351304   -0.32437759     0.035673386   -0.21318212    -0.0001306859 
   4614000   0.050188846   -0.32417762     0.03573424    -0.21316497    -0.00019167439
   4615000   0.049962389   -0.32471632     0.0359274     -0.21385017    -0.0016693473 
   4616000   0.04963546    -0.32434499     0.036643905   -0.2132527     -0.0013597003 
   4617000   0.049800891   -0.32434035     0.035794604   -0.21384923     7.1779915e-05
   4618000   0.050172952   -0.32425154     0.035769143   -0.21322783     0.0004917565 
   4619000   0.050185312   -0.32460218     0.035588891   -0.21374018    -1.3038698e-05
   4620000   0.049893065   -0.32433578     0.035969809   -0.2135312     -0.00049601524
   4621000   0.049796502   -0.32446675     0.035572357   -0.21420445     0.0010514702 
   4622000   0.050209626   -0.32413975     0.03587146    -0.21295871     0.00025492011
   4623000   0.050118794   -0.32466908     0.036394195   -0.21310154    -0.00088818456
   4624000   0.05046795    -0.32410879     0.036148169   -0.21226358     0.0016619464 
   4625000   0.050279947   -0.32478517     0.036505435   -0.21286468    -0.00023646685
   4626000   0.050339614   -0.32448528     0.035852547   -0.21312818    -0.0002063731 
   4627000   0.049599386   -0.32432749     0.036845289   -0.21308792    -0.00038223566
   4628000   0.049729116   -0.32486112     0.035991978   -0.21428028    -3.1487256e-05
   4629000   0.049537728   -0.32495936     0.036467421   -0.21419014     0.0003677705 
   4630000   0.049867637   -0.32499635     0.036329677   -0.21387005     0.00097835785
   4631000   0.050095387   -0.3246679      0.035573721   -0.21395594    -0.00055351027
   4632000   0.05031613    -0.32487157     0.036411934   -0.21299031    -0.0007297889 
   4633000   0.050458207   -0.32456155     0.036071827   -0.2128073      0.0016776903 
   4634000   0.049724632   -0.32464423     0.035973478   -0.21408862    -0.0011257448 
   4635000   0.049861827   -0.3244544      0.035978042   -0.21368845    -0.00038312366
   4636000   0.049754039   -0.32456371     0.03662219    -0.21331528     0.00063927028
   4637000   0.049555109   -0.32471166     0.036253194   -0.2141306      0.0012194742 
   4638000   0.050099114   -0.32468643     0.03631375    -0.21322886     0.00074481168
   4639000   0.049861345   -0.32453787     0.03623465    -0.21351603    -0.00041273295
   4640000   0.050046709   -0.32442324     0.035802188   -0.21355584     0.00052313052
   4641000   0.049977361   -0.32463977     0.035970546   -0.21370802     0.0010859869 
   4642000   0.049728519   -0.32420929     0.036166849   -0.21345447    -0.00041460889
   4643000   0.049713733   -0.32444677     0.036664564   -0.21321642     0.0011528054 
   4644000   0.049492776   -0.32469234     0.036595884   -0.21386208    -0.0010018161 
   4645000   0.050327262   -0.32509799     0.035716852   -0.21389511     0.00099171601
   4646000   0.049865902   -0.32461766     0.036446993   -0.21337664     0.00081151167
   4647000   0.050414483   -0.32482693     0.035976724   -0.21323336     0.00011714658
   4648000   0.049552129   -0.32475247     0.035874726   -0.21455435     0.0011463995 
   4649000   0.049949841   -0.3247937      0.035482375   -0.2143914      0.0010595579 
   4650000   0.049872648   -0.32483628     0.03633641    -0.21369572    -0.00089477248
   4651000   0.050495676   -0.32459029     0.035393365   -0.21345829     0.0014727084 
   4652000   0.049944318   -0.32439647     0.035614575   -0.21387025     0.00024771769
   4653000   0.049707025   -0.32502642     0.035965848   -0.21450485    -0.00085683775
   4654000   0.049652866   -0.32493752     0.035073942   -0.21538908     9.9382296e-05
   4655000   0.049519625   -0.32486774     0.036343735   -0.21424936    -0.00051890354
   4656000   0.050245431   -0.32455071     0.035375717   -0.21381171     0.00045344493
   4657000   0.050109045   -0.32456869     0.03547189    -0.21393809     0.0012187857 
   4658000   0.050097939   -0.3247557      0.035777258   -0.21383638     0.001934291  
   4659000   0.050462712   -0.32494014     0.035979395   -0.21327156    -0.00010536122
   4660000   0.050362738   -0.32476967     0.036026597   -0.21320384     0.00038399936
   4661000   0.049955324   -0.32430322     0.036437145   -0.21293792     2.6551585e-05
   4662000   0.050239039   -0.32489567     0.03641006    -0.21313191    -0.00051996533
   4663000   0.050451834   -0.32522922     0.036254014   -0.21330234     0.0011644101 
   4664000   0.050108271   -0.32493166     0.036522637   -0.21325147     0.00044714531
   4665000   0.049631681   -0.32495955     0.035431871   -0.21508496     0.00060995692
   4666000   0.049839121   -0.32474236     0.035444469   -0.21454404     0.0011784032 
   4667000   0.049826979   -0.32476137     0.035778085   -0.21424764    -0.00028580688
   4668000   0.050176615   -0.32472894     0.035722576   -0.21374629     0.0015192888 
   4669000   0.050215332   -0.32456848     0.035805499   -0.21344485     0.0003955724 
   4670000   0.04991613    -0.32463643     0.036523549   -0.21324352     0.00029224001
   4671000   0.050663486   -0.32519232     0.036189833   -0.21301216    -1.7089121e-05
   4672000   0.050403374   -0.32475411     0.036727243   -0.21242669     0.00076974892
   4673000   0.049864821   -0.32485002     0.036099938   -0.21395767    -0.00038270302
   4674000   0.049911381   -0.3246854      0.036321562   -0.2135016      0.00025361581
   4675000   0.050271171   -0.32463004     0.036228973   -0.21299917    -0.00042961071
   4676000   0.050266756   -0.32459709     0.035771828   -0.21342999     0.00063237221
   4677000   0.050456747   -0.32487516     0.035872734   -0.21332219     0.00023560233
   4678000   0.050431984   -0.32500064     0.036082837   -0.21327471    -0.0001160414 
   4679000   0.050064167   -0.32468399     0.036112643   -0.21347994     0.00083781605
   4680000   0.050305709   -0.32492346     0.03593432    -0.21353545     0.0011792241 
   4681000   0.050269046   -0.32509302     0.035874067   -0.21382025    -0.00022034136
   4682000   0.049839119   -0.3251283      0.03661908    -0.21375537    -0.00033379729
   4683000   0.05013204    -0.32520757     0.036082652   -0.2139317     -0.0012008182 
   4684000   0.050372262   -0.32493478     0.036614603   -0.21276666     0.00023479301
   4685000   0.049517048   -0.32501199     0.036409274   -0.21433194     3.7211233e-05
   4686000   0.050117548   -0.32508103     0.03592345    -0.21398611     0.00022688971
   4687000   0.049788954   -0.32506661     0.036555728   -0.21383227     6.0031155e-05
   4688000   0.049912239   -0.3248967      0.035797074   -0.21423609    -0.00020932309
   4689000   0.049819708   -0.32513426     0.036476536   -0.21393298     0.00040861078
   4690000   0.050123654   -0.32523819     0.035253172   -0.21480439     1.2806161e-05
   4691000   0.050319334   -0.32496789     0.035321178   -0.21417258    -0.00025408586
   4692000   0.050232339   -0.32517206     0.035487519   -0.21434089     0.00095395198
   4693000   0.049998656   -0.32520768     0.036135901   -0.21407863     0.00025363996
   4694000   0.050249844   -0.32465116     0.035712099   -0.21356916     0.00014061736
   4695000   0.050434498   -0.32517788     0.036173187   -0.21335782     0.00030698611
   4696000   0.050279989   -0.32539842     0.035927549   -0.21405575     7.5257821e-05
   4697000   0.05025765    -0.32530662     0.036155037   -0.21376997    -9.2029783e-05
   4698000   0.049619482   -0.32532079     0.035892129   -0.21500424     0.0013163451 
   4699000   0.049522576   -0.32533288     0.036667785   -0.21438602    -0.00041452573
   4700000   0.050191286   -0.32564394     0.03598962    -0.21437225    -0.00047450312
   4701000   0.050013572   -0.32598392     0.036311668   -0.21465674    -0.0020639964 
   4702000   0.050022334   -0.32555503     0.036052304   -0.21447406     0.00067689459
   4703000   0.049695845   -0.32513812     0.035793621   -0.21480554    -2.9381086e-05
   4704000   0.04973546    -0.32535505     0.035920471   -0.2148362      0.0002020328 
   4705000   0.050067997   -0.32517741     0.03673186    -0.2133484      7.0944647e-05
   4706000   0.050171101   -0.32521651     0.03636357    -0.21360114    -0.0023703067 
   4707000   0.049813022   -0.32533958     0.036255028   -0.21436984     0.00083120082
   4708000   0.050044543   -0.32502044     0.035414992   -0.21454348     0.00062179579
   4709000   0.049456      -0.32528082     0.035902991   -0.21519861     0.00018820559
   4710000   0.049935904   -0.32506876     0.03595503    -0.21421471     0.00035236695
   4711000   0.050140896   -0.32542617     0.036038748   -0.21418093     0.00041763824
   4712000   0.050265965   -0.32554991     0.035874217   -0.21428161    -0.00036014052
   4713000   0.050182192   -0.32541393     0.035726066   -0.21441943     0.00092456885
   4714000   0.049961724   -0.32514527     0.035932355   -0.21427516     0.00065591681
   4715000   0.049365643   -0.32549043     0.035987796   -0.21545895     0.0010063346 
   4716000   0.049738882   -0.32571047     0.035853373   -0.21525358     0.00027388277
   4717000   0.049930992   -0.32546962     0.035748052   -0.21482991    -0.00015139989
   4718000   0.04969816    -0.32528796     0.035486602   -0.21525893     0.0004650715 
   4719000   0.049948645   -0.32525961     0.036351142   -0.21399033    -0.00075619741
   4720000   0.05033706    -0.32548928     0.035634049   -0.21435452    -0.00098873945
   4721000   0.050148096   -0.32516453     0.035956915   -0.21399032     0.00194961   
   4722000   0.050072397   -0.32496505     0.036538545   -0.21332275     0.00011109759
   4723000   0.049982702   -0.32511132     0.036450304   -0.2136918      0.00041357299
   4724000   0.050251496   -0.32520627     0.036061961   -0.21377193     0.00095633902
   4725000   0.050213953   -0.32537052     0.035868279   -0.21418617     0.00017161287
   4726000   0.04982143    -0.32560646     0.036804609   -0.21407453    -7.1097078e-05
   4727000   0.04958796    -0.32511823     0.035946572   -0.21479452     0.00068342333
   4728000   0.050145003   -0.32551697     0.035446983   -0.21485734     0.00043511217
   4729000   0.049881665   -0.32581844     0.036101956   -0.21489881    -0.00039922973
   4730000   0.049805146   -0.32541346     0.036096533   -0.21461403     0.0014802949 
   4731000   0.049508453   -0.32531045     0.035839367   -0.2152132     -5.4986768e-05
   4732000   0.04983383    -0.3257545      0.036355133   -0.21465345    -0.00023163975
   4733000   0.049836335   -0.32570589     0.036229578   -0.21472663     0.00047674231
   4734000   0.050149809   -0.3256288      0.035896076   -0.21451286    -0.00046045095
   4735000   0.049963985   -0.32567335     0.036158736   -0.21457347    -0.00044027269
   4736000   0.050522479   -0.32560107     0.036202457   -0.21361978    -0.00076916502
   4737000   0.050325187   -0.32544349     0.036003566   -0.21395702    -0.00044190141
   4738000   0.05041247    -0.32577777     0.036622792   -0.21354115     0.00045805406
   4739000   0.050036415   -0.32511558     0.036219605   -0.21384619     0.00096290864
   4740000   0.050144091   -0.32579145     0.035601402   -0.21497876     0.00052035766
   4741000   0.050422495   -0.32554352     0.036071617   -0.21384304    -0.00048451875
   4742000   0.050009005   -0.32549421     0.036355236   -0.2141303     -0.00032360217
   4743000   0.050607089   -0.32589658     0.035700046   -0.2142908     -3.5618099e-05
   4744000   0.050173783   -0.32518873     0.036529068   -0.21340385    -8.1957956e-05
   4745000   0.049735193   -0.32493501     0.03576376    -0.21457327     0.0013083232 
   4746000   0.049740218   -0.32585531     0.036088491   -0.21516131     0.001630068  
   4747000   0.05039142    -0.32593709     0.035963041   -0.2143918      0.0007018851 
   4748000   0.049352568   -0.32570039     0.036545018   -0.2151313     -0.00072405186
   4749000   0.050103698   -0.32574969     0.036102975   -0.21449602     0.00094579798
   4750000   0.049776704   -0.32550845     0.036215363   -0.21463285    -7.4556106e-05
   4751000   0.049916835   -0.32549121     0.035748035   -0.21487275     0.001215447  
   4752000   0.050396433   -0.32573763     0.035963204   -0.21418465    -0.0013068669 
   4753000   0.050269791   -0.32515482     0.035966295   -0.2137887      0.00091422432
   4754000   0.050292233   -0.32580193     0.035948752   -0.21441969    -0.00050142528
   4755000   0.049993626   -0.32538826     0.03667216    -0.2137305      0.0012380404 
   4756000   0.050142313   -0.32549456     0.036361964   -0.21392398     0.00038352599
   4757000   0.050307474   -0.32564027     0.036229332   -0.21395459     0.00067124   
   4758000   0.050462305   -0.32535915     0.035642036   -0.21402854    -0.00056784965
   4759000   0.050480466   -0.32530071     0.035798795   -0.21378611     0.0002347865 
   4760000   0.049768404   -0.32566828     0.035911857   -0.21510864    -0.00061567366
   4761000   0.04994669    -0.32573196     0.036058212   -0.21475855     0.00034238646
   4762000   0.049735785   -0.32555584     0.035554194   -0.21540278     0.00012021124
   4763000   0.04994287    -0.32561872     0.036149038   -0.21456021     0.00031887624
   4764000   0.050213367   -0.32513598     0.036669927   -0.21315086     3.5554722e-05
   4765000   0.05076079    -0.32578505     0.036117748   -0.21353103     0.00041117867
   4766000   0.050327076   -0.3261215      0.036080135   -0.21455563    -9.4281806e-05
   4767000   0.049758554   -0.32524388     0.036512043   -0.21409882     0.00016059537
   4768000   0.049986899   -0.32585344     0.036014046   -0.21486388     0.00047061618
   4769000   0.050103      -0.32522471     0.035665962   -0.21440909     0.00086570049
   4770000   0.050118354   -0.32592781     0.036248576   -0.21450655    -0.00099977499
   4771000   0.05026359    -0.3255534      0.035829313   -0.21433357     0.00017205125
   4772000   0.049497702   -0.32607248     0.036175756   -0.21565497    -0.00019496952
   4773000   0.049910283   -0.32579575     0.035613754   -0.2153214     -7.7239227e-05
   4774000   0.050205646   -0.32582593     0.035713085   -0.21480923     0.00032559285
   4775000   0.049658489   -0.32522446     0.036331939   -0.21440959     0.00043434982
   4776000   0.050537779   -0.3257566      0.035948091   -0.21400673     0.00047937409
   4777000   0.04984965    -0.32586261     0.035707854   -0.21538511     0.0014459715 
   4778000   0.049646337   -0.3255677      0.036181906   -0.2149211      0.0015020674 
   4779000   0.050024144   -0.32530226     0.036004223   -0.21426666     0.00027351261
   4780000   0.049893088   -0.32558448     0.036190757   -0.21455892     0.00077480775
   4781000   0.049637855   -0.32559486     0.036027478   -0.21511541     0.00059405555
   4782000   0.049648885   -0.32559427     0.036693628   -0.21443212    -0.00080324171
   4783000   0.050112834   -0.32571687     0.035822664   -0.21472981     0.00015583181
   4784000   0.049519576   -0.3257678      0.035846111   -0.21564712    -0.00018442726
   4785000   0.049673957   -0.32553092     0.035930497   -0.2150943      0.00047610972
   4786000   0.049456312   -0.32538157     0.036076121   -0.21512577     0.0004485529 
   4787000   0.050071856   -0.32596713     0.035537822   -0.21532637    -0.00036272718
   4788000   0.049904742   -0.32610842     0.03577018    -0.21548596    -0.00021458883
   4789000   0.05034422    -0.32575488     0.036133624   -0.2141098      0.00025615247
   4790000   0.050025728   -0.32506463     0.035782918   -0.21424796     0.00099614422
   4791000   0.050482483   -0.32531949     0.035624624   -0.21397603     0.0021154004 
   4792000   0.050375859   -0.32504435     0.03610392    -0.21338152     0.0006396594 
   4793000   0.049513504   -0.32540001     0.035533416   -0.21560113    -0.0010655926 
   4794000   0.050556226   -0.3259016      0.035813952   -0.21425821    -4.3174117e-05
   4795000   0.050279115   -0.32620269     0.035883754   -0.21490513    -0.00052748935
   4796000   0.049677548   -0.32587033     0.035919834   -0.21543898     0.0015678906 
   4797000   0.049598525   -0.32562662     0.036545159   -0.21468847    -0.00010328338
   4798000   0.050224674   -0.32527118     0.035998445   -0.21394058    -2.8802227e-05
   4799000   0.050097859   -0.32525908     0.03648104    -0.2136361     -0.0015512472 
   4800000   0.050072401   -0.32555429     0.036531422   -0.21391911    -0.00033099141
   4801000   0.050306983   -0.32550162     0.035753552   -0.21429246    -0.00084969096
   4802000   0.049580969   -0.32534049     0.036497585   -0.21447625    -0.00011925431
   4803000   0.050437013   -0.32553564     0.036097786   -0.21378722     0.00080301915
   4804000   0.050047387   -0.32574453     0.036468843   -0.21420945     0.00035018004
   4805000   0.050084887   -0.32580602     0.036218798   -0.21446474    -9.9086374e-05
   4806000   0.05017662    -0.32561129     0.036112183   -0.21423903    -1.4130718e-05
   4807000   0.050044858   -0.32566388     0.035939469   -0.21466196    -0.0019342304 
   4808000   0.049895666   -0.32568929     0.035919048   -0.21493157    -0.001064665  
   4809000   0.050220369   -0.32561034     0.03548223    -0.21480242    -0.00050809765
   4810000   0.049845444   -0.32531618     0.036115998   -0.21443684    -0.00054142908
   4811000   0.049477013   -0.3255759      0.035793803   -0.21557137    -0.00018740307
   4812000   0.049820255   -0.32603423     0.035718985   -0.21558968     0.00022763553
   4813000   0.049917635   -0.32569262     0.035818438   -0.21500256     0.0019488614 
   4814000   0.049872632   -0.32581499     0.036191906   -0.21481896     0.00052087969
   4815000   0.049570746   -0.3258809      0.035627529   -0.21590205    -0.00099521473
   4816000   0.04984455    -0.32590237     0.036022047   -0.21511832     0.00073443754
   4817000   0.049444916   -0.32569328     0.036050814   -0.21547988     0.00025564511
   4818000   0.050034804   -0.32573893     0.036057099   -0.21463447    -3.3849826e-05
   4819000   0.05033646    -0.32564892     0.036263272   -0.21388582    -0.0011189269 
   4820000   0.050173949   -0.3254492      0.035622639   -0.2145705     -0.00023478175
   4821000   0.049904087   -0.32549079     0.035873344   -0.21476615     0.0010838733 
   4822000   0.050232899   -0.32583167     0.035974293   -0.21451289    -0.00080271594
   4823000   0.049881403   -0.32516257     0.036017064   -0.21432823     0.0010023715 
   4824000   0.049597698   -0.32582144     0.036363161   -0.21506653     0.00055343517
   4825000   0.050141549   -0.32536615     0.036292736   -0.21386594     0.0013905417 
   4826000   0.049279464   -0.32545677     0.036587889   -0.21495446     0.00036309816
   4827000   0.050259496   -0.32563715     0.036054162   -0.2141986      0.0018291812 
   4828000   0.049602123   -0.32562157     0.036462359   -0.21476083     0.00043427961
   4829000   0.049741464   -0.32558118     0.036374545   -0.21459925    -0.00011161052
   4830000   0.05011532    -0.3256663      0.036288439   -0.21420973     0.00088810468
   4831000   0.049887505   -0.3256456      0.036072569   -0.2147466     -0.0006795822 
   4832000   0.049288049   -0.32542598     0.036163513   -0.21533516    -0.0010953592 
   4833000   0.049526539   -0.32595983     0.036246424   -0.2154284     -0.00066345149
   4834000   0.049484546   -0.32569834     0.035940195   -0.21553611    -0.00061578077
   4835000   0.050247123   -0.32566864     0.035938194   -0.21436463     0.00015267008
   4836000   0.050606145   -0.32554264     0.03598196    -0.21365636    -0.00072252262
   4837000   0.050149325   -0.3251791      0.035581644   -0.21437833    -7.2506876e-05
   4838000   0.049963805   -0.32586963     0.036011996   -0.21491676     7.2737956e-05
   4839000   0.049862044   -0.32591948     0.035885469   -0.21524577     0.00017054114
   4840000   0.049913607   -0.32552523     0.035581774   -0.21507788     0.00060997418
   4841000   0.049756058   -0.32543786     0.03624916    -0.21455942     0.0014571596 
   4842000   0.049514787   -0.32551843     0.036175581   -0.21507546    -8.9409172e-05
   4843000   0.050231482   -0.32567285     0.036153707   -0.21417678     0.0010474818 
   4844000   0.050061246   -0.32638926     0.035698373   -0.21560387    -0.00070512366
   4845000   0.049907733   -0.32610785     0.035791765   -0.21545931    -0.00045559348
   4846000   0.049499248   -0.32524332     0.035461834   -0.21553741     0.0013712099 
   4847000   0.049582095   -0.32624414     0.035844507   -0.21603129    -0.001780705  
   4848000   0.050014593   -0.3255708      0.036325082   -0.21422867     0.0011294219 
   4849000   0.050041858   -0.32582102     0.036313399   -0.21444968     0.0004233512 
   4850000   0.049894588   -0.32570465     0.036201238   -0.21466636     0.0010156983 
   4851000   0.050474597   -0.32623095     0.035509998   -0.21501394    -0.0005267646 
   4852000   0.050467403   -0.32608835     0.036569272   -0.21382286     0.00031381696
   4853000   0.050306196   -0.32574497     0.036257612   -0.21403293    -0.00043234392
   4854000   0.050083319   -0.32596292     0.035693543   -0.21514925     0.0009530956 
   4855000   0.049935303   -0.32583617     0.036234876   -0.21470317    -6.6973267e-05
   4856000   0.050027172   -0.3256186      0.035801835   -0.21478085     0.00051679074
   4857000   0.050923366   -0.32611787     0.035838314   -0.21389944     8.0938025e-05
   4858000   0.050159046   -0.32593332     0.036374084   -0.21432552    -3.6600216e-05
   4859000   0.049550504   -0.3256121      0.036961729   -0.21432941     0.00074842785
   4860000   0.049452746   -0.32591922     0.036228633   -0.21551625    -0.00058368279
   4861000   0.049930401   -0.32564357     0.036350127   -0.21440267    -0.00021360715
   4862000   0.050182008   -0.32596113     0.036507736   -0.21418523    -0.00070905501
   4863000   0.049986817   -0.32577113     0.036238779   -0.21455696    -0.00019921205
   4864000   0.049872048   -0.32576898     0.03559721    -0.21536852     0.00025963966
   4865000   0.049385589   -0.32579806     0.035405988   -0.21631846    -5.985919e-05 
   4866000   0.049580672   -0.32646153     0.036104784   -0.21599053    -0.0008275794 
   4867000   0.049687768   -0.3255471      0.035709448   -0.2153108      0.00062879876
   4868000   0.049983892   -0.32562055     0.035136829   -0.21551272     0.00012264447
   4869000   0.049952394   -0.3257936      0.035838194   -0.21503165     0.00066214542
   4870000   0.050014089   -0.32605624     0.035452229   -0.21558771     2.6809853e-05
   4871000   0.049973685   -0.32566293     0.035613395   -0.21509384     0.00056462759
   4872000   0.050534225   -0.32554424     0.035697762   -0.21405003    -0.00074534919
   4873000   0.049905121   -0.32589731     0.035937358   -0.2151071      0.00056769514
   4874000   0.049727642   -0.32554258     0.036720101   -0.21423582    -0.00019726367
   4875000   0.05039826    -0.32536572     0.035837637   -0.21393557     0.00055113741
   4876000   0.04969421    -0.32619432     0.035570128   -0.21608768     0.00021317817
   4877000   0.050203907   -0.32588759     0.036022846   -0.21456374     0.00020675212
   4878000   0.049767464   -0.32567852     0.035894833   -0.21513731     7.4308939e-05
   4879000   0.049870694   -0.32566582     0.035956889   -0.21490771     0.00026022161
   4880000   0.049884193   -0.32620381     0.035922283   -0.21546006     0.00026981533
   4881000   0.050009972   -0.32648547     0.036136589   -0.21533877    -0.00095087717
   4882000   0.05010782    -0.32581578     0.035769906   -0.214889       0.00018178757
   4883000   0.050037732   -0.32613091     0.035584067   -0.21549509     0.00014466347
   4884000   0.04978683    -0.32596328     0.035572541   -0.21571531     0.00024624923
   4885000   0.049587825   -0.32588375     0.036126113   -0.2153807      0.00086887655
   4886000   0.050451956   -0.32605709     0.03556948    -0.21481456    -0.00022368798
   4887000   0.050256481   -0.32566104     0.036293215   -0.21398797    -0.00010882931
   4888000   0.049801714   -0.32558151     0.036336358   -0.2145474      0.0011594194 
   4889000   0.049717431   -0.32577992     0.036007759   -0.21520082     0.00095911183
   4890000   0.049837767   -0.32602068     0.03557852    -0.21569033     0.0012564426 
   4891000   0.049600081   -0.3258972      0.036004139   -0.21549774     0.00091052623
   4892000   0.050312284   -0.32617992     0.036534386   -0.21418198    -0.00021019386
   4893000   0.049590264   -0.32569658     0.036237747   -0.21507824     5.6529306e-05
   4894000   0.050064436   -0.32632113     0.03576547    -0.21546385     4.1105623e-05
   4895000   0.050422306   -0.32596865     0.036058816   -0.21428126     0.0002837895 
   4896000   0.050244812   -0.32581247     0.035508155   -0.21494196     0.00045772665
   4897000   0.05013899    -0.32553815     0.035563602   -0.21477092     0.0018264289 
   4898000   0.049988769   -0.32564975     0.036261609   -0.21440982     0.00043185652
   4899000   0.05005248    -0.32607017     0.036086738   -0.21490956    -0.00030507299
   4900000   0.049869651   -0.32617068     0.036213745   -0.21515728    -0.00054648215
   4901000   0.050022052   -0.32572636     0.034776605   -0.21592151    -0.001372859  
   4902000   0.050145156   -0.32633492     0.035659036   -0.215463       0.0013193195 
   4903000   0.049960118   -0.32618195     0.036584651   -0.21466195    -0.0015994742 
   4904000   0.050012696   -0.32599697     0.036116815   -0.21486596    -0.00052005573
   4905000   0.050577468   -0.32606442     0.035918795   -0.21428432     0.0014339721 
   4906000   0.050171015   -0.32583621     0.035929335   -0.21465521     0.00055063824
   4907000   0.049910128   -0.32559697     0.035969324   -0.21476729     0.0017324348 
   4908000   0.050760724   -0.325938       0.036119623   -0.2136822      7.9478391e-05
   4909000   0.05062538    -0.32600875     0.036185647   -0.21388993     0.00024687255
   4910000   0.049794274   -0.32562837     0.035778923   -0.21516285     0.00091031232
   4911000   0.049950268   -0.32553244     0.036463786   -0.21414808    -0.00017290565
   4912000   0.050271295   -0.32562452     0.035923265   -0.21429918     0.0005069568 
   4913000   0.050220026   -0.32607598     0.036288565   -0.21446224    -0.00012551129
   4914000   0.050283883   -0.32595323     0.035804826   -0.21472744     0.00046786812
   4915000   0.050268802   -0.32601459     0.036016974   -0.21459928     0.0014999936 
   4916000   0.050510033   -0.3262213      0.03561615    -0.21484499     0.00086661254
   4917000   0.050483366   -0.32609263     0.035524065   -0.2148484      0.00027900968
   4918000   0.04977133    -0.32554157     0.035959578   -0.21492981     0.00228258   
   4919000   0.049731103   -0.32584281     0.035482105   -0.21576886     0.0014966155 
   4920000   0.049893899   -0.32549826     0.035787278   -0.21487497     0.00097580566
   4921000   0.049769138   -0.32643197     0.036079195   -0.21570388    -0.00098682442
   4922000   0.049752348   -0.32624839     0.036137024   -0.21548766     0.00056568323
   4923000   0.050252131   -0.32619327     0.035743431   -0.21507651     0.00080112502
   4924000   0.049996719   -0.32602993     0.036047889   -0.2149918     -9.3910845e-05
   4925000   0.050470778   -0.32607241     0.036742279   -0.21362885     7.2233917e-05
   4926000   0.05060951    -0.32614998     0.036526185   -0.21371443     0.00059311755
   4927000   0.05031035    -0.32579467     0.035932623   -0.21440139     0.00065506133
   4928000   0.049927883   -0.3259905      0.035747462   -0.21535605    -7.0792106e-05
   4929000   0.049971713   -0.32590549     0.035984646   -0.21496811     0.00073239351
   4930000   0.050464583   -0.32581016     0.03574851    -0.21436966     0.00058119601
   4931000   0.049653037   -0.32613024     0.035706226   -0.21594927     0.0025945129 
   4932000   0.049917493   -0.32612836     0.036009735   -0.21524721     0.0015314871 
   4933000   0.049533104   -0.32616788     0.036215126   -0.21565789    -0.00027826797
   4934000   0.049921726   -0.32595504     0.035899208   -0.21517807     8.7904069e-05
   4935000   0.050646659   -0.32600054     0.035275805   -0.21475965     0.00035730499
   4936000   0.049971616   -0.32601881     0.036054659   -0.21501156     0.00088619861
   4937000   0.050008475   -0.32611228     0.035924999   -0.21517941     0.00083102622
   4938000   0.049293875   -0.32628999     0.034959083   -0.21739486     0.00073039722
   4939000   0.049417593   -0.32644732     0.036258463   -0.21606725    -0.0009316883 
   4940000   0.049822566   -0.3258203      0.035791392   -0.21529988     0.0013752854 
   4941000   0.050217667   -0.32603156     0.036087143   -0.21462277     0.0010621865 
   4942000   0.049943495   -0.32592555     0.036332589   -0.21468255     0.0021636378 
   4943000   0.050514005   -0.32657433     0.036183651   -0.21462456    -0.00040099269
   4944000   0.050618232   -0.32640949     0.036410169   -0.21407687    -0.00015949179
   4945000   0.050352786   -0.32595602     0.035810156   -0.21462155     0.0012728174 
   4946000   0.050196332   -0.32667067     0.035540623   -0.21584041    -0.00015018585
   4947000   0.049880209   -0.32663917     0.036443873   -0.21537981    -0.00022179959
   4948000   0.049627189   -0.32595736     0.035490867   -0.21603052     0.00077102748
   4949000   0.049538631   -0.32624794     0.036373757   -0.21557103    -0.00032250088
   4950000   0.049588753   -0.32648021     0.036495414   -0.21560646     0.00094486849
   4951000   0.050129527   -0.3264223      0.036159672   -0.21507318    -0.00022281542
   4952000   0.049798967   -0.32602848     0.036364285   -0.21497056    -0.00069024373
   4953000   0.049550681   -0.32609624     0.036082435   -0.21569258     0.00044141491
   4954000   0.049414358   -0.32605541     0.036018367   -0.21592028     0.00019886973
   4955000   0.049932862   -0.32658781     0.035554386   -0.21613896    -0.00082483193
   4956000   0.049489998   -0.32637435     0.036008097   -0.21613604    -0.001029422  
   4957000   0.050032389   -0.32624915     0.036009547   -0.21519586     0.00067448418
   4958000   0.050239942   -0.32655294     0.035681759   -0.21551613     0.0012181105 
   4959000   0.049527283   -0.32612665     0.036390963   -0.21544956    -0.00012620933
   4960000   0.050161723   -0.32618207     0.036309085   -0.21463526     0.00072257846
   4961000   0.050060593   -0.32607927     0.035913048   -0.21508017     0.00078471145
   4962000   0.050083125   -0.32600158     0.035568698   -0.21531304     0.00017969861
   4963000   0.049993668   -0.32609772     0.035713521   -0.21539854     0.0015812968 
   4964000   0.050193646   -0.32588134     0.036121696   -0.21447403     0.0010045709 
   4965000   0.050281923   -0.32612963     0.036159583   -0.21455203    -0.00034263764
   4966000   0.049845778   -0.32562243     0.036503585   -0.214355      -1.616152e-05 
   4967000   0.049623435   -0.32609398     0.036241679   -0.21542195    -0.00022355614
   4968000   0.050223915   -0.32624956     0.035731574   -0.21518698     0.00044758611
   4969000   0.049780776   -0.32602978     0.036619221   -0.21474422     0.00070386438
   4970000   0.049655419   -0.32565689     0.036092691   -0.21508588     0.000933351  
   4971000   0.050014583   -0.32589874     0.035969374   -0.21491233    -0.00027231293
   4972000   0.050709539   -0.32623846     0.036163657   -0.2140154      0.00023042615
   4973000   0.049931591   -0.32592329     0.035845502   -0.21518524     0.0011334569 
   4974000   0.050524164   -0.32647086     0.036106178   -0.21458333    -0.00018627866
   4975000   0.049897279   -0.32608258     0.036488107   -0.21475339    -0.001318706  
   4976000   0.05019432    -0.32630828     0.035443103   -0.21557855    -0.00031523443
   4977000   0.050261993   -0.32565748     0.035695472   -0.21457389     0.00085378205
   4978000   0.049538741   -0.32594693     0.036378537   -0.21526508     0.00075382552
   4979000   0.050009815   -0.32615641     0.036487753   -0.21465878    -0.00025781291
   4980000   0.049420905   -0.32622184     0.036252062   -0.21584321    -0.0015301633 
   4981000   0.050202265   -0.32613787     0.035032916   -0.21580641     0.00055500766
   4982000   0.049749492   -0.32630004     0.035949089   -0.21573153    -0.0003007693 
   4983000   0.049622265   -0.32646807     0.036148172   -0.21589131    -0.0014562186 
   4984000   0.049787703   -0.32634        0.035862354   -0.21580091    -0.00075446135
   4985000   0.050540706   -0.3263159      0.03660438    -0.21390535    -4.689264e-06 
   4986000   0.049984806   -0.3264997      0.036167687   -0.21535964     0.00038480478
   4987000   0.05074157    -0.32647165     0.035863337   -0.21450086     0.00017010489
   4988000   0.050007809   -0.32632374     0.035851111   -0.21546576    -8.2828915e-05
   4989000   0.050141611   -0.32661991     0.036357384   -0.21505496    -0.00053299271
   4990000   0.050446588   -0.32630752     0.036677469   -0.21396505     0.0001857454 
   4991000   0.049912995   -0.32612764     0.036433667   -0.21482931     0.0011225634 
   4992000   0.050552303   -0.32613387     0.036465723   -0.21384459     0.00058820981
   4993000   0.050337387   -0.32642308     0.035932844   -0.21498903     0.00010267578
   4994000   0.050045829   -0.3267768      0.036007329   -0.21570557    -0.00019518178
   4995000   0.049370465   -0.32626107     0.036056602   -0.21615355     4.4175233e-05
   4996000   0.049881053   -0.32646727     0.035717735   -0.21593278     0.00081777898
   4997000   0.049402121   -0.32643851     0.036179775   -0.21616033    -0.00098005608
   4998000   0.049541471   -0.32655185     0.036403962   -0.21584047    -0.00047873154
   4999000   0.049877925   -0.32654893     0.036145545   -0.21559133     0.00029965005
   5000000   0.049721199   -0.32680264     0.036461465   -0.21576419    -0.0021180505 
   5001000   0.049292839   -0.3261619      0.036214479   -0.21601293     0.00044668094
   5002000   0.049693245   -0.32663295     0.03615545    -0.21594244     0.00020941615
   5003000   0.049891283   -0.32624149     0.036059428   -0.21534997     0.00074717574
   5004000   0.050200016   -0.32625948     0.036355705   -0.21460861    -0.00019418649
   5005000   0.049576015   -0.32649971     0.036527952   -0.21561254     0.00013361344
   5006000   0.049680754   -0.32665721     0.036456751   -0.21568414    -0.00024665939
   5007000   0.050124138   -0.32627877     0.035513283   -0.21558413     0.00059074925
   5008000   0.050556115   -0.32622933     0.035958914   -0.21444114     2.5753185e-05
   5009000   0.050480043   -0.32661222     0.036500652   -0.21439639     9.798786e-06 
   5010000   0.050258608   -0.32686319     0.036375744   -0.2151044     -0.0002204334 
   5011000   0.050502839   -0.32631204     0.036674155   -0.21388852    -0.0011235368 
   5012000   0.050340337   -0.32590566     0.03702757    -0.21337246     0.00047273406
   5013000   0.050522702   -0.32643028     0.035654599   -0.21499652     0.0011766402 
   5014000   0.050384329   -0.32676455     0.036620495   -0.21457244    -0.0013334223 
   5015000   0.050347397   -0.3259225      0.036403372   -0.2140029     -0.00013059033
   5016000   0.050509138   -0.32670785     0.036402414   -0.21454662     0.00055852637
   5017000   0.050018953   -0.32665706     0.03624819    -0.21538528    -0.0011505987 
   5018000   0.050040507   -0.32635856     0.035828053   -0.21547459     0.00041250388
   5019000   0.050069067   -0.32642137     0.035409036   -0.21591358    -6.7111052e-05
   5020000   0.050176238   -0.32601808     0.035850157   -0.21490842    -0.00010321102
   5021000   0.050031804   -0.32627307     0.03531525    -0.21591496     0.00097875174
   5022000   0.050672278   -0.32635103     0.036155165   -0.21419236     0.00069399094
   5023000   0.050530542   -0.32633816     0.036350954   -0.21419629    -6.0527279e-05
   5024000   0.050299989   -0.32645561     0.036477108   -0.21453339    -0.0011381639 
   5025000   0.049803226   -0.32668108     0.035874052   -0.21610701    -0.00076675168
   5026000   0.050375712   -0.32688804     0.03584083    -0.21548852     0.00036245455
   5027000   0.04999421    -0.32663935     0.036416332   -0.21523654     0.00017201896
   5028000   0.049762218   -0.32600986     0.035998108   -0.21537324     0.00088070121
   5029000   0.050456474   -0.32603045     0.035970552   -0.21438007     0.00027378569
   5030000   0.049842689   -0.32615385     0.035961177   -0.21543346     0.00087771195
   5031000   0.049391156   -0.32655795     0.035991154   -0.21648484    -0.00012198312
   5032000   0.049910951   -0.32643307     0.035327881   -0.21624359     0.0014401904 
   5033000   0.04998947    -0.32639052     0.0360069     -0.21540426    -0.0010293086 
   5034000   0.050545585   -0.32660723     0.036238348   -0.2145554      1.8900822e-05
   5035000   0.049727673   -0.32653005     0.035661468   -0.21628189     0.0004455304 
   5036000   0.049400836   -0.32646291     0.035866576   -0.21649986    -0.00031462814
   5037000   0.049940982   -0.32690641     0.035725564   -0.21627421     0.00072653098
   5038000   0.050264141   -0.32696917     0.03603482    -0.21554301     6.1247231e-05
   5039000   0.050360511   -0.32661973     0.03647398    -0.21460986    -0.0008704215 
   5040000   0.050148938   -0.32677073     0.036077199   -0.21547498    -0.00071731402
   5041000   0.050335505   -0.32597652     0.03577497    -0.21470316    -0.0012261981 
   5042000   0.050053062   -0.32671261     0.035911777   -0.21572608     0.00081042425
   5043000   0.050284479   -0.32655416     0.035802205   -0.2153301     -0.00071144681
   5044000   0.049634775   -0.32670341     0.03578334    -0.21647271     5.6634852e-05
   5045000   0.049485094   -0.32664584     0.036048249   -0.21637474     0.00068765069
   5046000   0.050705096   -0.32681777     0.035793146   -0.21497189    -0.00019589179
   5047000   0.049969893   -0.32644229     0.035976844   -0.21551544     0.00018649962
   5048000   0.050388598   -0.32711485     0.035612243   -0.21592458    -9.3368602e-05
   5049000   0.049895744   -0.32655843     0.035900926   -0.21581871     0.0010388322 
   5050000   0.049994881   -0.32675497     0.03639532    -0.21537216    -0.00086165577
   5051000   0.050069067   -0.32663031     0.035719407   -0.21581215     0.00033412514
   5052000   0.04987619    -0.32637967     0.035793432   -0.21577678     0.0015089083 
   5053000   0.049832573   -0.32678174     0.03641751    -0.21562019     0.00063120359
   5054000   0.0503461     -0.3267299      0.035787206   -0.21542842    -8.2216686e-06
   5055000   0.049837176   -0.32606398     0.035666827   -0.21564621    -0.00016838876
   5056000   0.050598985   -0.32641916     0.035683348   -0.21484223     0.0010959146 
   5057000   0.050025743   -0.32673013     0.036329323   -0.21536703     0.0010212248 
   5058000   0.050307199   -0.32612753     0.036196609   -0.21447499     0.0005956863 
   5059000   0.049760622   -0.32636874     0.036228243   -0.21550438    -0.00060943609
   5060000   0.049592355   -0.32635204     0.035638773   -0.21632954     0.0010218727 
   5061000   0.050361622   -0.32605895     0.036107673   -0.21441372    -0.00022479075
   5062000   0.050040784   -0.32655867     0.036180228   -0.2153221      0.00048163614
   5063000   0.050479929   -0.32644399     0.035973303   -0.21475568     0.00045945893
   5064000   0.050726683   -0.326341       0.036203971   -0.21405192     0.00075779424
   5065000   0.049890248   -0.32653206     0.036166493   -0.21553502    -0.00016639485
   5066000   0.049929213   -0.32659457     0.035689349   -0.21601623     0.00084922829
   5067000   0.050003273   -0.32660039     0.036167021   -0.21543329     0.00020757534
   5068000   0.050075631   -0.32641532     0.036197422   -0.2151093      0.00090407624
   5069000   0.050533704   -0.32664377     0.035848925   -0.21499918     0.0008956782 
   5070000   0.049975005   -0.32624675     0.036377129   -0.21491195     0.00096693434
   5071000   0.050338827   -0.32646623     0.036349075   -0.21461378    -0.0012331891 
   5072000   0.049654076   -0.32663097     0.036556084   -0.21559858     0.00045960307
   5073000   0.050231662   -0.3263553      0.035842056   -0.21517061     0.0016835583 
   5074000   0.049690123   -0.32677582     0.035835424   -0.21641003     0.00031447605
   5075000   0.050374831   -0.32681395     0.036449154   -0.21480742     0.00021547297
   5076000   0.050209655   -0.32653627     0.03586635    -0.2153603     -0.00047572219
   5077000   0.04991549    -0.32648834     0.035835843   -0.2157841      0.00019132861
   5078000   0.049907492   -0.3266523      0.036049015   -0.21574687    -0.0005601838 
   5079000   0.049675478   -0.32677064     0.035991097   -0.21627113    -3.431848e-05 
   5080000   0.049393975   -0.3270847      0.03658869    -0.21640982    -0.0012066369 
   5081000   0.050147132   -0.32652997     0.035800163   -0.21551396    -0.00030149919
   5082000   0.050005135   -0.32639844     0.035811101   -0.21558448     0.0012117375 
   5083000   0.049983533   -0.32623435     0.035524463   -0.21573943     0.0021721235 
   5084000   0.050226042   -0.32635504     0.03630261    -0.21471823    -0.00077730474
   5085000   0.050034307   -0.32668818     0.036470441   -0.21517112     0.00024776698
   5086000   0.050140515   -0.32679111     0.03653353    -0.21505166     0.00061810983
   5087000   0.049739303   -0.32672858     0.035723094   -0.21640134     0.0010001835 
   5088000   0.04926146    -0.32623972     0.036109126   -0.21624317    -0.00065202694
   5089000   0.049572285   -0.32679603     0.036359644   -0.21608276    -0.00042282747
   5090000   0.050026241   -0.32675048     0.035604914   -0.21611105     0.0014492153 
   5091000   0.049195264   -0.32654569     0.035456367   -0.21730119    -0.00021904847
   5092000   0.049237589   -0.3265196      0.035805573   -0.21686241    -0.00075448478
   5093000   0.049802559   -0.32662485     0.036186558   -0.21573928     0.00080600348
   5094000   0.049876079   -0.32675395     0.036190344   -0.21575432     3.0236772e-05
   5095000   0.050071061   -0.32600448     0.035666651   -0.21523608     0.00025940005
   5096000   0.050110622   -0.3268234      0.035681407   -0.21598091     0.000748595  
   5097000   0.050458564   -0.32680976     0.036264092   -0.2148627     -0.00078639584
   5098000   0.049783745   -0.32652067     0.036084141   -0.21576573     0.00047791252
   5099000   0.049932779   -0.3271193      0.035502691   -0.21672227    -0.00038940389
   5100000   0.050366823   -0.32696673     0.036185653   -0.21523572     0.0002250204 
   5101000   0.049849541   -0.32722155     0.036267602   -0.21618446    -0.00068739814
   5102000   0.050206203   -0.32684712     0.036525346   -0.21501733    -0.00021120784
   5103000   0.049910582   -0.32670156     0.036813007   -0.21502751     0.00087595585
   5104000   0.05124117    -0.32683658     0.036202691   -0.21377709    -0.00017976413
   5105000   0.049955633   -0.3265966      0.036580489   -0.2150875     -0.00093547888
   5106000   0.050155808   -0.32693443     0.036277316   -0.21542826    -4.2959857e-05
   5107000   0.04971596    -0.32639957     0.036288237   -0.2155422      0.00053251139
   5108000   0.050096763   -0.32704781     0.035862329   -0.21604519    -0.00014098588
   5109000   0.050593202   -0.32688659     0.035974597   -0.21502709     0.0011694818 
   5110000   0.050310123   -0.32656693     0.036672403   -0.21443421    -0.00046228596
   5111000   0.050662325   -0.32703793     0.035869216   -0.21518013     0.00032713521
   5112000   0.049750175   -0.32672207     0.03676191    -0.21533971    -0.00029542598
   5113000   0.050025245   -0.32688159     0.035862774   -0.21598579    -0.00022473979
   5114000   0.050081102   -0.32679248     0.036314811   -0.21536087     0.0010699745 
   5115000   0.050223075   -0.32676135     0.035945136   -0.21548646     0.0005337012 
   5116000   0.05026951    -0.32676907     0.035655194   -0.21571448    -2.9028571e-05
   5117000   0.049451648   -0.32683478     0.036182797   -0.2164793      0.00055581722
   5118000   0.049946019   -0.32687072     0.036249054   -0.21570747     0.00081511609
   5119000   0.050144323   -0.32659273     0.036718251   -0.21466285     0.00016030327
   5120000   0.050003903   -0.32696275     0.036167755   -0.21579398     0.00074875752
   5121000   0.050112478   -0.32684687     0.035467111   -0.2162159      0.00039579745
   5122000   0.050333299   -0.32684274     0.03617721    -0.21517045    -0.00045403623
   5123000   0.05053478    -0.32690967     0.036545937   -0.21456645     0.0011505822 
   5124000   0.049891629   -0.3270635      0.035442178   -0.21678871     0.00037438357
   5125000   0.049307869   -0.32717974     0.036488823   -0.21673389    -0.00020345296
   5126000   0.049690718   -0.32669141     0.035568595   -0.21659155     0.0020147243 
   5127000   0.049796333   -0.32736315     0.035981344   -0.21669212     0.0012007286 
   5128000   0.050251162   -0.32691821     0.03602481    -0.21552152    -0.00027772349
   5129000   0.049793976   -0.32657952     0.036059796   -0.21583358     0.00046140873
   5130000   0.049790918   -0.32685186     0.036168257   -0.21600204    -0.00053335266
   5131000   0.049686712   -0.32669953     0.035400947   -0.21677332     0.00058667664
   5132000   0.049882022   -0.32692417     0.035814005   -0.21629196     0.0012840572 
   5133000   0.050628259   -0.32723567     0.035886523   -0.21541165     0.00045019831
   5134000   0.050065839   -0.32698087     0.036326849   -0.21556011     0.00028344979
   5135000   0.049590013   -0.32694664     0.035810056   -0.21675636    -0.00028561723
   5136000   0.049841555   -0.32712217     0.03557959    -0.21678507     0.0009202784 
   5137000   0.04973307    -0.32673537     0.035676743   -0.21646383     0.0012258292 
   5138000   0.050390741   -0.32694608     0.035400592   -0.21596425     0.00062816539
   5139000   0.049967933   -0.32677509     0.035490384   -0.21633764    -0.0002967487 
   5140000   0.049829546   -0.3267863      0.036055608   -0.2159912      0.0011422455 
   5141000   0.049520246   -0.32717148     0.035851729   -0.21704417     0.00091867199
   5142000   0.049790185   -0.32698807     0.036059219   -0.21624839     0.0012534904 
   5143000   0.04942337    -0.32673724     0.035984843   -0.21662212    -0.00026811194
   5144000   0.049905063   -0.32726069     0.035564859   -0.21684306     0.00036364067
   5145000   0.050395715   -0.32723057     0.035798917   -0.21584296     0.00093222733
   5146000   0.04957752    -0.327257       0.035531108   -0.21736441    -0.00034351561
   5147000   0.049803086   -0.32714351     0.035769864   -0.21667383     0.0003990106 
   5148000   0.04966201    -0.32699498     0.035735696   -0.21677108    -0.00030271509
   5149000   0.049940021   -0.32687556     0.035862444   -0.21610791    -5.4276195e-05
   5150000   0.049820505   -0.3272293      0.036061496   -0.21644187     0.00098424601
   5151000   0.049866753   -0.32670524     0.035863826   -0.21604611     0.0012961341 
   5152000   0.050004152   -0.32729666     0.035583446   -0.21671182    -0.00063940109
   5153000   0.050162124   -0.32736221     0.036433162   -0.21569072    -0.0012196217 
   5154000   0.050559288   -0.32672004     0.03645368    -0.21443232     0.00081515332
   5155000   0.050472877   -0.32694618     0.036115423   -0.21512633     0.0004772553 
   5156000   0.050238727   -0.3271289      0.036220144   -0.21555553    -0.00083091703
   5157000   0.050749762   -0.32685657     0.036119468   -0.21461738     0.0010020689 
   5158000   0.049787349   -0.32683688     0.036310166   -0.21585051     0.00091621891
   5159000   0.050338094   -0.32690595     0.036217054   -0.21518663    -0.0002497841 
   5160000   0.050539926   -0.32692329     0.036027932   -0.21509036     0.00080514598
   5161000   0.049949535   -0.32712473     0.035859332   -0.21634592     0.00049332769
   5162000   0.049622212   -0.3270495      0.036467034   -0.21615395     0.00036991808
   5163000   0.049978273   -0.32670049     0.035826867   -0.21591105    -0.00021305914
   5164000   0.050153996   -0.32684326     0.036164796   -0.21545232     0.0010609987 
   5165000   0.050063266   -0.32718892     0.036468593   -0.21563027    -0.0001594813 
   5166000   0.050445203   -0.3270132      0.035903031   -0.21544724     0.00079855733
   5167000   0.049866627   -0.32689398     0.035861153   -0.21623772    -0.00033745793
   5168000   0.050093577   -0.32747047     0.035772195   -0.21656276    -0.00039172152
   5169000   0.050193849   -0.32705313     0.036305333   -0.21546188     0.001246052  
   5170000   0.050478969   -0.32698848     0.036413775   -0.21486113     0.00037257184
   5171000   0.050346783   -0.32720466     0.035804301   -0.21588506    -0.00067857448
   5172000   0.050247145   -0.32663131     0.036414967   -0.21485049     0.00086955622
   5173000   0.050225338   -0.32679875     0.035868142   -0.21559746    -0.00066387642
   5174000   0.050094532   -0.32691994     0.036074616   -0.21570838    -0.00093183699
   5175000   0.049976316   -0.32703068     0.03610293    -0.21596812    -7.0039408e-05
   5176000   0.050089762   -0.32745373     0.035460507   -0.21686343    -0.00045557793
   5177000   0.049583727   -0.32719925     0.035715324   -0.21711314     0.00018420372
   5178000   0.049669136   -0.32704381     0.035563877   -0.21698103     0.00031121   
   5179000   0.049961123   -0.32689471     0.036016779   -0.21594108     0.0010506863 
   5180000   0.050194393   -0.32714423     0.035874978   -0.21598252     6.593762e-05 
   5181000   0.049776292   -0.32730131     0.035692923   -0.21694877     0.00097044718
   5182000   0.04941402    -0.32719036     0.035794183   -0.21727993     0.00033123498
   5183000   0.049925113   -0.3274152      0.036753928   -0.21577843    -0.00064949526
   5184000   0.050208099   -0.32682248     0.036089942   -0.21542525     0.0020615712 
   5185000   0.050186437   -0.32692758     0.035864286   -0.21578849    -0.00082106627
   5186000   0.050357204   -0.32681243     0.036105467   -0.21517603    -0.00074530288
   5187000   0.05017354    -0.32675848     0.036362021   -0.21514101     0.00056970454
   5188000   0.05019879    -0.32704367     0.036122481   -0.21562786     0.0010000719 
   5189000   0.049502601   -0.32706693     0.035816277   -0.21700154    -0.00063986648
   5190000   0.050651092   -0.32692773     0.035770039   -0.21518595     0.00023548261
   5191000   0.04982378    -0.32661236     0.036388952   -0.21549256     0.002030553  
   5192000   0.050030882   -0.32690807     0.035874692   -0.2159919      0.0010165773 
   5193000   0.050419165   -0.3270964      0.037150753   -0.21432177    -0.0017140743 
   5194000   0.050209479   -0.32720617     0.037037329   -0.21485949    -0.00031082035
   5195000   0.050512821   -0.32693055     0.036034773   -0.21513144     0.00086304279
   5196000   0.049956328   -0.32684208     0.036202635   -0.21570979    -0.00013708572
   5197000   0.049755407   -0.32694896     0.035366239   -0.21695442     0.00074434219
   5198000   0.05012666    -0.32714646     0.03594836    -0.21601296     0.0001482557 
   5199000   0.049997195   -0.3268009      0.03584787    -0.21596207     0.0010510902 
   5200000   0.04953072    -0.32705168     0.035483975   -0.21727642     0.0011014549 
   5201000   0.049737191   -0.32704148     0.035715277   -0.21672523     0.00062969602
   5202000   0.049512464   -0.32699725     0.036032727   -0.21670062     0.00032323691
   5203000   0.049561517   -0.32720414     0.036116008   -0.21675066     0.00092553318
   5204000   0.049404195   -0.32697545     0.035890572   -0.21698336     0.00036051714
   5205000   0.050324899   -0.32679693     0.036110889   -0.21520356    -0.0012357896 
   5206000   0.050508486   -0.32659125     0.036015067   -0.21481834     0.00062448912
   5207000   0.050145405   -0.32704165     0.036545117   -0.21528327     0.00025766633
   5208000   0.050174705   -0.32693626     0.036262052   -0.21541701     0.00018548328
   5209000   0.050670568   -0.32695105     0.036685317   -0.21426478    -0.0013342355 
   5210000   0.050514659   -0.32717005     0.036218041   -0.21518491    -0.00029656914
   5211000   0.050560539   -0.32702479     0.035292638   -0.21589624     0.0007749924 
   5212000   0.05008648    -0.32706228     0.03554602    -0.21639138     0.001237355  
   5213000   0.050147043   -0.32702807     0.035953425   -0.21585893    -0.00079836033
   5214000   0.049912598   -0.32745316     0.035587755   -0.21700134     0.00027185176
   5215000   0.050087102   -0.32701067     0.035981938   -0.21590293     0.00014083661
   5216000   0.049860427   -0.3268625      0.03530152    -0.21677516    -0.00031998853
   5217000   0.05021194    -0.32757653     0.035980753   -0.21628272    -8.812753e-06 
   5218000   0.049916274   -0.32751268     0.036449572   -0.21619353    -3.8302922e-05
   5219000   0.049600347   -0.32738113     0.035960241   -0.21702517    -2.4287061e-05
   5220000   0.0497941     -0.32782695     0.036324587   -0.21681604    -0.0018489298 
   5221000   0.050199865   -0.32767189     0.036194986   -0.21618197     0.00051795832
   5222000   0.049006019   -0.32735538     0.03611083    -0.21774027     1.5154684e-05
   5223000   0.050039271   -0.32683686     0.035934687   -0.21584811     0.00065095141
   5224000   0.050063698   -0.32696057     0.035572308   -0.21629756     0.00038197639
   5225000   0.049679513   -0.32680034     0.036198379   -0.2160875      0.00057031061
   5226000   0.049950177   -0.32711733     0.036337612   -0.21585928     0.00053237328
   5227000   0.050037683   -0.32792313     0.035631458   -0.21723999     0.00016899426
   5228000   0.049910881   -0.32785822     0.036482513   -0.21651422     0.00011140768
   5229000   0.049539192   -0.32713233     0.03578102    -0.21704732     0.00016778447
   5230000   0.049574482   -0.32682511     0.036226895   -0.21624129     0.0015935642 
   5231000   0.049987502   -0.32728853     0.035937815   -0.2163743     -9.8443422e-05
   5232000   0.049991639   -0.32759493     0.036029144   -0.21658317     0.00060157196
   5233000   0.049645442   -0.32739221     0.035720341   -0.21720851     0.00012215271
   5234000   0.049333819   -0.32724995     0.035261115   -0.21799288     0.00027902873
   5235000   0.04967692    -0.32749279     0.035722208   -0.21726001    -0.001484285  
   5236000   0.049873435   -0.32763351     0.035670769   -0.21715742     0.0010093344 
   5237000   0.04998924    -0.32763404     0.035941142   -0.21671388    -0.0010039688 
   5238000   0.050372392   -0.32785445     0.036195106   -0.21610564    -4.3978112e-05
   5239000   0.0503863     -0.32799616     0.036150426   -0.21627116     0.00038626217
   5240000   0.049913435   -0.327692       0.036074519   -0.21675215    -6.0116454e-05
   5241000   0.050015104   -0.3274228      0.036117847   -0.21628714     0.00044506892
   5242000   0.05053567    -0.32797458     0.035795442   -0.21638052    -0.0012971823 
   5243000   0.050017959   -0.32740042     0.035418151   -0.21696017    -0.0011079674 
   5244000   0.050095721   -0.32783858     0.036443651   -0.21625619    -0.00087361275
   5245000   0.049584582   -0.32782341     0.035943635   -0.2175077     -0.00017876142
   5246000   0.04988584    -0.32772796     0.035936379   -0.21696765     0.00051204581
   5247000   0.04995888    -0.32730535     0.035971327   -0.21640053    -4.6717707e-06
   5248000   0.049765772   -0.32793266     0.0358527     -0.21743612    -0.00071294113
   5249000   0.04971414    -0.32760129     0.036190106   -0.21684479    -0.00056825531
   5250000   0.05036049    -0.3276732      0.035603669   -0.21653367     0.00082297605
   5251000   0.050157871   -0.32766654     0.036231424   -0.21620317     0.00034575665
   5252000   0.050097674   -0.32747391     0.036260241   -0.216072      -0.00043355749
   5253000   0.050174777   -0.32751593     0.035617067   -0.21664156     0.00068486751
   5254000   0.04944604    -0.32794549     0.036048374   -0.21773284    -8.1455059e-05
   5255000   0.050166595   -0.32766199     0.036368887   -0.21604806     0.00013462861
   5256000   0.050311089   -0.32760887     0.036213495   -0.21593361    -0.00089763219
   5257000   0.050627574   -0.32785194     0.036108872   -0.21580661     0.00073012986
   5258000   0.050121182   -0.32758673     0.036274114   -0.21613569     0.0018666327 
   5259000   0.050189628   -0.32764493     0.036257179   -0.21610817     0.00074837323
   5260000   0.050012835   -0.32766974     0.035979442   -0.21667589     0.00050025518
   5261000   0.049702905   -0.32759666     0.036326608   -0.21672051    -0.00062932083
   5262000   0.049898097   -0.32807139     0.036691737   -0.21653733    -0.0013617015 
   5263000   0.05006184    -0.32781305     0.035887418   -0.21683772     0.00031282802
   5264000   0.049423057   -0.32739425     0.036419423   -0.21684502     0.00080274222
   5265000   0.050068418   -0.32747665     0.035681836   -0.21669703     0.0012936352 
   5266000   0.049701706   -0.3280732      0.035680533   -0.21784492    -0.00099669433
   5267000   0.049943545   -0.32735934     0.036017925   -0.21643093     0.00060174387
   5268000   0.050221158   -0.32778584     0.036603641   -0.21585532    -0.00023978245
   5269000   0.050271184   -0.3275663      0.035695965   -0.21646842     3.7519421e-05
   5270000   0.049945768   -0.32787649     0.036196135   -0.21676654     0.00026654978
   5271000   0.04940528    -0.3276621      0.03606352    -0.21749544    -0.00090231501
   5272000   0.050111765   -0.32731743     0.036227411   -0.21592722    -0.00034774218
   5273000   0.049868209   -0.32757809     0.036684536   -0.21609607     0.00025950728
   5274000   0.050346793   -0.32739877     0.035511348   -0.2163721      0.0002050808 
   5275000   0.050475579   -0.32777382     0.036059392   -0.21600595     0.0001391769 
   5276000   0.050447834   -0.32755358     0.036029702   -0.21585701    -0.00054061276
   5277000   0.049518723   -0.32764408     0.036344093   -0.21702669    -4.8261343e-05
   5278000   0.050037857   -0.32793804     0.036596351   -0.21628975    -0.0018301157 
   5279000   0.050365802   -0.32782636     0.035666557   -0.21661597     0.00044709177
   5280000   0.050181572   -0.32777059     0.03594678    -0.21655631     3.3335639e-05
   5281000   0.050378298   -0.32755319     0.036013058   -0.21597756     0.00043010354
   5282000   0.050475171   -0.32784907     0.036245955   -0.21589524    -0.00095115403
   5283000   0.05044113    -0.32766657     0.036430542   -0.21557922    -0.0016635192 
   5284000   0.049589496   -0.32778944     0.037085427   -0.21632457    -0.0011661608 
   5285000   0.050148068   -0.32742977     0.036383147   -0.21582938    -8.9328649e-05
   5286000   0.049260865   -0.32773516     0.035726557   -0.21812208     0.00027487262
   5287000   0.049631838   -0.32781745     0.035674203   -0.2177003      0.00048470441
   5288000   0.0499733     -0.32747799     0.035321988   -0.21720089     0.00096953065
   5289000   0.049864378   -0.32785854     0.03562816    -0.21743864    -0.00045410281
   5290000   0.049447923   -0.3278105      0.035969156   -0.21767425    -0.00031328702
   5291000   0.050090024   -0.328036       0.036291938   -0.21661387     0.00048423379
   5292000   0.049612176   -0.32808116     0.036381459   -0.21728624     0.00079347562
   5293000   0.049987632   -0.32754534     0.036160188   -0.21640855     0.00049633131
   5294000   0.049461393   -0.32794874     0.035946753   -0.21781469     4.0207644e-05
   5295000   0.049401315   -0.32791827     0.035575459   -0.21824562     0.00062584912
   5296000   0.049493927   -0.32824387     0.035953492   -0.21805427    -0.0007212406 
   5297000   0.049895959   -0.32831482     0.036313838   -0.21716187     0.00030067131
   5298000   0.050132204   -0.32813504     0.036098712   -0.21684287     0.00039781548
   5299000   0.050244735   -0.32816556     0.036204784   -0.21659854     0.00064613246
   5300000   0.050371021   -0.327782       0.036194387   -0.21603596     0.00062965612
   5301000   0.050225124   -0.32785298     0.036220007   -0.21630015     1.2281144e-05
   5302000   0.049825106   -0.32718914     0.036300635   -0.21615567     0.00053037911
   5303000   0.050405402   -0.32807642     0.035834012   -0.21663918     0.0016471157 
   5304000   0.049662395   -0.32814613     0.036743179   -0.21691417    -0.00060905969
   5305000   0.05022953    -0.32816244     0.036135184   -0.21668783    -0.0024222993 
   5306000   0.050284851   -0.32810128     0.036037024   -0.21664184    -0.00034111838
   5307000   0.050150662   -0.32831882     0.036021832   -0.21707585     0.00047637955
   5308000   0.050209769   -0.32843501     0.035782468   -0.21734274     0.00048219903
   5309000   0.049839476   -0.32786066     0.035732041   -0.21737423     6.0965092e-05
   5310000   0.050231045   -0.32835543     0.035920545   -0.21709317    -0.00024643972
   5311000   0.050523006   -0.32741264     0.036039697   -0.21559332     0.00066289183
   5312000   0.050265407   -0.3279707      0.03577902    -0.21679844    -0.0007544006 
   5313000   0.050354567   -0.32793984     0.03593835    -0.21647452     0.001509196  
   5314000   0.049972516   -0.32780906     0.036233637   -0.21662148     7.4100769e-05
   5315000   0.05023597    -0.32781385     0.036152568   -0.21631219     0.00027751849
   5316000   0.04985936    -0.32822993     0.035707523   -0.21773819     0.00037802662
   5317000   0.04950683    -0.32788882     0.036203756   -0.21742961    -0.00086401409
   5318000   0.049912203   -0.32770665     0.035494923   -0.21734825     0.00011115949
   5319000   0.049986937   -0.32759002     0.036310587   -0.21630387    -0.0001950446 
   5320000   0.050415235   -0.32761214     0.035409825   -0.21658434     0.0001970764 
   5321000   0.049814991   -0.32816424     0.0363289     -0.21711767    -0.0015382225 
   5322000   0.050108237   -0.32827211     0.035368546   -0.21774606     0.00050971052
   5323000   0.049699425   -0.32837361     0.036047464   -0.21778182    -5.3371483e-05
   5324000   0.050200115   -0.32816662     0.036788562   -0.21608274    -0.00029352852
   5325000   0.05030956    -0.32787307     0.035772581   -0.21664102     0.00013524314
   5326000   0.050703434   -0.32812338     0.035868      -0.21620514    -0.00028820593
   5327000   0.050558238   -0.32811949     0.035983628   -0.2163034      0.00022093171
   5328000   0.050801874   -0.32788536     0.036682189   -0.21500528    -0.0008840544 
   5329000   0.050463221   -0.32784526     0.036238195   -0.21591712     0.00043268458
   5330000   0.050844045   -0.32766517     0.035790763   -0.21561326     0.00045972011
   5331000   0.049903665   -0.32816321     0.036145569   -0.21716698     1.0206346e-06
   5332000   0.049889319   -0.32834047     0.035820133   -0.21769119     0.00020505827
   5333000   0.050067979   -0.32865946     0.036344755   -0.21721758     0.00072267014
   5334000   0.050696744   -0.32826412     0.035412431   -0.21681148    -0.000281745  
   5335000   0.049715027   -0.32836296     0.035880571   -0.21791466    -7.9895466e-06
   5336000   0.049740452   -0.32807534     0.035721252   -0.21774823     0.00059082559
   5337000   0.049782583   -0.3278838      0.036246372   -0.21696837    -0.00019796706
   5338000   0.049666637   -0.32845558     0.036207503   -0.21775293     0.00069119157
   5339000   0.04978788    -0.32782472     0.035982713   -0.21716501    -0.00023364583
   5340000   0.050027536   -0.32837245     0.035705872   -0.21763012     0.00059406269
   5341000   0.049750158   -0.32823534     0.036006451   -0.21760847     0.00018850242
   5342000   0.049651555   -0.3279741      0.035629926   -0.21787165     0.0010361639 
   5343000   0.049858712   -0.32795201     0.035983148   -0.21718562     0.00044979555
   5344000   0.049740896   -0.32801267     0.036581538   -0.2168246     -0.0012278899 
   5345000   0.050270429   -0.32823984     0.036143588   -0.21669547    -0.00053524772
   5346000   0.050773489   -0.32861564     0.035996361   -0.21646396     0.0006723499 
   5347000   0.049573003   -0.32814763     0.036434539   -0.21735838    -0.00055419891
   5348000   0.049929337   -0.32843313     0.036130759   -0.21741319    -0.00093429769
   5349000   0.049386897   -0.32838996     0.036029472   -0.21828492    -0.00010768176
   5350000   0.049549352   -0.32831628     0.036314804   -0.21768224     8.9680614e-05
   5351000   0.049996432   -0.32821951     0.035807117   -0.21742258    -0.0011648861 
   5352000   0.05019136    -0.32825865     0.035652684   -0.21732379     0.0010286508 
   5353000   0.049907216   -0.32840383     0.035744175   -0.21780366    -0.00044416457
   5354000   0.049507415   -0.32867871     0.035660684   -0.21876169     0.00094192654
   5355000   0.050078477   -0.32848563     0.035581918   -0.21779084    -0.00044323131
   5356000   0.050067677   -0.32839221     0.036295717   -0.21699983    -0.0014941035 
   5357000   0.050230684   -0.32858026     0.035910089   -0.217329      -2.5771956e-06
   5358000   0.050445093   -0.32840582     0.036485976   -0.21625708    -0.00041680516
   5359000   0.050110668   -0.32807473     0.036205129   -0.21670845    -0.00078035058
   5360000   0.050036692   -0.32840715     0.036422775   -0.21693418    -0.0013340637 
   5361000   0.05000941    -0.32798702     0.035515883   -0.21746186     0.00038296911
   5362000   0.050037419   -0.32799982     0.035873606   -0.21707493    -0.0008811896 
   5363000   0.050368981   -0.32801042     0.036568404   -0.21589342    -0.0011007813 
   5364000   0.04964718    -0.32833466     0.036830481   -0.21703821    -0.00074997864
   5365000   0.04984502    -0.32823528     0.036339935   -0.21713264     0.00036813122
   5366000   0.050091708   -0.32778067     0.036152659   -0.2164953      0.0016697946 
   5367000   0.050227094   -0.3279727      0.036167256   -0.21646967     0.0015515161 
   5368000   0.050300703   -0.32784549     0.035790077   -0.21660923    -0.000332515  
   5369000   0.050002026   -0.32785519     0.036160897   -0.21669609    -0.0011569094 
   5370000   0.050577344   -0.32854994     0.035390408   -0.21729841     0.0022206209 
   5371000   0.049844871   -0.32831712     0.036100703   -0.21745394    -0.00094978385
   5372000   0.049658801   -0.328345       0.035793748   -0.21806786     0.00011715858
   5373000   0.049905928   -0.32829257     0.035439866   -0.21799864    -0.00019707745
   5374000   0.049524444   -0.32820125     0.035957356   -0.21796202    -0.00055051815
   5375000   0.050101871   -0.32787878     0.035123754   -0.21760706     0.0014703009 
   5376000   0.049922382   -0.32817504     0.036193491   -0.21710281     0.00031939337
   5377000   0.050394232   -0.32834379     0.036245445   -0.21651187    -0.00089529195
   5378000   0.04990984    -0.32756264     0.036373284   -0.21632942     0.00072340316
   5379000   0.050007852   -0.32840155     0.035585385   -0.21780922     0.00025051506
   5380000   0.049793939   -0.32787908     0.035944839   -0.21724815    -0.0014929325 
   5381000   0.049916142   -0.32769233     0.03603869    -0.21678426     0.00081434096
   5382000   0.050018677   -0.32771264     0.036328047   -0.21636142     0.00023753555
   5383000   0.050139593   -0.32872701     0.035869719   -0.21765275    -0.00019468647
   5384000   0.050657035   -0.32833466     0.036270412   -0.2160836      0.001723623  
   5385000   0.049894085   -0.32828301     0.036189348   -0.21725736     0.0012770459 
   5386000   0.05048515    -0.32827403     0.035931597   -0.2166196     -0.00030117418
   5387000   0.050098775   -0.32770582     0.036576257   -0.21598625    -0.0001199299 
   5388000   0.049780343   -0.32846918     0.036403963   -0.21739952    -0.0011054602 
   5389000   0.050127137   -0.32795108     0.035680657   -0.21708456     0.00096042264
   5390000   0.050279983   -0.32836816     0.035948617   -0.21700444    -0.00068305454
   5391000   0.049677976   -0.3285439      0.036307197   -0.21772455    -0.00032936532
   5392000   0.050258569   -0.32832809     0.035630678   -0.21731442     0.00087312113
   5393000   0.050303254   -0.3283062      0.036483415   -0.21637278    -0.00025034051
   5394000   0.050256174   -0.32822775     0.036114477   -0.21673388     0.00020221354
   5395000   0.050052561   -0.32825323     0.035879687   -0.21729954     0.00047260506
   5396000   0.049572511   -0.32814481     0.036108308   -0.21768253    -0.00010729667
   5397000   0.050055805   -0.32851579     0.035976447   -0.21746048    -0.00039838079
   5398000   0.049896029   -0.328473       0.035904201   -0.21772958    -0.00079024894
   5399000   0.050083123   -0.32801348     0.03576136    -0.21713228     0.00085217104
   5400000   0.050031377   -0.32825463     0.036123028   -0.21708938     0.00044425718
   5401000   0.049778521   -0.32856099     0.035687317   -0.21821071     0.001042014  
   5402000   0.050374247   -0.32823844     0.035945299   -0.21673664     0.0010539991 
   5403000   0.050446354   -0.32794849     0.036046105   -0.21623773     0.00012895004
   5404000   0.050158059   -0.32845661     0.036090959   -0.21713342     0.00017748639
   5405000   0.050190771   -0.32820354     0.035783551   -0.21713869     0.00031789256
   5406000   0.049950329   -0.32810925     0.036769445   -0.21641914    -0.00071810456
   5407000   0.050323697   -0.32794662     0.03525393    -0.21721201     0.0012468991 
   5408000   0.050406503   -0.32816995     0.036133132   -0.21643194    -0.0003275322 
   5409000   0.050195117   -0.32782318     0.035808598   -0.21672677     0.00053622203
   5410000   0.050427733   -0.32804963     0.036301654   -0.21611126    -0.00074203458
   5411000   0.049666405   -0.32822209     0.035860823   -0.21786647    -0.00023015231
   5412000   0.049879491   -0.32819877     0.036151781   -0.21723258     0.001677196  
   5413000   0.050507263   -0.32777948     0.036281812   -0.21574166     0.0020771339 
   5414000   0.050367224   -0.3280965      0.036209248   -0.21634129     0.0015591466 
   5415000   0.049954674   -0.32817396     0.035688614   -0.21755817     0.00089865953
   5416000   0.049393036   -0.3285359      0.036084637   -0.21836649    -0.0010017475 
   5417000   0.049965581   -0.32829827     0.035862021   -0.21749272    -0.00050180833
   5418000   0.049713492   -0.32819618     0.03600308    -0.21762767     0.00046494979
   5419000   0.050008768   -0.32812074     0.035602044   -0.21751039     0.00013878459
   5420000   0.050609475   -0.32811664     0.035686587   -0.21652074     0.00064578186
   5421000   0.050228978   -0.32815241     0.036355377   -0.21645843     0.0011974394 
   5422000   0.050012548   -0.32795434     0.036484032   -0.21645633    -0.00075188785
   5423000   0.0498619     -0.32842403     0.036210586   -0.21742542    -0.00066524967
   5424000   0.049931165   -0.32865525     0.035355322   -0.21840801     0.00019527727
   5425000   0.050027927   -0.32859683     0.035554407   -0.21800537     0.00136636   
   5426000   0.049791328   -0.32827164     0.036236195   -0.21735327     4.9534011e-05
   5427000   0.049732183   -0.32836235     0.035922875   -0.21784601    -6.2710161e-05
   5428000   0.049978421   -0.32844482     0.035974517   -0.21750751     0.0013990063 
   5429000   0.04976572    -0.32839706     0.036026521   -0.21772678    -0.00019961015
   5430000   0.05022942    -0.32854608     0.036752202   -0.21645461    -0.00056617368
   5431000   0.049780407   -0.32791296     0.036541505   -0.21670566     0.00050504336
   5432000   0.050004692   -0.32802602     0.035813907   -0.21720991     0.0011644124 
   5433000   0.049849159   -0.32827589     0.0359935     -0.21751348    -0.00021030469
   5434000   0.050015969   -0.32838761     0.036672268   -0.21669623     1.7134125e-05
   5435000   0.050580678   -0.32840812     0.03605183    -0.21649017    -0.00058731263
   5436000   0.049703336   -0.32772104     0.036004979   -0.21716587    -0.00056487494
   5437000   0.050594893   -0.32876381     0.036030986   -0.21684538    -0.00072339689
   5438000   0.050330067   -0.32838874     0.036194349   -0.21670417     0.00033688232
   5439000   0.050117922   -0.32827575     0.036069162   -0.21703455     0.0009731386 
   5440000   0.049386631   -0.32842843     0.036171535   -0.21818173     0.00054259686
   5441000   0.049891954   -0.32833763     0.036206637   -0.21729789    -0.00065272832
   5442000   0.050022682   -0.3285873      0.03583904    -0.21771907     0.0013745331 
   5443000   0.049279311   -0.3282263      0.036405967   -0.21790613    -0.00039127096
   5444000   0.049793866   -0.32842283     0.036138625   -0.21759823    -0.0008473941 
   5445000   0.050178092   -0.32851139     0.036558931   -0.21669018     0.00016448987
   5446000   0.049996557   -0.32845329     0.036729201   -0.21673409     0.001065697  
   5447000   0.050420443   -0.32858379     0.036231045   -0.21672696     0.0008017077 
   5448000   0.050034005   -0.32850716     0.036829559   -0.21663143     0.0015589371 
   5449000   0.050198931   -0.32859512     0.035917669   -0.21738391     0.0014173553 
   5450000   0.050061943   -0.32826344     0.036066573   -0.21710879    -0.00058158309
   5451000   0.050369843   -0.32847667     0.036413436   -0.21651334     0.0002597425 
   5452000   0.050074382   -0.32839806     0.036053615   -0.21723771     0.00083040992
   5453000   0.050570506   -0.32848232     0.035922335   -0.21670912    -0.00020805529
   5454000   0.04997748    -0.32840642     0.035715028   -0.21773001    -0.00076218979
   5455000   0.049330598   -0.32872809     0.035818912   -0.21891806    -0.00068985366
   5456000   0.049963379   -0.32856636     0.035872009   -0.21775412     8.9873032e-05
   5457000   0.050021219   -0.32838712     0.03561175    -0.21774838    -0.00042829312
   5458000   0.049695888   -0.32827187     0.035896846   -0.217836       0.0014920279 
   5459000   0.049818413   -0.32842424     0.035881363   -0.21782008    -0.00061393772
   5460000   0.049936179   -0.32829104     0.036247611   -0.21714399     0.00056528392
   5461000   0.050173261   -0.32831373     0.03608531    -0.21697338     0.00029423633
   5462000   0.050024472   -0.32863773     0.036070308   -0.21753555     0.00084663207
   5463000   0.049900553   -0.32858473     0.036568617   -0.21717011    -0.0006429709 
   5464000   0.05000926    -0.32843651     0.035879125   -0.21754834    -0.00088458448
   5465000   0.050099437   -0.32830431     0.036288125   -0.21687187     0.00058249667
   5466000   0.049970845   -0.32811329     0.036127078   -0.21703479    -0.00024362682
   5467000   0.050269962   -0.32852394     0.036428341   -0.21669552     0.00076846846
   5468000   0.050335169   -0.3288545      0.036460134   -0.21689649    -0.00043980897
   5469000   0.049807202   -0.32881874     0.036359321   -0.21775344    -0.00085928378
   5470000   0.049121581   -0.32838085     0.03673799    -0.21796524    -0.00031861284
   5471000   0.050355515   -0.32846628     0.036231861   -0.21670602     0.00189407   
   5472000   0.049879474   -0.32814827     0.03587602    -0.21745787     0.00090556199
   5473000   0.049826988   -0.32843717     0.035894879   -0.21780663    -0.0006758371 
   5474000   0.050009831   -0.32834387     0.036098187   -0.21723578     0.00099756709
   5475000   0.049372078   -0.32853169     0.036544657   -0.21793369     0.001431436  
   5476000   0.050411169   -0.3283216      0.036077173   -0.21663255     0.00069038922
   5477000   0.049995457   -0.32825267     0.036093385   -0.21717094     0.00060135626
   5478000   0.049800851   -0.32849961     0.03607942    -0.21772374    -0.00028912258
   5479000   0.050228967   -0.32828352     0.036211041   -0.21673389    -0.00039047499
   5480000   0.049973075   -0.32847462     0.03590215    -0.21761769     0.0015053382 
   5481000   0.050177196   -0.32839239     0.036461268   -0.21667018    -2.2437392e-05
   5482000   0.050604013   -0.32820648     0.035705143   -0.21660021     0.00075676459
   5483000   0.050211501   -0.32862215     0.035723518   -0.21758624    -0.00036335395
   5484000   0.049287454   -0.32847738     0.036198961   -0.218352      -0.00053803844
   5485000   0.050390453   -0.32858398     0.035348598   -0.21765458     0.00031394684
   5486000   0.050352936   -0.32854264     0.03612328    -0.21689482     0.00066569799
   5487000   0.05034057    -0.32820986     0.036200282   -0.21650359    -0.0002552071 
   5488000   0.049353297   -0.32860095     0.036310334   -0.21826545     0.00082916851
   5489000   0.049375341   -0.32885151     0.035883264   -0.21891001     0.00078303716
   5490000   0.050409039   -0.32857046     0.035883372   -0.2170784      3.7014991e-05
   5491000   0.049677484   -0.32814935     0.035427887   -0.21821005     0.00082323706
   5492000   0.050085316   -0.32879842     0.035312989   -0.2183623      0.00043405488
   5493000   0.049919984   -0.32851903     0.036438325   -0.21720556     0.00083055221
   5494000   0.050310611   -0.32857246     0.035901828   -0.21720958     0.00085918489
   5495000   0.049918234   -0.32872442     0.036490664   -0.21736123    -0.00046636135
   5496000   0.050181406   -0.32847735     0.036446924   -0.21676317     0.0001294579 
   5497000   0.049992207   -0.32832215     0.035991759   -0.21734692    -8.7664644e-06
   5498000   0.050089469   -0.3285083      0.035566375   -0.21781257     0.00055842639
   5499000   0.050040026   -0.32841814     0.036077818   -0.21728513     0.0019513954 
   5500000   0.050118781   -0.32834728     0.036041781   -0.21713218    -0.00057896995
   5501000   0.049749549   -0.328605       0.036358689   -0.2176268      0.00075576869
   5502000   0.049390415   -0.32850537     0.036566534   -0.21785799     0.00022904646
   5503000   0.049724987   -0.32835134     0.036365675   -0.217403       0.00025509012
   5504000   0.050342606   -0.32851279     0.035290013   -0.21771374     0.0018707753 
   5505000   0.049993804   -0.32841133     0.035350782   -0.21807468    -0.0004302951 
   5506000   0.049718773   -0.32872954     0.035995151   -0.21816104     0.00075438569
   5507000   0.049794775   -0.32811694     0.036100738   -0.21732886     0.00041188192
   5508000   0.049698095   -0.32805416     0.035928749   -0.21758308    -0.00022415939
   5509000   0.049555604   -0.32853757     0.036155979   -0.21805298     0.0001438237 
   5510000   0.049744943   -0.32843173     0.036969049   -0.21685008    -0.00072000773
   5511000   0.050500919   -0.32863145     0.03594982    -0.21693514    -0.0008654001 
   5512000   0.049703282   -0.3283348      0.035998782   -0.21778591     0.0002966575 
   5513000   0.049482772   -0.32830202     0.036305532   -0.21777712    -4.9560534e-05
   5514000   0.049969218   -0.32853375     0.036662181   -0.21692258     0.0018726327 
   5515000   0.050064389   -0.32839827     0.036346782   -0.21695975    -5.3826094e-05
   5516000   0.05041595    -0.32825301     0.035949614   -0.21668435     0.00029997637
   5517000   0.049431346   -0.32883873     0.036228489   -0.21846801     0.00093910257
   5518000   0.049725081   -0.32831826     0.036385742   -0.21734971     0.0010526716 
   5519000   0.050227774   -0.32878685     0.035437398   -0.21801265     0.00046553772
   5520000   0.050104586   -0.32827018     0.035907207   -0.21721094     0.00098695878
   5521000   0.050284039   -0.32814709     0.035843245   -0.21688265     0.00076261447
   5522000   0.050513069   -0.32829269     0.035748733   -0.21677924     0.001209     
   5523000   0.050323907   -0.32826079     0.036208239   -0.21657156     0.00042518163
   5524000   0.050695733   -0.32874994     0.036285973   -0.21642527    -3.4264101e-05
   5525000   0.050310854   -0.3287354      0.035690973   -0.21758302    -3.754764e-05 
   5526000   0.050200408   -0.32877573     0.035967962   -0.21751202     0.0004545002 
   5527000   0.049958471   -0.3286101      0.036956587   -0.21672064     0.00047503487
   5528000   0.050179461   -0.3288804      0.036740785   -0.21687528    -0.00082829188
   5529000   0.050106755   -0.32848214     0.036163377   -0.21716348     0.00041031643
   5530000   0.050009793   -0.32836757     0.035997658   -0.21736006     0.00025196892
   5531000   0.050146104   -0.32849778     0.036384059   -0.21689942     0.0010831315 
   5532000   0.049473302   -0.32882726     0.036299285   -0.21832281    -0.00092945032
   5533000   0.050039112   -0.3281563      0.036287061   -0.21681541     0.00026327448
   5534000   0.050492968   -0.32851095     0.036580064   -0.21619632     0.00019533624
   5535000   0.05048892    -0.32896478     0.036374025   -0.21686226    -0.00048836007
   5536000   0.050079107   -0.32876409     0.036273416   -0.21737686    -0.00039948292
   5537000   0.050232699   -0.32857551     0.035980082   -0.21725124     5.0816471e-06
   5538000   0.049814646   -0.3285648      0.036156475   -0.21769118     0.0010586368 
   5539000   0.050022806   -0.32803221     0.036250651   -0.21675219     0.0014510429 
   5540000   0.049898805   -0.32830521     0.036502792   -0.21695904     0.0004245301 
   5541000   0.049840325   -0.32823109     0.035765859   -0.21770957     0.0012456545 
   5542000   0.050218825   -0.32824485     0.036107606   -0.21681387     4.2746953e-05
   5543000   0.049633994   -0.32846594     0.036112623   -0.21790713    -0.00047828469
   5544000   0.049986729   -0.32841952     0.035766745   -0.21767752     0.00058080215
   5545000   0.05036431    -0.32868572     0.035923651   -0.21722048     0.00038283208
   5546000   0.04987917    -0.32827027     0.035834226   -0.21762211     8.0884346e-05
   5547000   0.04992412    -0.328471       0.03594576    -0.21764389    -0.00016706621
   5548000   0.049969618   -0.32831118     0.035613308   -0.21774828     0.002166189  
   5549000   0.050046417   -0.32881651     0.03550417    -0.21824755     0.00049430342
   5550000   0.050210069   -0.32831194     0.035566848   -0.21743485     0.0007346552 
   5551000   0.050318654   -0.32866443     0.035881337   -0.21730998     0.001237365  
   5552000   0.050137536   -0.32843237     0.036268822   -0.2169621      0.00021657532
   5553000   0.050438234   -0.32858433     0.035813079   -0.21711878     0.0012884596 
   5554000   0.050149994   -0.32846061     0.035988375   -0.2172521     -0.00030039193
   5555000   0.050582191   -0.32849371     0.035797349   -0.21682797     0.00034379461
   5556000   0.049907479   -0.32855652     0.036043762   -0.21765637    -0.00030335571
   5557000   0.049770453   -0.32877687     0.035625453   -0.21850056    -3.0966109e-05
   5558000   0.049591936   -0.32828004     0.036068444   -0.21782849     0.00034818819
   5559000   0.050283464   -0.32850222     0.036091953   -0.21698993     0.00014633485
   5560000   0.049464922   -0.32831606     0.036286064   -0.2178374      0.001524342  
   5561000   0.049382316   -0.32818754     0.036106821   -0.21801202     0.00064092905
   5562000   0.049655551   -0.32876087     0.03630675    -0.2179756      0.00026447624
   5563000   0.049903392   -0.32810875     0.036466672   -0.21679182    -0.00025042665
   5564000   0.049955804   -0.32844647     0.036506679   -0.21701092     0.00096775053
   5565000   0.049952581   -0.32842244     0.036996496   -0.21650191     0.00035039162
   5566000   0.050565979   -0.32866531     0.035900352   -0.21692089     0.0008521028 
   5567000   0.049969123   -0.32876116     0.036050364   -0.21776195    -0.00068828906
   5568000   0.050258818   -0.3287034      0.036226515   -0.21709352     0.00035199408
   5569000   0.050185462   -0.32821067     0.035885934   -0.2170514      0.00084954908
   5570000   0.050153855   -0.3288145      0.036289279   -0.21729929    -2.4459783e-06
   5571000   0.049845814   -0.32879831     0.036137256   -0.21789716     0.0014101285 
   5572000   0.05021045    -0.32837575     0.035998514   -0.21706642    -2.129022e-05 
   5573000   0.049943769   -0.32862814     0.036542566   -0.21717476    -0.00034537577
   5574000   0.049638357   -0.32880262     0.036398451   -0.21795144     0.00094923571
   5575000   0.049938229   -0.32844895     0.036074532   -0.2174719     -0.0006338574 
   5576000   0.049478823   -0.32853033     0.036365961   -0.21795092     0.00020291502
   5577000   0.049945572   -0.32860095     0.036544767   -0.21714266    -0.00074723296
   5578000   0.050722882   -0.3288217      0.036641891   -0.21610039    -0.0010981899 
   5579000   0.050386831   -0.32878661     0.03671991    -0.21649133    -0.00088606696
   5580000   0.050464552   -0.32892149     0.036914671   -0.21631488    -0.00071689032
   5581000   0.050497823   -0.32873168     0.036702111   -0.21628773     0.00047378846
   5582000   0.050144175   -0.32864168     0.035701098   -0.21772918    -0.0005388867 
   5583000   0.049857058   -0.32876985     0.035951555   -0.21803753    -0.00026301769
   5584000   0.050169659   -0.32862436     0.036355777   -0.21701895     0.00075906273
   5585000   0.049815776   -0.32881953     0.036016322   -0.21808436    -0.00045407794
   5586000   0.050015452   -0.32870845     0.035899928   -0.21779018    -0.00038478637
   5587000   0.049733225   -0.32864076     0.035764219   -0.21828152    -0.00013628795
   5588000   0.05004062    -0.32908122     0.036220822   -0.21780431     0.0010183088 
   5589000   0.049940897   -0.3289553      0.036110011   -0.21793877    -0.00022734073
   5590000   0.050152614   -0.32899222     0.035947168   -0.21782099    -0.0002143445 
   5591000   0.049556452   -0.32855574     0.03634236    -0.2178835      0.00024856603
   5592000   0.050468769   -0.32860815     0.036653373   -0.21625651    -0.0011949786 
   5593000   0.050459928   -0.3281688      0.03699037    -0.21549342     0.00022720611
   5594000   0.049683032   -0.3287583      0.036061946   -0.21817661     0.0011794104 
   5595000   0.050010995   -0.32871744     0.035938352   -0.21776744    -0.00037146565
   5596000   0.049940133   -0.32879356     0.035958776   -0.21792941     0.00028474091
   5597000   0.049820836   -0.32870563     0.036253154   -0.21772604     0.00042655223
   5598000   0.049891267   -0.32871481     0.035709368   -0.21817337     0.00065599367
   5599000   0.050197625   -0.32870721     0.035750898   -0.21766473     0.00072180169
   5600000   0.050354689   -0.32903053     0.035517521   -0.21798585     0.0015133363 
   5601000   0.0493731     -0.32840055     0.036463103   -0.21788257    -0.00048733868
   5602000   0.05015295    -0.32874907     0.036357118   -0.21716738     0.00057887988
   5603000   0.049568149   -0.3283383      0.036350847   -0.21764003     0.00048942308
   5604000   0.049832275   -0.32881585     0.035887564   -0.21818469    -0.00064311144
   5605000   0.050254368   -0.32863702     0.035862958   -0.21739737     0.0012765789 
   5606000   0.050006966   -0.32900649     0.035894789   -0.21810609    -0.00011717811
   5607000   0.049782083   -0.3287731      0.035336754   -0.21876804     0.00031680184
   5608000   0.049717969   -0.32887915     0.036077601   -0.21822941    -0.000343546  
   5609000   0.049667465   -0.32884532     0.035800707   -0.21854823    -0.00060360997
   5610000   0.049827257   -0.32850355     0.035740854   -0.21802663    -0.0010462849 
   5611000   0.050010719   -0.32855134     0.035903838   -0.21763626     8.1950391e-06
   5612000   0.050139596   -0.32917711     0.036029796   -0.21794278     0.0014814867 
   5613000   0.049714174   -0.32863679     0.035706246   -0.2183641      0.0019387798 
   5614000   0.049952052   -0.32888971     0.036051964   -0.2179145      0.00028021329
   5615000   0.049718157   -0.32889889     0.036104493   -0.21822197    -0.0002283232 
   5616000   0.049053993   -0.32891537     0.035932345   -0.21940678     0.0010209593 
   5617000   0.049314329   -0.32905588     0.035496665   -0.21959249     0.0012137396 
   5618000   0.049846299   -0.32878432     0.035744249   -0.21827545     0.00092658448
   5619000   0.049473      -0.32880779     0.036352024   -0.21825105    -0.0010668236 
   5620000   0.050209451   -0.32873164     0.036233193   -0.21718913     0.00064768838
   5621000   0.049959891   -0.32895618     0.036426012   -0.21759517    -0.00024900913
   5622000   0.05072255    -0.3291062      0.036475593   -0.21655169     0.00063042121
   5623000   0.050298193   -0.32896865     0.035960094   -0.21756614     0.0011801018 
   5624000   0.049368405   -0.3286789      0.035558711   -0.21907236     0.0011065022 
   5625000   0.050146036   -0.32855047     0.03618228    -0.21715399    -0.00066757792
   5626000   0.049795278   -0.3289554      0.035890563   -0.21837674     0.00092239225
   5627000   0.049354114   -0.32890775     0.036239242   -0.21864211     0.00060474114
   5628000   0.04952323    -0.32892628     0.036211019   -0.2184352      7.0387114e-05
   5629000   0.049125237   -0.32898129     0.03565679    -0.2196414      0.00027716574
   5630000   0.049634641   -0.32893644     0.036603528   -0.21788575    -0.00016834355
   5631000   0.04970556    -0.32903538     0.036935104   -0.21754674    -0.00071923503
   5632000   0.050208388   -0.32951589     0.035786338   -0.21842183    -0.00026070315
   5633000   0.049780883   -0.32914588     0.03659032    -0.21788906     0.00032355185
   5634000   0.049638257   -0.32896986     0.035659812   -0.21885746     0.00063296946
   5635000   0.049397267   -0.32916938     0.035677033   -0.21940123    -0.0015947522 
   5636000   0.049517277   -0.32906829     0.035977962   -0.21881921     0.0011401012 
   5637000   0.050417599   -0.32884422     0.036152326   -0.21707037     5.6330306e-05
   5638000   0.049700578   -0.3289738      0.03655034    -0.21787741    -0.00059828046
   5639000   0.05005512    -0.32895432     0.03588234    -0.21799414     0.0013196106 
   5640000   0.049900414   -0.32896474     0.03660677    -0.21751218    -0.00129576   
   5641000   0.049840405   -0.32914374     0.036509      -0.21787895     0.00028327927
   5642000   0.049823104   -0.32881477     0.035770272   -0.21831467     0.00083924321
   5643000   0.0503335     -0.32876503     0.036118582   -0.21715107     0.00017002749
   5644000   0.04997707    -0.32915942     0.036377793   -0.21782086     0.00057439471
   5645000   0.050032949   -0.32893322     0.035775271   -0.21811337     0.0018665265 
   5646000   0.050686015   -0.32928285     0.036329914   -0.21692882     0.0012557441 
   5647000   0.049584018   -0.32867276     0.036968753   -0.21733277     5.0592186e-05
   5648000   0.049942411   -0.32888118     0.036328582   -0.21764382     0.00035385734
   5649000   0.050289893   -0.32921438     0.036747834   -0.21703658     0.00010695391
   5650000   0.050083619   -0.32904717     0.036377453   -0.21754913    -0.00044603338
   5651000   0.050369752   -0.32904374     0.036975527   -0.21651846    -0.00019322186
   5652000   0.050633421   -0.32907187     0.036577013   -0.21654963    -8.019512e-05 
   5653000   0.049737943   -0.32935651     0.035967504   -0.21878691     0.00012052926
   5654000   0.049797198   -0.32954051     0.036173346   -0.21867619    -0.0006621319 
   5655000   0.050390262   -0.32942424     0.036252288   -0.21759144    -0.00076178447
   5656000   0.049659221   -0.32940542     0.036097967   -0.21882343    -0.00041630405
   5657000   0.049542179   -0.32952694     0.03559159    -0.21962688    -0.00013478754
   5658000   0.04957694    -0.32957887     0.036010952   -0.2192073      0.001259055  
   5659000   0.049257439   -0.32922569     0.036116068   -0.21922823    -4.1075703e-05
   5660000   0.050159021   -0.3289533      0.03588066    -0.21783896     3.9579553e-05
   5661000   0.049955577   -0.32922952     0.035851987   -0.218449      -4.2545256e-05
   5662000   0.049853999   -0.32917802     0.03623123    -0.21817062     0.00074018142
   5663000   0.05040938    -0.3291857      0.036287951   -0.21728856     0.00087501846
   5664000   0.049838056   -0.32910466     0.036109462   -0.21824294     0.0010967195 
   5665000   0.05018087    -0.32911289     0.036502763   -0.21734368    -0.00024052811
   5666000   0.049931534   -0.32915245     0.035482513   -0.21877746    -2.5392358e-05
   5667000   0.049587266   -0.32921318     0.035790184   -0.2190469      0.00069474792
   5668000   0.049943635   -0.32910841     0.03558626    -0.21861154     0.0015591035 
   5669000   0.049790425   -0.32897863     0.03574793    -0.21854989     0.0006005254 
   5670000   0.05020772    -0.32917244     0.036197981   -0.21766774    -0.0006248574 
   5671000   0.049672418   -0.32940292     0.03560326    -0.21929584     0.00082231167
   5672000   0.04976122    -0.32929921     0.035878089   -0.21878411    -3.2673634e-05
   5673000   0.049728468   -0.32957373     0.035980682   -0.21900516     0.0011197277 
   5674000   0.049930025   -0.32917074     0.036149748   -0.21813079     0.0014054516 
   5675000   0.050551007   -0.32926939     0.035553837   -0.21789393     0.00041746995
   5676000   0.050305178   -0.32958404     0.035919018   -0.21821212     0.00035659305
   5677000   0.050026182   -0.3295411      0.03553729    -0.21896938     0.00086001168
   5678000   0.050171912   -0.32939041     0.036250912   -0.21788648    -0.00036007748
   5679000   0.049713099   -0.32890088     0.036217913   -0.21811813     0.00013916044
   5680000   0.050660628   -0.32921772     0.035723918   -0.21750776    -0.00043243702
   5681000   0.049784755   -0.32923588     0.035760634   -0.21880293     0.00087231256
   5682000   0.049719571   -0.32921378     0.036242385   -0.21839685     0.00083266978
   5683000   0.049797191   -0.32922985     0.036029779   -0.21850911     5.7142232e-05
   5684000   0.049549015   -0.32955054     0.035690431   -0.21954138     0.0013984933 
   5685000   0.050097737   -0.32949628     0.036621173   -0.21773335     0.00046784895
   5686000   0.050462526   -0.32938566     0.035836806   -0.21785995    -0.00041925011
   5687000   0.050020362   -0.32948907     0.035924789   -0.21853858    -0.00021683081
   5688000   0.049579972   -0.32926197     0.036364947   -0.21853186     0.0013684425 
   5689000   0.05030215    -0.32936709     0.035949549   -0.21796919    -0.00025254038
   5690000   0.049802442   -0.32996006     0.035849258   -0.21941196     0.00027226201
   5691000   0.050137583   -0.32977914     0.035743208   -0.21883441    -0.0004616372 
   5692000   0.050230095   -0.3293779      0.035532983   -0.21850463     6.5086144e-05
   5693000   0.050113242   -0.32969106     0.036093864   -0.21843218    -0.00040101648
   5694000   0.049882441   -0.32929586     0.036136029   -0.218341       0.0011272107 
   5695000   0.050727489   -0.32945802     0.036154745   -0.21721695    -0.00038891883
   5696000   0.049872919   -0.32979048     0.037534208   -0.21745172    -4.1763464e-05
   5697000   0.049755128   -0.3294603      0.036370953   -0.21846147     0.00099123653
   5698000   0.049975336   -0.32934991     0.035637182   -0.21875456    -0.00019555445
   5699000   0.050183893   -0.32979591     0.036443279   -0.21808165    -0.0017579948 
   5700000   0.05018976    -0.32982862     0.036008015   -0.21854082    -0.0011691316 
   5701000   0.049661299   -0.32952489     0.035714211   -0.21932353     0.00044675986
   5702000   0.04988724    -0.32936906     0.035578675   -0.21896435     0.0002613367 
   5703000   0.050331523   -0.32936388     0.03588043    -0.21799104    -0.0004004832 
   5704000   0.049663193   -0.32934678     0.036176687   -0.21868011    -5.6989458e-05
   5705000   0.049783005   -0.32943177     0.036377105   -0.21838498    -0.0002773194 
   5706000   0.05054347    -0.32910435     0.03621283    -0.2170812      0.00082134991
   5707000   0.050340462   -0.3293347      0.036354216   -0.21747466     0.00038734128
   5708000   0.050171184   -0.32912225     0.035960458   -0.21790987    -0.0003381178 
   5709000   0.049966537   -0.32895404     0.036009458   -0.21799961    -0.00042417394
   5710000   0.049831722   -0.32932215     0.036392203   -0.21818719    -0.0013938691 
   5711000   0.049744701   -0.32930591     0.036327366   -0.21836631     0.00034084844
   5712000   0.04954433    -0.32937533     0.036005829   -0.2190578     -0.001297849  
   5713000   0.049777585   -0.32957914     0.035963235   -0.21895434    -0.00053605395
   5714000   0.050389815   -0.32960347     0.035444617   -0.21857901     0.0010069743 
   5715000   0.050098925   -0.32957263     0.036271783   -0.21815731    -0.00088954413
   5716000   0.049995544   -0.32925507     0.036782499   -0.2174841     -1.5240903e-05
   5717000   0.050061176   -0.32939312     0.035952058   -0.21835414    -0.00031951626
   5718000   0.049997494   -0.32933745     0.036210628   -0.21813542    -0.00039461888
   5719000   0.050070979   -0.32926631     0.035509609   -0.21865508     0.0009315486 
   5720000   0.04987966    -0.3297597      0.036732659   -0.21821237    -0.0009658512 
   5721000   0.050062767   -0.32926298     0.036333161   -0.21784051     0.0014526728 
   5722000   0.049858618   -0.32978338     0.036337417   -0.21866286    -6.5559137e-05
   5723000   0.050001593   -0.32924369     0.035671999   -0.21857414     0.00022542551
   5724000   0.049938347   -0.32946928     0.036576759   -0.21798984    -0.00017501867
   5725000   0.050113381   -0.32943678     0.035668782   -0.21860278     0.0010002205 
   5726000   0.049346575   -0.32924458     0.035930722   -0.21929877     0.00035072603
   5727000   0.049178994   -0.32978905     0.035936879   -0.22008844    -0.00088164013
   5728000   0.049620726   -0.32990253     0.036422045   -0.2190542     -0.0011814193 
   5729000   0.049948282   -0.32946251     0.035410251   -0.21913467     0.00015701082
   5730000   0.050299592   -0.32943325     0.035815072   -0.21817365     0.0013183547 
   5731000   0.050052605   -0.32935833     0.035823997   -0.21846027     0.00073441063
   5732000   0.049840621   -0.32952216     0.036468666   -0.21829739    -0.00066794093
   5733000   0.049799457   -0.32961278     0.036075344   -0.21884307     0.00028249417
   5734000   0.049413034   -0.32939148     0.036457119   -0.21881959    -0.00013078728
   5735000   0.049819789   -0.32905947     0.035775      -0.2185596     -0.00024096464
   5736000   0.050023994   -0.32922589     0.0354695     -0.21872524     0.00060358085
   5737000   0.049495525   -0.32978525     0.035496845   -0.22004991     0.00069531311
   5738000   0.0494571     -0.32912135     0.035663982   -0.2192765      0.00023534113
   5739000   0.049489572   -0.32953269     0.036176105   -0.21912701    -0.00077897885
   5740000   0.050413862   -0.32954945     0.035507793   -0.21842575     0.00088676549
   5741000   0.050314416   -0.32989623     0.036118227   -0.21831125    -0.00031229852
   5742000   0.049846139   -0.32955056     0.036011859   -0.21877431     0.001298903  
   5743000   0.050562181   -0.32925035     0.035790755   -0.21762121     0.0013671578 
   5744000   0.049691996   -0.32967187     0.03648916    -0.21864952     0.00053294339
   5745000   0.050483214   -0.32946304     0.035903949   -0.21783915    -0.0014373158 
   5746000   0.04989654    -0.32934495     0.035799408   -0.21870556    -0.00069027117
   5747000   0.050073287   -0.32957743     0.035479426   -0.21899292     0.00026484969
   5748000   0.049829235   -0.32963569     0.03566945    -0.21922721     0.00051864259
   5749000   0.050088149   -0.32950548     0.036180819   -0.21819729     0.00098361322
   5750000   0.049819461   -0.32982921     0.03578617    -0.21931867     0.00017132085
   5751000   0.050086316   -0.32992651     0.036328999   -0.21847289     0.00075078387
   5752000   0.050678016   -0.3296592      0.035839471   -0.21780761    -5.1065858e-05
   5753000   0.049829184   -0.32967921     0.036050628   -0.21888963     0.0015753917 
   5754000   0.049617044   -0.32975017     0.035656765   -0.21967264    -0.00013426997
   5755000   0.049532317   -0.32966307     0.035920835   -0.21944856     0.0017007091 
   5756000   0.050071829   -0.32963728     0.035908445   -0.21862594     3.5769523e-05
   5757000   0.050303938   -0.32951955     0.036224473   -0.21784404     0.00081406642
   5758000   0.049305064   -0.32960968     0.036238348   -0.21941851    -0.00078698071
   5759000   0.05069148    -0.32937202     0.035808445   -0.21753126    -6.4870503e-05
   5760000   0.050489952   -0.32970023     0.036454072   -0.21751612     0.001233526  
   5761000   0.050559548   -0.32989753     0.03602113    -0.21804197    -0.00042396357
   5762000   0.050111578   -0.32977852     0.035965287   -0.21865071    -0.00042759234
   5763000   0.049862545   -0.32976023     0.035739266   -0.21923197    -0.00076283321
   5764000   0.050235997   -0.32994887     0.036041202   -0.21855853     0.0008326708 
   5765000   0.050153375   -0.32932802     0.036569928   -0.21753288     0.00076054827
   5766000   0.05003539    -0.32979515     0.036060576   -0.21868633    -0.00019939692
   5767000   0.049738049   -0.32998081     0.036364238   -0.21901431     0.0006179255 
   5768000   0.049642514   -0.32971973     0.036174055   -0.21908671     0.0004874224 
   5769000   0.050101914   -0.32987019     0.035934885   -0.21878729     0.00035216812
   5770000   0.050145931   -0.32957933     0.035906884   -0.2184584      0.000683535  
   5771000   0.049733157   -0.32986957     0.035121065   -0.22015358     0.0005315672 
   5772000   0.049815482   -0.32982764     0.036099329   -0.21900991    -0.00080513721
   5773000   0.050377202   -0.33008913     0.036117379   -0.21841083     0.00060659044
   5774000   0.050733306   -0.33011894     0.035446948   -0.21857694     0.00083011741
   5775000   0.050107538   -0.33028293     0.036101001   -0.21902547     0.00133401   
   5776000   0.049540375   -0.32972219     0.03591084    -0.21950558     0.00080918444
   5777000   0.049816697   -0.32972886     0.036096947   -0.21891169     3.4390809e-05
   5778000   0.050165149   -0.32993639     0.036095698   -0.21859782    -0.00052434713
   5779000   0.050060468   -0.33003543     0.035682972   -0.2192666      0.00064602668
   5780000   0.049584162   -0.32978185     0.036071065   -0.21933934     0.0011068525 
   5781000   0.04984953    -0.32963707     0.036302412   -0.21856518    -0.00033289093
   5782000   0.050328062   -0.32985509     0.036379667   -0.2179882      0.00045864547
   5783000   0.049719257   -0.32993697     0.035920089   -0.21944281     0.00040527326
   5784000   0.049482922   -0.32997839     0.036794447   -0.21896435     0.00015941714
   5785000   0.0501079     -0.32975393     0.036441244   -0.21815569     0.0019748319 
   5786000   0.050327189   -0.32952823     0.036587904   -0.21745441    -0.0012572787 
   5787000   0.050010524   -0.33021126     0.036277894   -0.21892242     0.00062267501
   5788000   0.04980102    -0.33009453     0.036176163   -0.21922166    -0.00059818403
   5789000   0.050447982   -0.32966748     0.035950536   -0.21804985     0.00030887024
   5790000   0.049782136   -0.33012404     0.035735312   -0.21972034     0.00037176213
   5791000   0.049916098   -0.32961314     0.03586439    -0.21887943    -0.00079167257
   5792000   0.050093415   -0.32984107     0.035847247   -0.21885855    -0.00040764223
   5793000   0.049548909   -0.32971653     0.035450921   -0.21994704     0.00040742955
   5794000   0.049690641   -0.32974098     0.035625603   -0.21958423    -5.2710159e-05
   5795000   0.050180339   -0.32994299     0.036493097   -0.21818424    -0.00052023163
   5796000   0.050745504   -0.33017623     0.036648507   -0.21741438     0.00088185306
   5797000   0.05067996    -0.33015631     0.036083325   -0.21805795    -0.00063282071
   5798000   0.050002716   -0.32930865     0.036561086   -0.21774833     0.00053918299
   5799000   0.050056448   -0.33019272     0.036070038   -0.21904286    -0.00073453392
   5800000   0.050005565   -0.32956955     0.035852764   -0.21871327     0.00032900964
   5801000   0.049698079   -0.33032648     0.035996549   -0.21978762     0.00063615326
   5802000   0.049846368   -0.33030801     0.036230726   -0.21931255    -0.00019912515
   5803000   0.049785637   -0.33001647     0.036257277   -0.21908555    -0.0012515908 
   5804000   0.050309495   -0.33014212     0.03619014    -0.21849261     0.0005864278 
   5805000   0.049824892   -0.33027815     0.036421438   -0.2191242     -0.00044742928
   5806000   0.04929621    -0.32956474     0.035766394   -0.21985881     0.00063217442
   5807000   0.048925562   -0.32984376     0.036574165   -0.21988598    -0.00013412336
   5808000   0.050127203   -0.3301227      0.035903719   -0.21903303     0.00052397802
   5809000   0.050235448   -0.33020103     0.036425466   -0.21842726     4.5589556e-05
   5810000   0.050157842   -0.32995705     0.035999875   -0.21872526     0.00035374781
   5811000   0.04948754    -0.33046627     0.036164316   -0.22007544    -0.00048189588
   5812000   0.05011589    -0.32996213     0.035930626   -0.21886252     0.00046904324
   5813000   0.050281233   -0.32968627     0.035974138   -0.21829515     0.00046511472
   5814000   0.049894719   -0.32993465     0.036016351   -0.21908105     0.0010659462 
   5815000   0.05039291    -0.32977881     0.035218314   -0.21897601     0.001424873  
   5816000   0.049819642   -0.3298893      0.035944431   -0.21922023    -0.0006133534 
   5817000   0.049782793   -0.33018835     0.036359229   -0.21915974    -0.001411745  
   5818000   0.04963367    -0.33025803     0.036094123   -0.21971821    -0.00083675778
   5819000   0.049386823   -0.32964914     0.0364209     -0.21915279     4.9710017e-05
   5820000   0.049605415   -0.3300767      0.035529673   -0.2201437      0.00086648718
   5821000   0.049788387   -0.33029558     0.035759076   -0.21985874     0.00049146171
   5822000   0.049688058   -0.33021107     0.035782329   -0.21990146     0.0019225817 
   5823000   0.050058496   -0.33036839     0.036267666   -0.21901782    -0.00022923314
   5824000   0.050150327   -0.32963497     0.035851742   -0.21856259     0.00017061152
   5825000   0.049547205   -0.32982218     0.036673199   -0.21883297     0.00048277964
   5826000   0.050101373   -0.3300807      0.036147198   -0.21878629     0.0019195054 
   5827000   0.050250985   -0.3300216      0.036123408   -0.21852657    -0.00064495104
   5828000   0.050258619   -0.33043423     0.036022134   -0.21902903    -0.00047026812
   5829000   0.050064459   -0.32984062     0.036489136   -0.21825964     0.00026017046
   5830000   0.050447478   -0.33029963     0.036871368   -0.21776192     0.0013008141 
   5831000   0.049856451   -0.33011108     0.03586023    -0.21947099     0.00096883379
   5832000   0.050490994   -0.33060829     0.035647726   -0.21922896     0.0014466895 
   5833000   0.05027302    -0.33044344     0.036194829   -0.21884395    -0.00049146489
   5834000   0.050352174   -0.3303139      0.035915084   -0.21887543     0.0014532752 
   5835000   0.050049743   -0.33024558     0.036332316   -0.2188435      0.00023441044
   5836000   0.050057356   -0.33005899     0.036210599   -0.2187672      0.0013616982 
   5837000   0.05005594    -0.33020423     0.035749351   -0.21937581     0.00047575692
   5838000   0.050429675   -0.33073655     0.035598886   -0.21949803     9.2884373e-05
   5839000   0.049880592   -0.33042059     0.036261828   -0.2193427      0.00064550712
   5840000   0.050335935   -0.33025021     0.036397808   -0.21835337    -0.0013223002 
   5841000   0.050239708   -0.33015571     0.036008982   -0.21879202     0.00072146517
   5842000   0.050084616   -0.33048427     0.035872053   -0.21949014    -0.00062867477
   5843000   0.05024658    -0.33009418     0.035706941   -0.21902223     0.00059329519
   5844000   0.049924243   -0.33018459     0.03639991    -0.21890315     0.00035030722
   5845000   0.050039547   -0.32967939     0.036210163   -0.21841475    -5.9722663e-06
   5846000   0.050060242   -0.33073363     0.035786036   -0.21986207    -0.00045816385
   5847000   0.049890744   -0.32971975     0.035887827   -0.21900063    -4.4217015e-05
   5848000   0.049598729   -0.33010632     0.035718308   -0.21999471    -0.00052517848
   5849000   0.049698622   -0.3304148      0.036289216   -0.21958246     0.00054078214
   5850000   0.05031664    -0.33031597     0.03551204    -0.21933384     0.00095473354
   5851000   0.04969612    -0.3298292      0.036026216   -0.21926362     8.961473e-05 
   5852000   0.049545182   -0.33073742     0.03612555    -0.2202989     -0.0012780206 
   5853000   0.050409168   -0.33047708     0.036358016   -0.21851019    -0.00036257108
   5854000   0.049771084   -0.33016493     0.035891372   -0.21962175     0.00011628012
   5855000   0.050438514   -0.33014441     0.036107062   -0.21838445     0.0013262418 
   5856000   0.04989526    -0.33066398     0.036093788   -0.21973213     0.0004869548 
   5857000   0.050267985   -0.3307472      0.036527493   -0.2188226     -0.00020625548
   5858000   0.050448023   -0.33058504     0.036562938   -0.21835495     0.0012763377 
   5859000   0.050614609   -0.329961       0.036102928   -0.21794105     0.00012852233
   5860000   0.050355357   -0.33015879     0.036593281   -0.21803735    -0.0010980896 
   5861000   0.0502956     -0.33033935     0.03564148    -0.21925934    -0.00022415492
   5862000   0.05028267    -0.33017307     0.03611449    -0.21863944    -0.00011529807
   5863000   0.050377648   -0.33062063     0.035929212   -0.21912982     0.00037366666
   5864000   0.050077133   -0.33032898     0.036008647   -0.21920948     0.0014422874 
   5865000   0.050065156   -0.33044841     0.036165297   -0.21919022     0.0001484746 
   5866000   0.049955398   -0.32993685     0.036204426   -0.21880416     0.00043106161
   5867000   0.050515322   -0.33042404     0.036092853   -0.21856309     0.00063258734
   5868000   0.049750489   -0.33058241     0.036119287   -0.2198422     -0.00061099163
   5869000   0.049675941   -0.33026763     0.036090103   -0.21966842     0.00050915878
   5870000   0.049410397   -0.33064272     0.036090243   -0.22044166    -0.00077213704
   5871000   0.049718496   -0.33080513     0.035439203   -0.220793      -0.00015014411
   5872000   0.049942173   -0.33056211     0.036189832   -0.21946385    -7.4595064e-05
   5873000   0.050052424   -0.3304597      0.03578934    -0.21959657     0.00041168636
   5874000   0.050322562   -0.33066719     0.03625127    -0.21893695     0.0008865509 
   5875000   0.05019908    -0.33071398     0.03595661    -0.21946361    -0.0010065414 
   5876000   0.049819152   -0.33046674     0.036428659   -0.21931417     0.0011134756 
   5877000   0.049881442   -0.33071782     0.035518879   -0.2203816     -0.00013917519
   5878000   0.050224319   -0.33010551     0.035589278   -0.21918461    -6.4176803e-05
   5879000   0.049961208   -0.33057734     0.036030309   -0.21961006     0.00060799215
   5880000   0.050553642   -0.3308233      0.036148279   -0.21884945     0.00130337   
   5881000   0.049819255   -0.33063455     0.036268967   -0.21964152     0.00073212758
   5882000   0.049631482   -0.33064905     0.035909044   -0.22029759     0.00062911606
   5883000   0.049539079   -0.33046934     0.036342457   -0.21982306    -0.0017135053 
   5884000   0.050087663   -0.33028049     0.035853971   -0.21929987    -0.00016802309
   5885000   0.049780665   -0.33063616     0.036117066   -0.21985291     0.00041533871
   5886000   0.049418215   -0.33068925     0.0361199     -0.22044682     0.00049983523
   5887000   0.049965921   -0.33083571     0.035638866   -0.2202528      0.0013564185 
   5888000   0.049793286   -0.33027052     0.035774902   -0.2198105     -0.00036505381
   5889000   0.05034054    -0.33022308     0.035988137   -0.21872901     0.00074166334
   5890000   0.049746827   -0.33058757     0.036180266   -0.21979188    -1.6467934e-05
   5891000   0.04955727    -0.33065016     0.036207823   -0.22011123    -0.00087175058
   5892000   0.05042234    -0.33069752     0.036051832   -0.21901706    -0.00040287355
   5893000   0.050286371   -0.33039414     0.036490582   -0.21847887     3.1644864e-06
   5894000   0.049684711   -0.33059326     0.035725094   -0.22034591     0.00049532749
   5895000   0.049955205   -0.33095213     0.035637382   -0.22038678     0.00057519645
   5896000   0.049592684   -0.33081595     0.035948586   -0.22048314     0.0012450402 
   5897000   0.049549537   -0.33064464     0.035721426   -0.22060371    -0.00019842935
   5898000   0.049949719   -0.33069786     0.036398372   -0.21937974    -0.00065891608
   5899000   0.049475332   -0.33114064     0.035319896   -0.22161254     0.00017978146
   5900000   0.049427793   -0.33032482     0.035309714   -0.2208782      0.00024384836
   5901000   0.050200847   -0.33091742     0.035943074   -0.21967793     0.0012957345 
   5902000   0.050137834   -0.3304533      0.035985893   -0.21926551     0.00025619094
   5903000   0.049848744   -0.33053515     0.036409961   -0.2193569      0.00057028373
   5904000   0.049591058   -0.33080572     0.036716757   -0.21970717    -0.00013501458
   5905000   0.050074743   -0.33064721     0.036059994   -0.21947995     0.0011234915 
   5906000   0.049915427   -0.33052843     0.035992156   -0.21966796     0.00074682147
   5907000   0.049402556   -0.33031864     0.035899981   -0.2203196      0.001348777  
   5908000   0.050046573   -0.33090932     0.035682535   -0.22016177     0.00069302362
   5909000   0.04976474    -0.33075402     0.035928085   -0.22018364    -0.00096254319
   5910000   0.050194099   -0.33118484     0.035896271   -0.22000228    -0.0001732156 
   5911000   0.049941489   -0.33065918     0.036060946   -0.21969083    -0.00042804335
   5912000   0.050010014   -0.33017096     0.035441016   -0.21971976     0.0003436668 
   5913000   0.04997492    -0.33039025     0.035934337   -0.21949837     9.5195799e-05
   5914000   0.050462434   -0.3302854      0.036840612   -0.21775602     0.00036094644
   5915000   0.050136117   -0.33041933     0.036341763   -0.21887824     0.00025893191
   5916000   0.049893913   -0.33017663     0.036176135   -0.21916445     0.00088030196
   5917000   0.05029418    -0.33070241     0.035826694   -0.21943931    -0.00034765438
   5918000   0.049888631   -0.33063105     0.036263392   -0.21953954    -0.00084060462
   5919000   0.049774141   -0.33046758     0.036113748   -0.21969743    -0.00096648004
   5920000   0.050327983   -0.33043121     0.036174345   -0.21876976    -0.00060547441
   5921000   0.05084127    -0.33013041     0.036299632   -0.21757379     8.6202468e-05
   5922000   0.0503172     -0.32987454     0.036924557   -0.21747906     0.0010317166 
   5923000   0.050229635   -0.33031472     0.03673023    -0.2182449      0.00081501356
   5924000   0.049727388   -0.33057699     0.03648325    -0.21950747    -0.000898025  
   5925000   0.050216703   -0.3309904      0.036309061   -0.21936114     0.00030866112
   5926000   0.050028795   -0.33040031     0.036324958   -0.21903701     0.00060562872
   5927000   0.04997091    -0.33073207     0.036686321   -0.21909422    -9.1751657e-05
   5928000   0.050134446   -0.33092818     0.036456565   -0.2192748     -0.00065045515
   5929000   0.049890235   -0.33053852     0.036136605   -0.21957139     0.00054151358
   5930000   0.049757333   -0.33043575     0.035954605   -0.21984996     0.0012942077 
   5931000   0.05017205    -0.33057864     0.03620449    -0.21912093    -0.00016684028
   5932000   0.050257265   -0.33108907     0.036395553   -0.21931248    -0.00031330884
   5933000   0.050074231   -0.33027451     0.036511746   -0.21865626    -0.00015261841
   5934000   0.050312995   -0.33051657     0.036575967   -0.21847598    -0.00042888682
   5935000   0.050497627   -0.33033892     0.03572328    -0.21887409     0.0013760039 
   5936000   0.049606418   -0.33054184     0.036143317   -0.21999369    -0.0006574885 
   5937000   0.050558239   -0.33081439     0.035854967   -0.21912696     0.0006619365 
   5938000   0.050037554   -0.3302769      0.035556516   -0.21966889     0.0018376279 
   5939000   0.050015824   -0.33060376     0.03567671    -0.21990816    -0.00033121132
   5940000   0.049769017   -0.33035366     0.036194881   -0.21951007     0.0016337872 
   5941000   0.050018093   -0.3304826      0.035919209   -0.2195411      0.00046652757
   5942000   0.049439117   -0.33072614     0.03583308    -0.22073917    -2.099559e-05 
   5943000   0.04992004    -0.33048668     0.035665419   -0.21994604     0.00036860185
   5944000   0.050166647   -0.3303539      0.036261231   -0.21884756     0.0007705859 
   5945000   0.050055143   -0.33047183     0.035735331   -0.21965863    -0.00088022254
   5946000   0.049753785   -0.33080669     0.035586463   -0.22059437    -0.00034448047
   5947000   0.050240213   -0.33050671     0.03631255    -0.2188387      0.00024329787
   5948000   0.050039531   -0.33023605     0.036755703   -0.21842589     0.00021074056
   5949000   0.050193868   -0.33051897     0.035940665   -0.21929237    -0.00068559892
   5950000   0.050298391   -0.33051716     0.036340248   -0.21873419    -0.00056693074
   5951000   0.05010727    -0.33061881     0.035972954   -0.2194898      0.00023553265
   5952000   0.050004217   -0.33037626     0.036233778   -0.219141       0.00049801273
   5953000   0.049697891   -0.33049342     0.036332443   -0.21961895    -0.00079989441
   5954000   0.049850643   -0.33059627     0.036250296   -0.21957484    -0.00015735403
   5955000   0.049952857   -0.33048432     0.036047638   -0.21951223    -0.00097846423
   5956000   0.050249057   -0.33066913     0.036386211   -0.2189142     -0.0009699933 
   5957000   0.049892633   -0.33084198     0.036011013   -0.21999685     0.0012162223 
   5958000   0.049998941   -0.33056363     0.035623206   -0.21994685     0.00099976192
   5959000   0.05037902    -0.33048599     0.036120455   -0.21880188    -0.00041668965
   5960000   0.050107275   -0.33060157     0.036403397   -0.21904211     0.00045159773
   5961000   0.050052316   -0.33034212     0.036277679   -0.21899081    -0.00033826676
   5962000   0.04994431    -0.33079221     0.035963364   -0.21991721    -0.00048126082
   5963000   0.050221628   -0.33052293     0.036357453   -0.2188379     -6.209031e-05 
   5964000   0.050148002   -0.33102461     0.036043012   -0.21976444    -0.00054508922
   5965000   0.050110512   -0.3308858      0.03550047    -0.22022441     0.00089127406
   5966000   0.049337762   -0.33076172     0.036189621   -0.22057023    -0.00076323636
   5967000   0.050075925   -0.33054125     0.036179239   -0.21925297    -0.00028943896
   5968000   0.049904026   -0.33062983     0.036622776   -0.21915584    -0.0013941575 
   5969000   0.050119962   -0.33079308     0.036901129   -0.21871685    -0.00050830222
   5970000   0.05019174    -0.33079795     0.036467094   -0.2190481      0.0010322354 
   5971000   0.04989484    -0.33014518     0.036084171   -0.21922357    -0.00019038082
   5972000   0.050143909   -0.33048645     0.036240554   -0.21903489     0.0012736552 
   5973000   0.049704301   -0.3307913      0.035879785   -0.22035987    -0.00075744863
   5974000   0.049676128   -0.33053824     0.036110132   -0.21991872     0.00050608336
   5975000   0.050124782   -0.3305358      0.036751285   -0.2186022      0.00037238721
   5976000   0.050217894   -0.33070051     0.036193823   -0.21918471     0.00038523594
   5977000   0.049930027   -0.33084487     0.036278076   -0.21967658    -0.00086202595
   5978000   0.049980602   -0.33021067     0.036051674   -0.21919293     0.00013626195
   5979000   0.049956958   -0.33086917     0.036034702   -0.21990387    -0.00057348196
   5980000   0.050167745   -0.33065785     0.036334714   -0.21907638    -0.00050703247
   5981000   0.050305198   -0.33056675     0.036526589   -0.21858723     0.00064803247
   5982000   0.049813006   -0.33097516     0.036149128   -0.22011135    -0.00024446495
   5983000   0.049913444   -0.33078597     0.036459989   -0.21946065    -0.00035074168
   5984000   0.049978957   -0.33079682     0.035963748   -0.21986947    -0.0012136122 
   5985000   0.049586439   -0.33075336     0.035876749   -0.22050175    -0.00081400123
   5986000   0.050501298   -0.33094865     0.036376654   -0.21882494    -0.0001970782 
   5987000   0.049872133   -0.33075079     0.036186028   -0.21976139    -0.00081352147
   5988000   0.049723065   -0.33080165     0.036158201   -0.22006367     0.00060344307
   5989000   0.049799864   -0.33093648     0.035867896   -0.22037361    -0.00020726441
   5990000   0.049878435   -0.33081705     0.036087588   -0.21991664    -0.00041237503
   5991000   0.050059502   -0.33077371     0.036241396   -0.2194479      0.00040954166
   5992000   0.049866216   -0.33057188     0.03561684    -0.22016054     0.00052683022
   5993000   0.049135707   -0.33104191     0.03667273    -0.22067038    -0.00095511227
   5994000   0.04981408    -0.33064127     0.036324385   -0.21960058     3.8539984e-05
   5995000   0.050232413   -0.33063741     0.035124395   -0.22016925     0.0011206503 
   5996000   0.049862455   -0.33070402     0.036052918   -0.21986225     0.00022685997
   5997000   0.049888034   -0.3301454      0.03631868    -0.2189995      0.00021939061
   5998000   0.050056888   -0.33088361     0.036462307   -0.21934081    -0.00020436089
   5999000   0.049529625   -0.33053144     0.036032499   -0.22020929    -0.0011651561 
   6000000   0.049521095   -0.33062569     0.036262603   -0.22008624    -6.8276566e-07
   6001000   0.049944751   -0.33069749     0.035807443   -0.21997775     0.00024992449
   6002000   0.049731065   -0.33085147     0.035562085   -0.2206976      0.00074742984
   6003000   0.05001129    -0.33069192     0.035812262   -0.21986756    -0.00048786782
   6004000   0.049926567   -0.33103179     0.03633888    -0.21980789    -0.00076940146
   6005000   0.050269197   -0.33119364     0.036351808   -0.2194429     -0.00076854417
   6006000   0.049988241   -0.33091945     0.036443771   -0.21949815    -0.0010153524 
   6007000   0.049753553   -0.33039097     0.03664586    -0.21911959    -1.6275025e-05
   6008000   0.050183834   -0.33047163     0.036611159   -0.21858958     0.00017158774
   6009000   0.050412454   -0.33111724     0.036839589   -0.21866385    -0.00031431005
   6010000   0.049338487   -0.33072852     0.03628438    -0.22044118    -0.00070965734
   6011000   0.04976761    -0.33060673     0.035808084   -0.22015205    -0.00073575433
   6012000   0.049921573   -0.33075495     0.036214469   -0.21966295    -0.00088527048
   6013000   0.050184512   -0.33045863     0.036254393   -0.21893232     0.00010212713
   6014000   0.05009725    -0.33042861     0.036393021   -0.21889456     0.00080084607
   6015000   0.05040817    -0.33077529     0.036114669   -0.21905325     0.0016681009 
   6016000   0.049945394   -0.3303972      0.03611104    -0.2193729     -0.00059238625
   6017000   0.049846561   -0.33087252     0.036135352   -0.21997215    -0.00024272703
   6018000   0.049991585   -0.33085722     0.036445479   -0.2194292     -0.0012350413 
   6019000   0.049957972   -0.33078553     0.035612331   -0.22024108     0.00022263983
   6020000   0.049838407   -0.3307593      0.035723887   -0.22028263     0.0011555231 
   6021000   0.050150406   -0.33085613     0.03618721    -0.21944817    -0.0010993825 
   6022000   0.050384816   -0.3305863      0.036645193   -0.21836876    -0.0011846998 
   6023000   0.049825134   -0.33119053     0.035957068   -0.22050058     0.00049096951
   6024000   0.049703634   -0.33060285     0.03617578    -0.21987643     0.00042904734
   6025000   0.049596682   -0.33104189     0.036116016   -0.22053565     0.00056091327
   6026000   0.050285933   -0.33068784     0.036014496   -0.21924931     0.0005628442 
   6027000   0.050580855   -0.33055632     0.03620853    -0.2184814      0.00086011598
   6028000   0.050120088   -0.33051722     0.03626219    -0.21907975     0.0019685738 
   6029000   0.050194302   -0.33069734     0.035973826   -0.21943691    -0.00075267765
   6030000   0.049770489   -0.33096381     0.03602947    -0.22028342    -0.00028890923
   6031000   0.049314917   -0.33073211     0.036204765   -0.22055974     0.0012818488 
   6032000   0.049944394   -0.3310072      0.036062043   -0.2200334      0.00043639106
   6033000   0.05053368    -0.33066512     0.036417157   -0.21845233     0.00080645173
   6034000   0.050072073   -0.33092099     0.036124303   -0.21969342     0.00010778116
   6035000   0.049971298   -0.3314553      0.036476001   -0.22002719     0.00043258202
   6036000   0.049577572   -0.33085135     0.035962022   -0.22052777    -0.00092279957
   6037000   0.049915969   -0.33074855     0.036117434   -0.219762       0.00074125961
   6038000   0.049987797   -0.33081482     0.03616502    -0.21967295     0.00049697585
   6039000   0.050308168   -0.33111761     0.036001356   -0.21965887     0.0010974486 
   6040000   0.049879285   -0.33103687     0.036618513   -0.21960425    -0.00071916214
   6041000   0.050051292   -0.33082002     0.036467553   -0.21928037     0.0012600152 
   6042000   0.050296986   -0.3308888      0.036145237   -0.21930295     0.00016328157
   6043000   0.050029754   -0.33083264     0.035556467   -0.22023638    -0.00064543428
   6044000   0.049863539   -0.3311226      0.036589542   -0.21974258     0.0010241371 
   6045000   0.050679578   -0.33113627     0.0359515     -0.21917031     6.6457346e-05
   6046000   0.050378958   -0.33075836     0.036549156   -0.21864565     0.00013620645
   6047000   0.050280808   -0.3309402      0.036205943   -0.21931791    -0.002060145  
   6048000   0.049639268   -0.33094437     0.036524267   -0.21996601    -4.9277531e-05
   6049000   0.049560414   -0.33115575     0.036012223   -0.2208077     -0.00045049039
   6050000   0.050263243   -0.3311748      0.036263908   -0.21952089     0.00011968627
   6051000   0.050248695   -0.33104669     0.036613889   -0.21906462     0.001130408  
   6052000   0.050049962   -0.33121465     0.036183298   -0.21996125     0.0002742441 
   6053000   0.049495622   -0.33057615     0.03594706    -0.22039044     6.7249627e-05
   6054000   0.049625179   -0.33120808     0.036153078   -0.22062204    -0.0003540855 
   6055000   0.049748105   -0.33121994     0.03596707    -0.22063553     0.00024024221
   6056000   0.050140382   -0.33100586     0.036125536   -0.2196746     -0.00028099441
   6057000   0.0499784     -0.3301469      0.036015191   -0.21916894     0.0012142603 
   6058000   0.049579424   -0.33043629     0.036334823   -0.21973713     0.00010578915
   6059000   0.05030687    -0.3313485      0.035718355   -0.2201747      0.00061567984
   6060000   0.04928729    -0.33079882     0.036174064   -0.22069859    -0.00018012472
   6061000   0.050071722   -0.33107306     0.035979795   -0.21999052     0.00079317859
   6062000   0.050011688   -0.33068228     0.034851913   -0.22081768     0.00075734376
   6063000   0.049961972   -0.33126866     0.035715982   -0.22061456    -0.00045476012
   6064000   0.049778241   -0.33092304     0.036501321   -0.21975918    -0.0006981769 
   6065000   0.049554941   -0.33073261     0.036789842   -0.21961515     9.0102294e-05
   6066000   0.049969142   -0.33088324     0.03638501    -0.21954936    -0.00026687131
   6067000   0.049493727   -0.33082195     0.036029638   -0.22055651     0.00073297638
   6068000   0.049787567   -0.33116304     0.036175769   -0.22031074    -0.00056465772
   6069000   0.049980371   -0.33118244     0.036495587   -0.21972113    -0.00054000414
   6070000   0.050258847   -0.33108019     0.036098762   -0.21959802     0.0019241833 
   6071000   0.04962252    -0.33084975     0.036345487   -0.22007528    -0.0010032177 
   6072000   0.049803199   -0.33093754     0.03596747    -0.22027009    -0.00020357767
   6073000   0.050214113   -0.33086643     0.035555014   -0.21999511     0.00063220951
   6074000   0.049832593   -0.33122493     0.036294761   -0.2201861     -0.00054012799
   6075000   0.049938129   -0.33114557     0.036491161   -0.21975205     0.00017571632
   6076000   0.049733184   -0.33083483     0.035761096   -0.22047877     0.0013510764 
   6077000   0.049657635   -0.33055283     0.036561301   -0.21950988    -0.00018636804
   6078000   0.050331296   -0.33060739     0.035598963   -0.21951635     0.00061987054
   6079000   0.050097875   -0.33121833     0.036074386   -0.22000198     0.0013377179 
   6080000   0.049985248   -0.33123698     0.03621767    -0.22004628    -0.0010750531 
   6081000   0.050213248   -0.33104969     0.035888376   -0.2198463      0.0011596452 
   6082000   0.049879187   -0.33129255     0.035539901   -0.2209387     -0.0005818978 
   6083000   0.049619899   -0.33088572     0.03624556    -0.22021511     0.00085942735
   6084000   0.049321345   -0.33099352     0.036351578   -0.2206647      0.00026794015
   6085000   0.04978077    -0.33056447     0.035611839   -0.22028629     0.0029724804 
   6086000   0.049639894   -0.33108085     0.035762027   -0.22086379    -0.0014770479 
   6087000   0.050272533   -0.33158718     0.036470243   -0.219713       8.3330666e-05
   6088000   0.049783056   -0.33101442     0.036279822   -0.22006483     3.7740618e-05
   6089000   0.049993894   -0.33124855     0.036385081   -0.21987747    -0.00024885412
   6090000   0.050823056   -0.33149527     0.036257441   -0.21900817    -0.00053088764
   6091000   0.049859154   -0.33108501     0.036356213   -0.21994489    -0.00015861612
   6092000   0.049407412   -0.33109025     0.036592389   -0.22039152    -0.0010343914 
   6093000   0.049941644   -0.33088782     0.035743258   -0.22023693     0.0007474872 
   6094000   0.049831042   -0.33097513     0.036022172   -0.22021122     0.00023853798
   6095000   0.050632984   -0.33110966     0.036086305   -0.21907878     0.00046717183
   6096000   0.049591283   -0.33081899     0.035839355   -0.22059751    -7.7216926e-05
   6097000   0.050339582   -0.33080177     0.035904977   -0.21939229     0.00027775544
   6098000   0.05020874    -0.33104591     0.036030609   -0.21970705    -0.00075503089
   6099000   0.049523154   -0.33110569     0.036133464   -0.22069229    -0.00033902918
   6100000   0.050174916   -0.33111493     0.036280743   -0.21957666    -0.00043973487
   6101000   0.050012459   -0.33084602     0.036180587   -0.21965158    -0.00010544326
   6102000   0.049749972   -0.33069019     0.036157116   -0.21991293    -5.599234e-05 
   6103000   0.049986876   -0.33078218     0.035165793   -0.22064091     0.00067359798
   6104000   0.04999876    -0.33138016     0.035448169   -0.22093869     9.7819605e-05
   6105000   0.049459403   -0.3310441      0.036139444   -0.22072034    -0.00094226067
   6106000   0.050204276   -0.33115326     0.03578651    -0.2200652     -0.0014459559 
   6107000   0.049801889   -0.33088071     0.03601641    -0.22016629     0.0014973311 
   6108000   0.049481074   -0.3310346      0.036219963   -0.22059782    -0.00022942232
   6109000   0.049848763   -0.33116317     0.036151265   -0.22024359    -0.00052317183
   6110000   0.049576605   -0.331199       0.036055024   -0.22078387    -0.0013161879 
   6111000   0.05009132    -0.33115727     0.035945578   -0.22007956    -0.00059983228
   6112000   0.049662746   -0.33118455     0.035625317   -0.22106992     0.00090349944
   6113000   0.050077456   -0.33133936     0.036415561   -0.21981246     0.00024679262
   6114000   0.050932419   -0.33046093     0.035555273   -0.21851196     0.0009655087 
   6115000   0.049858411   -0.33089773     0.036575456   -0.21953948    -0.0005091888 
   6116000   0.050189205   -0.33121011     0.03569608    -0.22023508     0.00051015005
   6117000   0.049999514   -0.3310718      0.036206295   -0.21987107    -0.00043430831
   6118000   0.049792879   -0.33098746     0.036266788   -0.22003618    -0.00026626209
   6119000   0.050283062   -0.33055657     0.036162832   -0.21897401    -3.6696698e-05
   6120000   0.050312724   -0.33126822     0.037033741   -0.21877026     0.0010426681 
   6121000   0.050106189   -0.33101604     0.036107017   -0.21975459    -0.00054674521
   6122000   0.049345704   -0.33127959     0.036522488   -0.22074332     0.00060266758
   6123000   0.049560147   -0.33104295     0.036189665   -0.22051786     0.0020157197 
   6124000   0.04975547    -0.3312873      0.036269854   -0.22038906    -3.6772337e-05
   6125000   0.049820008   -0.33090052     0.036326419   -0.21984891     0.00067201449
   6126000   0.049863862   -0.33116936     0.03573039    -0.220648       0.00063977968
   6127000   0.049765799   -0.33076912     0.036119134   -0.2200061      0.0011841356 
   6128000   0.049730214   -0.33110351     0.036286968   -0.22022603    -0.00088106099
   6129000   0.049788512   -0.33126761     0.035918341   -0.22067132     0.00031569398
   6130000   0.050259038   -0.33124125     0.036351151   -0.2195064      0.00071221922
   6131000   0.050503075   -0.33150508     0.03641178    -0.21934358    -0.00052725307
   6132000   0.049884546   -0.33103595     0.035971462   -0.22024249     0.00016870628
   6133000   0.04982524    -0.33087727     0.036049654   -0.22009458     0.0011508994 
   6134000   0.050355907   -0.33113278     0.036165876   -0.21943791     0.00051427608
   6135000   0.050171204   -0.33102433     0.035930306   -0.21984208    -0.00051926847
   6136000   0.050114528   -0.33101152     0.035876929   -0.21996765     0.00020576273
   6137000   0.050269308   -0.33144616     0.036349237   -0.21969783    -0.00017593809
   6138000   0.050054039   -0.33133768     0.036658472   -0.21960299    -0.0014022527 
   6139000   0.049800383   -0.33062597     0.036474924   -0.21945529     0.0014028783 
   6140000   0.049732577   -0.33111317     0.0358644     -0.22065471     0.00045970308
   6141000   0.049891775   -0.3314442      0.035850853   -0.22076052    -0.00030181514
   6142000   0.050109997   -0.33152134     0.036714847   -0.21964635    -0.00055099546
   6143000   0.05017134    -0.33173325     0.036416638   -0.22006445    -0.00021313447
   6144000   0.050630798   -0.33135569     0.036669739   -0.21874465     0.00055680602
   6145000   0.050045937   -0.33101763     0.036357781   -0.21959578     0.00073624455
   6146000   0.04946429    -0.33120054     0.036055359   -0.22095353     0.0011819167 
   6147000   0.049552637   -0.33142344     0.036049923   -0.22104936    -0.0012127331 
   6148000   0.049496724   -0.33113405     0.035990224   -0.22090353    -0.00078568549
   6149000   0.049789531   -0.33112866     0.035782483   -0.2206667     -0.00033922503
   6150000   0.04923385    -0.33194716     0.035956537   -0.22214462     0.00013274696
   6151000   0.04977622    -0.33178341     0.036252187   -0.22087171    -0.00065777703
   6152000   0.049062573   -0.33142623     0.036544247   -0.22129287    -1.0363888e-05
   6153000   0.049731237   -0.33171456     0.036096531   -0.22102599    -0.00019161787
   6154000   0.049506198   -0.33172553     0.036420919   -0.22105011    -0.00043826246
   6155000   0.049847427   -0.33151066     0.035667465   -0.22107688     0.00091403214
   6156000   0.049226762   -0.33157262     0.036088195   -0.22164905    -0.00057304956
   6157000   0.049482944   -0.33178771     0.036084107   -0.22148398    -0.0013719288 
   6158000   0.050330616   -0.33134874     0.035638781   -0.2202189      0.00071872315
   6159000   0.049991554   -0.33134682     0.036176152   -0.22018818     0.0010599539 
   6160000   0.050462486   -0.33111918     0.03616406    -0.21926627     0.0005732214 
   6161000   0.049963474   -0.33172059     0.035639033   -0.22114118    -0.0012249248 
   6162000   0.049195591   -0.33155        0.035630713   -0.22213066     0.00020295496
   6163000   0.050273755   -0.33178        0.036148334   -0.2202259     -0.00056480141
   6164000   0.049585884   -0.33138289     0.035945991   -0.22106287    -0.00044677315
   6165000   0.050050645   -0.33178839     0.036158929   -0.22055834    -0.0002431069 
   6166000   0.0503168     -0.33169874     0.036495629   -0.21973278     0.00039481643
   6167000   0.050496812   -0.3313859      0.035501405   -0.22014416     0.00078904305
   6168000   0.050570044   -0.33159487     0.035962253   -0.21978244     0.0011633575 
   6169000   0.049717355   -0.33164312     0.036243482   -0.22082842    -0.00065598242
   6170000   0.05016653    -0.33148354     0.036151191   -0.22008741    -0.00060517111
   6171000   0.05003676    -0.33161199     0.036183835   -0.22037785     0.00083690575
   6172000   0.050226737   -0.3316084      0.035698832   -0.22057432    -3.9583627e-05
   6173000   0.050091692   -0.33168988     0.036376963   -0.22018023    -0.0011539401 
   6174000   0.050157558   -0.33158717     0.036260378   -0.22009531     0.00065635955
   6175000   0.050316072   -0.33172895     0.036217327   -0.22004239    -9.9306833e-05
   6176000   0.050538      -0.33126382     0.036230023   -0.21923169     0.00026238973
   6177000   0.050269      -0.33171956     0.036916174   -0.21940475    -0.00019824605
   6178000   0.050312891   -0.33165309     0.036736732   -0.21945189     0.00064713361
   6179000   0.049900145   -0.33176335     0.036423855   -0.22049411    -0.0004929715 
   6180000   0.050402795   -0.33154081     0.035707492   -0.22023401     0.00085388151
   6181000   0.049955184   -0.33163445     0.036474687   -0.22023182    -0.00097388018
   6182000   0.050319757   -0.33161572     0.036053689   -0.22008726     0.00011431632
   6183000   0.049650875   -0.33154671     0.036503182   -0.22057202    -0.00029558772
   6184000   0.050028232   -0.3319878      0.035971012   -0.22097928    -0.0011580971 
   6185000   0.049955589   -0.33154896     0.035258233   -0.22136217     0.0013262648 
   6186000   0.050058733   -0.33152151     0.036179097   -0.22025916     6.4953784e-05
   6187000   0.050417885   -0.33182863     0.036085845   -0.22012084    -0.001079682  
   6188000   0.05000336    -0.33145276     0.036574487   -0.21987807     0.00020710217
   6189000   0.05038144    -0.33145666     0.036432934   -0.21945645     0.00098698098
   6190000   0.050241897   -0.33169701     0.036212338   -0.22012669    -0.0015676386 
   6191000   0.05058961    -0.33181067     0.0357298     -0.22020135     0.0011159872 
   6192000   0.049694786   -0.33170489     0.036214342   -0.22095317     0.00098754411
   6193000   0.05029315    -0.33123474     0.036428888   -0.219371       0.00029145276
   6194000   0.050114117   -0.33143231     0.036075804   -0.22019018     0.00035729498
   6195000   0.049895154   -0.33145503     0.036236952   -0.22038018    -0.00036906207
   6196000   0.0496621     -0.33170159     0.036178661   -0.22103459     0.00010826645
   6197000   0.04965122    -0.33140826     0.036621088   -0.22031515     0.00022574508
   6198000   0.050051707   -0.33137519     0.035488246   -0.22081422    -0.00041530955
   6199000   0.049798103   -0.33176806     0.036710927   -0.2203648      0.00062270583
   6200000   0.050044949   -0.331262       0.036227196   -0.21997223     0.00028221895
   6201000   0.050013715   -0.33191252     0.036175287   -0.2207215     -0.00049283271
   6202000   0.049373438   -0.33183035     0.036246812   -0.22152816    -0.00020813635
   6203000   0.049630581   -0.33131551     0.036270208   -0.22060424     0.0003469903 
   6204000   0.049647982   -0.33144859     0.036039178   -0.22094224     0.0012831767 
   6205000   0.050109371   -0.33166922     0.036000627   -0.22050939    -0.00034688251
   6206000   0.050368948   -0.33149301     0.035690601   -0.22025386     0.0015148539 
   6207000   0.049968339   -0.33219043     0.036040948   -0.2212018      0.00060208256
   6208000   0.049617177   -0.33168055     0.03591897    -0.22134062     0.0010408423 
   6209000   0.049095046   -0.33202135     0.036185325   -0.22219821     0.00036740006
   6210000   0.049583938   -0.33167396     0.035233132   -0.22206972    -0.00050160732
   6211000   0.049878421   -0.33134049     0.035392192   -0.22113549     0.0007956662 
   6212000   0.050344127   -0.33175898     0.036034807   -0.22021285     0.00081682021
   6213000   0.050067411   -0.33198974     0.035611995   -0.22128147    -0.00019583119
   6214000   0.050343177   -0.33207509     0.035912233   -0.22065296    -0.00027421836
   6215000   0.050291476   -0.33154946     0.036204865   -0.21991225    -0.000685424  
   6216000   0.050201917   -0.33205392     0.036695228   -0.22006067    -0.0017023912 
   6217000   0.050286248   -0.33158844     0.036600109   -0.21956382     0.00061858062
   6218000   0.049673503   -0.33168261     0.036302856   -0.2208743      0.00082385247
   6219000   0.050147594   -0.33206045     0.035985527   -0.22085839    -0.00088300128
   6220000   0.049762585   -0.33183782     0.036115709   -0.22108305     0.00013614809
   6221000   0.050297469   -0.33190319     0.035956916   -0.22050494    -0.00077301853
   6222000   0.050168096   -0.33197696     0.036551068   -0.2201786      0.00080350805
   6223000   0.050572059   -0.33171979     0.035852959   -0.22001364     0.00094693836
   6224000   0.049770892   -0.33198457     0.036423302   -0.22090974    -0.00014073753
   6225000   0.049997684   -0.33182299     0.036875064   -0.21995624     0.00012441301
   6226000   0.050632424   -0.33160958     0.036193248   -0.2194726      0.00052096631
   6227000   0.050407596   -0.33148459     0.035944208   -0.21993387    -0.00070459235
   6228000   0.050087554   -0.33167021     0.036048286   -0.22049544     0.00059705424
   6229000   0.049899139   -0.33212536     0.036050156   -0.22123133    -0.00073383536
   6230000   0.049689146   -0.33162154     0.035692177   -0.22140046    -0.00031262466
   6231000   0.04966035    -0.33187387     0.036275213   -0.22111294    -6.5118969e-06
   6232000   0.049091877   -0.33164499     0.035819025   -0.2221929      6.2357737e-05
   6233000   0.049487884   -0.33185157     0.036057818   -0.22156671    -0.00071394593
   6234000   0.04989999    -0.33150573     0.035733417   -0.22092716     0.00064795679
   6235000   0.049909164   -0.33156037     0.036396755   -0.2203047     -0.00090006106
   6236000   0.049750305   -0.33198099     0.036168481   -0.22119186    -0.00033067774
   6237000   0.050364685   -0.33178629     0.035910888   -0.22033325     0.00063620211
   6238000   0.049876387   -0.33205691     0.036415888   -0.22083127    -0.00021092794
   6239000   0.049841891   -0.33176882     0.035800184   -0.22121062     0.00074621818
   6240000   0.049338524   -0.33171917     0.035523284   -0.22219287    -0.0005418845 
   6241000   0.049833174   -0.33210886     0.035595476   -0.22176844    -0.0011954361 
   6242000   0.049708109   -0.3314534      0.036287196   -0.22060886    -0.00091866015
   6243000   0.050194179   -0.331776       0.035596742   -0.22089284     0.00030878066
   6244000   0.050544305   -0.33186431     0.036201656   -0.21985109     0.00045197979
   6245000   0.050011197   -0.33179456     0.036941112   -0.21984149    -0.00027824139
   6246000   0.050004945   -0.33165306     0.036187867   -0.22046261     0.00080561336
   6247000   0.050547384   -0.33160939     0.03634812    -0.21944509     0.0021521862 
   6248000   0.050180925   -0.33194209     0.036215973   -0.22045958    -0.00080057282
   6249000   0.050257098   -0.33242311     0.036619391   -0.22042294    -0.00057524962
   6250000   0.049600026   -0.33176741     0.036417203   -0.22095497    -0.00055003096
   6251000   0.049702518   -0.332078       0.036203453   -0.22132558    -0.001150243  
   6252000   0.050056752   -0.33185016     0.035895969   -0.2208739      0.0011945948 
   6253000   0.050679675   -0.33161781     0.035099554   -0.22050365     0.0019238118 
   6254000   0.050597114   -0.33182709     0.036151255   -0.21978506     0.0015821672 
   6255000   0.049851007   -0.33203608     0.036019809   -0.22124458    -0.00022436303
   6256000   0.049947994   -0.33200844     0.035976472   -0.22111481     0.00047736408
   6257000   0.049967014   -0.33204267     0.035690824   -0.22140616     0.0002070469 
   6258000   0.049913147   -0.33203161     0.03629639    -0.22087033    -0.00017197094
   6259000   0.050013888   -0.33201343     0.03539104    -0.22160639    -0.00069144075
   6260000   0.050381695   -0.33177389     0.036029706   -0.22017651     0.00026828565
   6261000   0.050281922   -0.33217303     0.036087297   -0.22066771     0.0013537416 
   6262000   0.050083364   -0.33191866     0.036395608   -0.22040285     0.00031485917
   6263000   0.049968274   -0.33188527     0.036428701   -0.22050899     0.0003521363 
   6264000   0.050163781   -0.33163974     0.036237634   -0.22016128     0.0014724629 
   6265000   0.050244981   -0.33210454     0.0360339     -0.22070804     0.00054067693
   6266000   0.050190724   -0.33191704     0.035768445   -0.22086737    -0.00066666772
   6267000   0.050321828   -0.33143953     0.035580345   -0.22038131     1.700213e-05 
   6268000   0.049843799   -0.33145458     0.036061851   -0.22063186    -5.0402551e-05
   6269000   0.050124951   -0.33186952     0.035946987   -0.22073996    -0.00022072752
   6270000   0.050174723   -0.3323377      0.036352689   -0.22072778     0.0010954988 
   6271000   0.05034846    -0.33179219     0.036227952   -0.22004642     0.0015799985 
   6272000   0.04957411    -0.33173089     0.036157882   -0.22121664     0.0012796697 
   6273000   0.050151314   -0.33185257     0.036151558   -0.2204789     -0.0010460512 
   6274000   0.05004504    -0.3317772      0.036263981   -0.2204505      0.00065340337
   6275000   0.05010477    -0.33197517     0.036358857   -0.22046401     0.0015493709 
   6276000   0.049939771   -0.33173421     0.035815299   -0.22101409    -0.00096108059
   6277000   0.049924615   -0.33230408     0.036605248   -0.22081674    -0.0011725579 
   6278000   0.049723542   -0.33202561     0.036481365   -0.22096374     0.001315182  
   6279000   0.050021499   -0.33206279     0.03594973    -0.22108565     0.00073962483
   6280000   0.050015277   -0.33227011     0.035946481   -0.22130555    -0.00016317285
   6281000   0.050239825   -0.33243868     0.036067491   -0.22101631    -2.6720131e-05
   6282000   0.05002134    -0.3321704      0.036324114   -0.22081911    -0.00062175898
   6283000   0.049325369   -0.33201449     0.036332964   -0.22169825    -0.00081543381
   6284000   0.050151278   -0.33190139     0.036001414   -0.22067791     0.0012839567 
   6285000   0.050271443   -0.33194337     0.036724243   -0.21981683     0.00065561846
   6286000   0.049731872   -0.33215053     0.036768361   -0.22078917     4.0961037e-05
   6287000   0.050088552   -0.33189261     0.036228348   -0.22053628     0.00096200119
   6288000   0.050470708   -0.33196032     0.035709671   -0.22054948     0.001101089  
   6289000   0.050043524   -0.33203663     0.036208052   -0.22076814    -7.2617065e-05
   6290000   0.050209572   -0.33172558     0.036462291   -0.21995379     0.0010977467 
   6291000   0.049927376   -0.33215739     0.03691828    -0.22035287    -0.0011397641 
   6292000   0.050144009   -0.33214002     0.036376905   -0.22055195     0.00049337527
   6293000   0.050375755   -0.33202252     0.036515589   -0.21994818     0.00045601603
   6294000   0.049654014   -0.33180578     0.03677782    -0.22055175    -0.00026239636
   6295000   0.050640208   -0.33189577     0.036330136   -0.21961022     0.00041938413
   6296000   0.050130938   -0.33203347     0.036553122   -0.2202888      0.00047501251
   6297000   0.050029597   -0.3317328      0.035764005   -0.22092924     0.00036161701
   6298000   0.050073013   -0.3319828      0.036227222   -0.2206509     -2.9092738e-05
   6299000   0.050318282   -0.33210584     0.036180954   -0.22045234    -0.00015786007
   6300000   0.049643238   -0.33211911     0.036320159   -0.2213389     -0.00013859745
   6301000   0.049812189   -0.33208648     0.036431827   -0.2209412      0.00034808526
   6302000   0.050117641   -0.33196136     0.03616623    -0.22062351     0.0015637959 
   6303000   0.0501286     -0.33203896     0.035649193   -0.22120172     0.00060368902
   6304000   0.049386311   -0.33232206     0.036309039   -0.22193833     0.00026313762
   6305000   0.049599443   -0.33226653     0.035957108   -0.22191505     0.00091841122
   6306000   0.049639305   -0.33229856     0.035879683   -0.22196473    -0.0012269914 
   6307000   0.049820351   -0.33196808     0.035678159   -0.22156422     0.00076326421
   6308000   0.049601886   -0.33244977     0.036360219   -0.22169152    -0.0014136899 
   6309000   0.050050893   -0.33259625     0.036195051   -0.22132971     0.00056117505
   6310000   0.050226171   -0.33230723     0.036015305   -0.22095753     0.00016390411
   6311000   0.050560489   -0.33187785     0.036151039   -0.21989097    -0.00057371689
   6312000   0.049746715   -0.33189515     0.036578812   -0.22070108    -0.00054504255
   6313000   0.050151311   -0.33256629     0.036740198   -0.22060398    -8.636521e-05 
   6314000   0.050316575   -0.33203164     0.036649378   -0.21991226     5.7244302e-05
   6315000   0.050070282   -0.33221314     0.036121461   -0.2209911     -0.00075915183
   6316000   0.050078969   -0.3324153      0.036284437   -0.22101725    -0.00081956747
   6317000   0.050506449   -0.33211923     0.036344799   -0.22001964     5.6824523e-05
   6318000   0.049974894   -0.33258318     0.036419524   -0.22120615     0.00051702672
   6319000   0.05031711    -0.33247914     0.036403781   -0.22060457     0.00034869639
   6320000   0.05012574    -0.33220256     0.035596088   -0.22142271     0.00014015895
   6321000   0.050012009   -0.33231946     0.035780987   -0.2215253     -0.00019690149
   6322000   0.049928956   -0.33242246     0.035844676   -0.22168918     0.001519859  
   6323000   0.050043314   -0.33220331     0.035626875   -0.2215163      0.0010945661 
   6324000   0.04997865    -0.33236788     0.036333566   -0.22107118     0.00042163783
   6325000   0.049984405   -0.33227522     0.035963268   -0.22134018     0.00072375787
   6326000   0.050078116   -0.33218261     0.036166366   -0.22090391     0.00014887197
   6327000   0.049938934   -0.33227831     0.036223662   -0.22115108     0.00026589416
   6328000   0.049601054   -0.33189872     0.036260733   -0.22124121    -0.00028441906
   6329000   0.050603223   -0.33239882     0.03540396    -0.22109492     0.0012170721 
   6330000   0.049720224   -0.33226608     0.036957443   -0.22073311    -0.00041521276
   6331000   0.049426549   -0.33252925     0.036110026   -0.22228419    -0.0012737566 
   6332000   0.049911856   -0.33200592     0.035699143   -0.22144382     0.00053638016
   6333000   0.049976111   -0.33234517     0.035678259   -0.22170758     0.00054710277
   6334000   0.049693291   -0.33264453     0.035612489   -0.22249692    -0.00069258698
   6335000   0.049457008   -0.33226126     0.03531341    -0.22276712     0.0015059818 
   6336000   0.04967873    -0.33261189     0.035853993   -0.22224461    -0.00034424039
   6337000   0.0498157     -0.33210377     0.035808093   -0.22157695     0.00058018553
   6338000   0.050668892   -0.33263036     0.036029626   -0.2206023      0.00061693061
   6339000   0.050529616   -0.33219989     0.036157254   -0.22025311    -0.00067106757
   6340000   0.049561069   -0.33221501     0.036209632   -0.22166857    -6.6921804e-05
   6341000   0.049704527   -0.33213992     0.036127957   -0.22145998     0.0003996144 
   6342000   0.049773223   -0.33277132     0.036256721   -0.22185958     1.8133692e-05
   6343000   0.050011089   -0.33280912     0.036078051   -0.22171927    -0.00039432328
   6344000   0.049815006   -0.33182953     0.035711192   -0.22140065     0.0025087784 
   6345000   0.050106658   -0.33214852     0.035696328   -0.22129705    -0.0016259668 
   6346000   0.050127086   -0.33218727     0.035764616   -0.22123688    -0.00045762002
   6347000   0.050689186   -0.33260123     0.036464229   -0.22010813    -0.00068310041
   6348000   0.050113349   -0.33199129     0.035971771   -0.22085435     6.6637774e-06
   6349000   0.050490657   -0.33248093     0.03612752    -0.22062231    -6.1870846e-05
   6350000   0.050616486   -0.33220548     0.035877475   -0.22040817    -0.00082467366
   6351000   0.050292442   -0.33207618     0.036272496   -0.22036989     0.0011826933 
   6352000   0.050354103   -0.33227867     0.03609047    -0.22066192     0.00061051788
   6353000   0.050046859   -0.33202327     0.03624374    -0.22071409     0.00042507193
   6354000   0.050064589   -0.33203341     0.035752994   -0.22118838     0.0005215489 
   6355000   0.05035753    -0.33228363     0.036098944   -0.22065327    -0.00049983905
   6356000   0.050236528   -0.33238228     0.036435079   -0.22059727     0.00017414843
   6357000   0.050639754   -0.33228919     0.036245244   -0.22008922     0.00090873863
   6358000   0.050207758   -0.33247875     0.036553732   -0.22061824     0.00057378213
   6359000   0.05048982    -0.33214776     0.035799032   -0.22061889     0.00033163713
   6360000   0.049505388   -0.33239143     0.035951135   -0.22218701    -0.00016726948
   6361000   0.05013403    -0.33199896     0.035888864   -0.2209139     -0.0011579035 
   6362000   0.049909952   -0.33219256     0.035792044   -0.22154042    -0.00052496139
   6363000   0.050089081   -0.3323428      0.035754837   -0.22145919     0.0020785572 
   6364000   0.049835588   -0.33257988     0.036313837   -0.22151748    -0.00092323276
   6365000   0.050184123   -0.33230294     0.035974412   -0.2210572     -0.00018180715
   6366000   0.050315828   -0.3322803      0.035389927   -0.2214215     -0.0015612682 
   6367000   0.050182487   -0.33225507     0.03533563    -0.22165056    -0.00018471112
   6368000   0.050014083   -0.33262912     0.036027142   -0.22158569     0.0016913275 
   6369000   0.049970809   -0.33287987     0.035931588   -0.2219969     -0.0013457423 
   6370000   0.049142917   -0.33243874     0.036607446   -0.22212168    -0.00061530299
   6371000   0.050193625   -0.33246064     0.036409331   -0.22076573    -0.00043802219
   6372000   0.050287909   -0.33232841     0.036136705   -0.22076471     0.00099955403
   6373000   0.049926795   -0.33217569     0.036196948   -0.22109338     0.0016851195 
   6374000   0.050041978   -0.3321172      0.036176664   -0.22088241     0.0020314046 
   6375000   0.05084228    -0.33208877     0.03613819    -0.21969208    -0.00048775189
   6376000   0.049841702   -0.33231101     0.036324397   -0.22122888    -0.00066138347
   6377000   0.050880216   -0.33252737     0.036392631   -0.21981934     0.0013291278 
   6378000   0.050204235   -0.33239491     0.036291922   -0.22080149    -0.00093081214
   6379000   0.049659378   -0.33233911     0.03631872    -0.22153613    -0.00015407046
   6380000   0.049974678   -0.33280172     0.036786518   -0.22105802    -0.0010449234 
   6381000   0.050059179   -0.33256332     0.036034148   -0.22144525     0.00035984953
   6382000   0.050336353   -0.33248216     0.036514706   -0.2204678      0.0011191644 
   6383000   0.050538279   -0.33264464     0.036355176   -0.22048694    -0.0008466499 
   6384000   0.049958389   -0.33292787     0.035830482   -0.22216464    -0.00054818663
   6385000   0.049965955   -0.33257695     0.036252815   -0.22138003     0.00082200441
   6386000   0.050276233   -0.33238375     0.036300999   -0.22067327     0.00011469795
   6387000   0.050169721   -0.33220673     0.035974114   -0.22098289     0.0010659272 
   6388000   0.05044741    -0.33256877     0.035684513   -0.22121803     0.0008672645 
   6389000   0.049852552   -0.3325626      0.036169792   -0.22161881    -0.0026643872 
   6390000   0.050396743   -0.33273735     0.036422499   -0.22072461    -0.00030607372
   6391000   0.050320316   -0.33219651     0.035769212   -0.22095169     0.00084313732
   6392000   0.049887356   -0.33256717     0.035738941   -0.22200203    -0.0006130972 
   6393000   0.049866177   -0.33258258     0.03590761    -0.22188053    -0.00044887169
   6394000   0.050116494   -0.33215031     0.036106853   -0.22087357    -2.793203e-05 
   6395000   0.050327845   -0.33260342     0.035835164   -0.22128136     0.00039425326
   6396000   0.050604536   -0.33215455     0.036086485   -0.22016616     0.0014509502 
   6397000   0.05037081    -0.33205167     0.036633379   -0.21986695    -0.0012530878 
   6398000   0.050819996   -0.3324878      0.036437002   -0.21982573     5.3137884e-05
   6399000   0.04988219    -0.33261674     0.035975489   -0.2218228     -0.00074677278
   6400000   0.050070751   -0.33214421     0.036464892   -0.22057803     0.00014160359
   6401000   0.049984244   -0.33274555     0.035791771   -0.22198225    -1.6518337e-05
   6402000   0.050319132   -0.33234281     0.035678486   -0.2211905      0.00044687642
   6403000   0.049870182   -0.33223833     0.035453034   -0.22198485     0.0010090084 
   6404000   0.049629759   -0.33260029     0.036286028   -0.22187442     0.0013128435 
   6405000   0.049976849   -0.33248353     0.03578761    -0.22173549     0.00010201322
   6406000   0.049768047   -0.33241886     0.035689111   -0.22208249    -0.00023993852
   6407000   0.049459276   -0.33262849     0.036518017   -0.22192635     0.00050463574
   6408000   0.049895611   -0.3322911      0.03580236    -0.22165015    -0.00036943531
   6409000   0.050925097   -0.33282157     0.036068747   -0.2203701      0.00059154363
   6410000   0.050290793   -0.33229481     0.036132372   -0.22073112     0.001143667  
   6411000   0.049671123   -0.33256656     0.036955179   -0.2211095      0.00011379417
   6412000   0.050518727   -0.33242754     0.036414108   -0.22024023     0.0015417468 
   6413000   0.050222301   -0.33268391     0.037265596   -0.22008972     0.00045380151
   6414000   0.050052109   -0.33247405     0.036305655   -0.22109507    -0.00045429799
   6415000   0.050139088   -0.33273432     0.036063467   -0.22146707     0.00014662367
   6416000   0.049914508   -0.33278096     0.036195798   -0.22171823    -0.00061514194
   6417000   0.049987692   -0.33267568     0.0366285     -0.22107048     6.5145827e-05
   6418000   0.050375912   -0.33263316     0.036757038   -0.22031713    -0.0001759441 
   6419000   0.050378594   -0.33235663     0.035581507   -0.22121211    -4.2446931e-05
   6420000   0.049827888   -0.33296938     0.036386711   -0.22184566    -0.00067889412
   6421000   0.050269057   -0.33266478     0.035881662   -0.2213844     -0.00034560972
   6422000   0.049757747   -0.33261012     0.036011333   -0.22196698     0.00035757446
   6423000   0.050422694   -0.33228391     0.035886364   -0.22076839     0.0013851646 
   6424000   0.050152139   -0.33219205     0.036117373   -0.22085132    -0.00022656273
   6425000   0.050083346   -0.33230064     0.035881751   -0.22129871    -0.00038348819
   6426000   0.049839203   -0.33280783     0.036171045   -0.2218828     -6.9866503e-05
   6427000   0.049969231   -0.33257626     0.035824254   -0.22180299     0.0015332755 
   6428000   0.049865241   -0.33225521     0.036208093   -0.22125408     0.0015944328 
   6429000   0.050199722   -0.33267128     0.036266858   -0.2211097      3.2229813e-06
   6430000   0.050219992   -0.33235313     0.036088588   -0.22093942     0.0014541556 
   6431000   0.050390551   -0.33269834     0.035852093   -0.2212653      0.00027310749
   6432000   0.049892925   -0.33294467     0.036446864   -0.22166324     0.00061900902
   6433000   0.049463628   -0.33222963     0.036254782   -0.22178419     0.00026063836
   6434000   0.050063569   -0.3321531      0.036401885   -0.22066071    -0.00075700527
   6435000   0.050556211   -0.33275802     0.03595304    -0.22097555     0.00053271693
   6436000   0.050186637   -0.33259444     0.037170114   -0.22014923    -0.00093696214
   6437000   0.049776531   -0.33223717     0.036280748   -0.22129644     0.00015199107
   6438000   0.050043951   -0.33249617     0.035841695   -0.22159339    -0.00071486487
   6439000   0.050326068   -0.33268775     0.035832927   -0.22137059     0.00076016041
   6440000   0.049932286   -0.33245773     0.036146893   -0.22141724    -0.00011515878
   6441000   0.049889015   -0.33269722     0.036003719   -0.22186481    -0.00038539928
   6442000   0.050056723   -0.33290157     0.036144461   -0.22167687    -0.00034821272
   6443000   0.049667093   -0.33236733     0.035345472   -0.22252603     0.00076762904
   6444000   0.04980451    -0.3328022      0.036285013   -0.22181524    -0.00067008429
   6445000   0.049543555   -0.33258863     0.03603039    -0.22224771    -0.00059263838
   6446000   0.04954134    -0.33260822     0.035959157   -0.22234185     0.0016161436 
   6447000   0.04979898    -0.33265915     0.035813878   -0.22215162    -0.0014587364 
   6448000   0.049854233   -0.33251782     0.035617172   -0.22212412     0.0012658624 
   6449000   0.050125507   -0.33274007     0.035874521   -0.22168214    -0.00047440333
   6450000   0.049874666   -0.33240265     0.035413627   -0.22218186     0.00040296364
   6451000   0.05031895    -0.33231936     0.036099268   -0.22074654     8.4958391e-05
   6452000   0.050273077   -0.33233869     0.03632       -0.22061394     0.00059714011
   6453000   0.049616404   -0.33273701     0.036257801   -0.22205941     0.00019852271
   6454000   0.049397708   -0.33267337     0.036294917   -0.22228667    -0.00014326553
   6455000   0.050564235   -0.33259895     0.035789511   -0.22096798     0.00037108172
   6456000   0.049995827   -0.33284987     0.036551897   -0.22130907     0.0015317165 
   6457000   0.050173575   -0.33278455     0.036061941   -0.2214671      0.0010169381 
   6458000   0.05030676    -0.33219427     0.036004111   -0.22073489    -0.0005221271 
   6459000   0.049914855   -0.33202686     0.036359619   -0.22079979    -8.4056176e-05
   6460000   0.050411729   -0.33271364     0.035688019   -0.2214129      0.0011343715 
   6461000   0.050061753   -0.33259538     0.036402066   -0.22110553     0.00094425769
   6462000   0.050388694   -0.33257738     0.035895252   -0.22110396     0.0004931774 
   6463000   0.04997096    -0.33254179     0.035961802   -0.22162838     0.00087302238
   6464000   0.050217198   -0.33271089     0.035979149   -0.2214108     -0.00074412104
   6465000   0.050047671   -0.33299431     0.036413063   -0.22151458    -0.0018078734 
   6466000   0.049768663   -0.3328279      0.036067791   -0.22211193     0.00011304411
   6467000   0.050193144   -0.33276068     0.036072806   -0.22140301     0.0002443199 
   6468000   0.050351064   -0.33277745     0.035885812   -0.22136992     0.00074375345
   6469000   0.049669842   -0.33268516     0.03646641    -0.22171879     0.00059275354
   6470000   0.050401524   -0.33216641     0.036064348   -0.22050466     0.00022722957
   6471000   0.049840357   -0.3326578      0.036359346   -0.22154274    -0.0010663124 
   6472000   0.049736283   -0.33262153     0.03593303    -0.22208889     0.0010744668 
   6473000   0.050077432   -0.33281588     0.035861068   -0.2218435     -0.00015642319
   6474000   0.049667866   -0.33274492     0.036062097   -0.22218583    -8.9222726e-05
   6475000   0.050047965   -0.33238388     0.035529255   -0.22178752     0.0021715025 
   6476000   0.049794595   -0.33241951     0.03546572    -0.22226672     0.0016199637 
   6477000   0.050055749   -0.3329634      0.036520496   -0.22136413    -0.00055759974
   6478000   0.050501269   -0.33228964     0.036151464   -0.22039115     0.00026578243
   6479000   0.050439498   -0.33297213     0.036316489   -0.22100127    -0.00051751878
   6480000   0.049431319   -0.33259707     0.036493849   -0.22196103     0.0001318842 
   6481000   0.049984964   -0.33274372     0.036482401   -0.22128871    -5.1278395e-06
   6482000   0.049969949   -0.33251435     0.036379619   -0.22118464    -0.00035095591
   6483000   0.049666682   -0.33273636     0.035916306   -0.22232484    -0.0002510888 
   6484000   0.05004879    -0.33272788     0.035275363   -0.22238417     0.001197686  
   6485000   0.049902141   -0.33268661     0.035887076   -0.22195115     0.00044435111
   6486000   0.049203816   -0.33293904     0.036354563   -0.22278351     0.00033693665
   6487000   0.049826523   -0.33303738     0.036240537   -0.22206188    -0.00057608198
   6488000   0.050916394   -0.3331416      0.035772966   -0.22099897     3.4329935e-05
   6489000   0.04970412    -0.3324704      0.036427011   -0.22149202    -0.00040294685
   6490000   0.050585982   -0.33260819     0.037409948   -0.21932417     0.00051659079
   6491000   0.05022968    -0.33236328     0.036243255   -0.22078037     0.00076526245
   6492000   0.050044467   -0.33280219     0.036517728   -0.2212226     -0.00091276403
   6493000   0.0496986     -0.33244372     0.036536516   -0.22136411    -0.0002111096 
   6494000   0.049809765   -0.33228979     0.03652065    -0.22105931     0.0012402908 
   6495000   0.05022883    -0.3330311      0.036485357   -0.22120735    -0.00049996045
   6496000   0.050265193   -0.33277292     0.036291713   -0.22108828    -0.00034191819
   6497000   0.050935279   -0.33268542     0.036971468   -0.21931596    -0.0004697989 
   6498000   0.050630374   -0.33274413     0.035774924   -0.22102854     0.0011216859 
   6499000   0.05005272    -0.33277943     0.036156717   -0.22154848     0.00034949807
   6500000   0.049932285   -0.33306178     0.036471802   -0.22169638     0.0006298309 
   6501000   0.049940597   -0.33297467     0.036241353   -0.22182726    -0.00017799723
   6502000   0.04986305    -0.33250795     0.035902319   -0.22181588     0.0005342469 
   6503000   0.049807844   -0.33250114     0.035680142   -0.22211405     0.0015519131 
   6504000   0.049892122   -0.33263981     0.036288557   -0.2215179     -0.00056024381
   6505000   0.050291594   -0.33265226     0.035706802   -0.22151293     0.00040907717
   6506000   0.05030501    -0.33301699     0.036379051   -0.22118529    -0.0004990695 
   6507000   0.050128806   -0.33298294     0.035871204   -0.22192338     0.0017226922 
   6508000   0.050051753   -0.33261427     0.036392182   -0.22114931     0.00056387323
   6509000   0.050074739   -0.33269351     0.035761255   -0.221825      -0.00019225512
   6510000   0.050167121   -0.33266498     0.036198504   -0.22122065     0.0013900788 
   6511000   0.050481849   -0.33296051     0.036405715   -0.22083691     0.00060949977
   6512000   0.050315709   -0.3329431      0.036428026   -0.22104638    -0.00025381441
   6513000   0.050345644   -0.33264712     0.036396281   -0.22073725    -0.0007429851 
   6514000   0.050176148   -0.33257587     0.036831451   -0.22048505     0.00070442318
   6515000   0.050195226   -0.33288857     0.036156803   -0.22144379     0.00012815676
   6516000   0.049763738   -0.33282854     0.036316315   -0.22187144    -1.2161881e-05
   6517000   0.049843634   -0.33290301     0.035907852   -0.22223453    -0.00093598181
   6518000   0.0497169     -0.33276677     0.036368431   -0.2218278     -0.0012110804 
   6519000   0.050169969   -0.33283319     0.035822356   -0.22176073    -0.0014466063 
   6520000   0.049761219   -0.33269329     0.036609949   -0.22144632     0.00091856326
   6521000   0.050157504   -0.33275265     0.035328802   -0.22219244     0.0018815393 
   6522000   0.050300299   -0.33267532     0.035561249   -0.22166849     0.00051009044
   6523000   0.050591467   -0.33280166     0.036142669   -0.22077669     0.00013760174
   6524000   0.050085591   -0.33263101     0.036099464   -0.221408       0.0015583908 
   6525000   0.04992262    -0.3330171      0.036232854   -0.22190515     0.000438259  
   6526000   0.049774229   -0.3324212      0.036236158   -0.22152851     0.0010706186 
   6527000   0.04999973    -0.33266716     0.035651772   -0.22202063     0.00038369767
   6528000   0.049862975   -0.33295516     0.036067795   -0.22209773     0.0014451781 
   6529000   0.050244146   -0.33262838     0.03661023    -0.2206568      0.001168782  
   6530000   0.049980557   -0.33266675     0.035480819   -0.22221993     0.00012040705
   6531000   0.050057915   -0.33271888     0.036428869   -0.22120798     0.00012542393
   6532000   0.049923396   -0.33269409     0.036213056   -0.22160077    -0.00022465065
   6533000   0.050323792   -0.33253761     0.036640889   -0.2204159     -0.0001146524 
   6534000   0.05033767    -0.33300762     0.036326434   -0.22117955     0.00048779261
   6535000   0.049998721   -0.33276617     0.036052347   -0.22172058     0.00080928113
   6536000   0.049894001   -0.33315511     0.035537606   -0.22278133    -0.00010888369
   6537000   0.050651773   -0.33279161     0.035818501   -0.22100035     0.00080107493
   6538000   0.050309712   -0.33295449     0.036413368   -0.22108142    -0.0014023682 
   6539000   0.050155974   -0.33280247     0.035973059   -0.2216003      0.00079206791
   6540000   0.049972161   -0.33284106     0.035481537   -0.22240612     0.0010967272 
   6541000   0.050139447   -0.33281452     0.035461533   -0.22214867     0.0010087005 
   6542000   0.049979327   -0.33305481     0.036128089   -0.22196256     0.00048637746
   6543000   0.050000438   -0.33286104     0.035865169   -0.22200006     0.0004084124 
   6544000   0.049254838   -0.3330316      0.036164803   -0.22298931    -0.0009640947 
   6545000   0.050656338   -0.33311968     0.035887656   -0.22125242    -0.0010978504 
   6546000   0.050504508   -0.33280926     0.036300239   -0.22075714     0.00036947709
   6547000   0.050152356   -0.33310539     0.03574167    -0.22214004    -0.00023151469
   6548000   0.050102581   -0.33324175     0.036323619   -0.22176911    -0.0010858817 
   6549000   0.049999519   -0.33260697     0.036516123   -0.2210964     -0.0010875743 
   6550000   0.050027572   -0.33296656     0.036530652   -0.22139939     0.0013773864 
   6551000   0.050064074   -0.33259979     0.036002062   -0.22150646     0.0011519851 
   6552000   0.04944317    -0.33281738     0.036624124   -0.22203328     0.00012601587
   6553000   0.05033886    -0.33301123     0.03582363    -0.22168418     0.00060733286
   6554000   0.049943954   -0.33289309     0.035874793   -0.2221072      0.00038638261
   6555000   0.049965218   -0.33293862     0.036087104   -0.22190853     0.0003714405 
   6556000   0.049913765   -0.33267153     0.03618275    -0.22162296    -0.00013126707
   6557000   0.050135732   -0.33292826     0.036219376   -0.22151014     0.00016835206
   6558000   0.049700033   -0.33263709     0.036435141   -0.2216567      0.00053172523
   6559000   0.049988148   -0.33273236     0.036397425   -0.22135755    -0.00068159103
   6560000   0.050209043   -0.33305456     0.035518402   -0.22222745     0.0011264418 
   6561000   0.050023471   -0.33279382     0.036089385   -0.22167407     0.0013249225 
   6562000   0.050134705   -0.33342753     0.035775501   -0.22245482     0.00023747361
   6563000   0.049933255   -0.33303313     0.035937167   -0.22220091     0.00023843904
   6564000   0.049849836   -0.33254159     0.036236831   -0.22153483    -0.0010050161 
   6565000   0.04964509    -0.33312141     0.035908292   -0.22275029    -0.00045525584
   6566000   0.04982487    -0.33262915     0.036038433   -0.22185823     0.0002207405 
   6567000   0.050373628   -0.3327487      0.036058529   -0.22113461    -0.00083210976
   6568000   0.050144645   -0.33323097     0.036181223   -0.22183763    -1.860858e-06 
   6569000   0.049927441   -0.33274583     0.036186742   -0.22167275    -0.00074781396
   6570000   0.0501732     -0.33301274     0.035706217   -0.22205158    -0.00058107903
   6571000   0.050672633   -0.33295266     0.035938884   -0.22100973    -0.00060397228
   6572000   0.04985609    -0.33274332     0.036027395   -0.22193662     0.00030347699
   6573000   0.050113015   -0.33255935     0.036281923   -0.22111275    -0.00029149603
   6574000   0.049741947   -0.33283405     0.035634697   -0.22259125     0.00037789677
   6575000   0.049180744   -0.33330075     0.036607912   -0.22292648    -0.0004025219 
   6576000   0.049172282   -0.33320483     0.036285794   -0.22316537     0.00038201488
   6577000   0.049292858   -0.3332988      0.036290919   -0.22307337    -0.0012086827 
   6578000   0.04961602    -0.33257767     0.036014739   -0.2221437      0.00019557278
   6579000   0.05002656    -0.33288359     0.036528101   -0.22132049    -0.00025106182
   6580000   0.049927165   -0.33304984     0.035707855   -0.22245607     0.00048528594
   6581000   0.050493233   -0.33308355     0.035444392   -0.22190419    -0.0005128503 
   6582000   0.050248933   -0.33292079     0.036180836   -0.22137142    -0.0010542349 
   6583000   0.049941145   -0.33295858     0.03623088    -0.22182082     0.00041207123
   6584000   0.049958288   -0.33250055     0.035835813   -0.22173214     0.00054156029
   6585000   0.05040657    -0.33313529     0.035769117   -0.2217612     -0.00040438777
   6586000   0.050298609   -0.33293261     0.036477131   -0.22101244    -3.9114348e-05
   6587000   0.049908846   -0.3330825      0.036257645   -0.22196641     0.00093772446
   6588000   0.050151847   -0.33277694     0.036147079   -0.22140695    -0.00041663618
   6589000   0.050560495   -0.33271349     0.035923333   -0.2209543      0.00067881403
   6590000   0.050037406   -0.33288487     0.035662022   -0.22217159     0.00028695756
   6591000   0.049706381   -0.33291695     0.036335978   -0.22202621    -0.00045027682
   6592000   0.049569288   -0.33281333     0.036026144   -0.22243805     0.00076011208
   6593000   0.049798185   -0.3327629      0.035629884   -0.22244056     0.0018335867 
   6594000   0.050254287   -0.33298129     0.035896805   -0.22170792    -0.00024706019
   6595000   0.050501886   -0.33322187     0.036213282   -0.22126064    -6.994696e-05 
   6596000   0.049752042   -0.33309195     0.036231884   -0.22223682    -7.7636063e-05
   6597000   0.049976247   -0.33281601     0.036238799   -0.22161768     8.4818713e-05
   6598000   0.050198959   -0.33280571     0.036393225   -0.22111891    -0.0011700236 
   6599000   0.050371241   -0.33335024     0.036180194   -0.22161805    -0.00051757897
   6600000   0.050239265   -0.33260499     0.036422233   -0.22082872     0.0016154629 
   6601000   0.050189196   -0.33268031     0.035924183   -0.22147719     0.00016149182
   6602000   0.050251682   -0.33298995     0.035712398   -0.22190489    -0.0010541662 
   6603000   0.050143134   -0.33282061     0.036001753   -0.22160901    -0.00076305022
   6604000   0.050472008   -0.33319875     0.036351948   -0.22114367    -0.00016922539
   6605000   0.049885689   -0.33291833     0.036067852   -0.22202677    -0.0003239074 
   6606000   0.04970158    -0.3328445      0.036476707   -0.22182023     7.3307173e-05
   6607000   0.049374192   -0.33265567     0.03628993    -0.22230923     0.0011321624 
   6608000   0.049726471   -0.33309816     0.036020235   -0.22249304     0.00057774501
   6609000   0.04994147    -0.33316116     0.036321042   -0.22193275    -0.0018684115 
   6610000   0.050041637   -0.33314942     0.035804074   -0.22228774     0.0009004713 
   6611000   0.049693404   -0.33293708     0.036511005   -0.22189078     0.0016526022 
   6612000   0.050153199   -0.33294479     0.035488782   -0.22223106    -0.0015352944 
   6613000   0.049398726   -0.3328506      0.036621218   -0.22213607     0.0004550589 
   6614000   0.050004642   -0.3332313      0.036241603   -0.22198757    -0.0008981312 
   6615000   0.049710072   -0.33307467     0.036092456   -0.22242191     0.001151975  
   6616000   0.050023963   -0.33281206     0.036400812   -0.22138015    -0.00064929036
   6617000   0.049250604   -0.33297904     0.036261978   -0.22284592    -0.00023459375
   6618000   0.049514761   -0.33310873     0.036318331   -0.22252305    -0.00090727811
   6619000   0.050066257   -0.33268917     0.036214077   -0.22138055     0.00046349357
   6620000   0.049893459   -0.33267889     0.035997729   -0.22184581     6.1119535e-05
   6621000   0.05010627    -0.33293044     0.036689349   -0.22108654    -0.00062502714
   6622000   0.050319428   -0.33299157     0.036073435   -0.22144386     0.0015408453 
   6623000   0.050232712   -0.33312441     0.036162866   -0.22161734     0.0019882932 
   6624000   0.049959457   -0.33272494     0.036557783   -0.2212328      0.00068946103
   6625000   0.04989178    -0.33275734     0.036167681   -0.22175682     3.5612628e-05
   6626000   0.050409086   -0.33278114     0.036145745   -0.22102665    -0.0010100468 
   6627000   0.050336525   -0.33304465     0.036081791   -0.22146295    -0.0012046779 
   6628000   0.05039673    -0.33258064     0.035436353   -0.22155407     0.0018703467 
   6629000   0.050284827   -0.33333467     0.036251498   -0.2216608      0.00025816764
   6630000   0.050115896   -0.33292264     0.03612512    -0.22162853    -0.00010096032
   6631000   0.050176852   -0.33288413     0.036282977   -0.22134073    -7.2744208e-05
   6632000   0.050270581   -0.33303475     0.036104842   -0.2215289     -0.00022405323
   6633000   0.050972284   -0.33280784     0.036488927   -0.21986542    -1.4658893e-05
   6634000   0.050328999   -0.33294383     0.035985742   -0.22146946     0.00075541812
   6635000   0.050405399   -0.3322793      0.035650665   -0.22102541     0.00034170725
   6636000   0.049969876   -0.3327721      0.036469644   -0.22135247     0.00071981114
   6637000   0.050060943   -0.33299283     0.036442699   -0.22146356     0.00034435244
   6638000   0.050175642   -0.33261251     0.036218687   -0.22113522    -8.7024515e-05
   6639000   0.050265799   -0.33300772     0.036675708   -0.22093818    -0.00036399246
   6640000   0.050102921   -0.33279595     0.036171538   -0.22147488     0.00064909121
   6641000   0.050278733   -0.33296069     0.036318021   -0.22122944    -0.00048618689
   6642000   0.04953977    -0.33288625     0.036635971   -0.22194542     0.00090391649
   6643000   0.050134082   -0.33271978     0.036258221   -0.22126529     0.00075385502
   6644000   0.050087222   -0.33294434     0.036657915   -0.22116044    -0.00047410595
   6645000   0.04967437    -0.33274197     0.036113756   -0.22212147     0.00086447525
   6646000   0.050599749   -0.33272534     0.036459658   -0.22037095    -0.00055484641
   6647000   0.050220823   -0.33285813     0.036624057   -0.2209077     -3.2865509e-05
   6648000   0.05020761    -0.33314645     0.036502382   -0.22133751    -0.00087633529
   6649000   0.050001318   -0.33300964     0.035964677   -0.22204782    -0.00044058183
   6650000   0.050308383   -0.33305523     0.03581987    -0.22177766     0.00035112827
   6651000   0.050031289   -0.33277848     0.0362256     -0.22151078    -0.00024458531
   6652000   0.05091537    -0.33274398     0.035452737   -0.22092312    -0.00027465249
   6653000   0.049907999   -0.33311388     0.036641332   -0.22161538     0.00081376434
   6654000   0.049846465   -0.33263367     0.03600797    -0.22186083     0.00053479322
   6655000   0.05003851    -0.33303539     0.036187344   -0.22179512    -0.00048499649
   6656000   0.04993928    -0.3330998      0.036175537   -0.22202018    -0.00059760322
   6657000   0.050357619   -0.33290486     0.035888047   -0.22148525     0.00078600579
   6658000   0.05003947    -0.33326561     0.036084682   -0.22212657    -0.00086260311
   6659000   0.050245906   -0.33282893     0.035796398   -0.22166853    -0.00028036561
   6660000   0.049854782   -0.33308798     0.036496077   -0.22181456     0.00066571982
   6661000   0.050313855   -0.33271632     0.035626296   -0.22162411     0.0017183169 
   6662000   0.049854738   -0.33329066     0.036340408   -0.22217298    -0.0002685998 
   6663000   0.050068507   -0.33298518     0.035628298   -0.22225897     0.0010132319 
   6664000   0.049851936   -0.33335985     0.035902234   -0.22268453    -0.00050293404
   6665000   0.050405349   -0.33353117     0.036157695   -0.22177033     0.0010582376 
   6666000   0.049671767   -0.33306594     0.036111092   -0.22245201    -0.00046116809
   6667000   0.049625393   -0.33365891     0.036255215   -0.2229704      0.001408095  
   6668000   0.049675863   -0.3332232      0.036532534   -0.22218168    -0.001113926  
   6669000   0.050200474   -0.33334574     0.035878175   -0.22217171    -0.0010936031 
   6670000   0.049666941   -0.33307234     0.036255608   -0.22232113    -0.00080781339
   6671000   0.049907197   -0.33315287     0.036079574   -0.22221733     0.001046141  
   6672000   0.049678718   -0.33291112     0.035708386   -0.22268946     0.00045172218
   6673000   0.049834924   -0.33337352     0.036077892   -0.22254806    -0.00024875116
   6674000   0.050116784   -0.33308415     0.035922192   -0.22199163    -0.00081814714
   6675000   0.049933758   -0.3328952      0.035995711   -0.22200368     0.0011999421 
   6676000   0.050699031   -0.33303399     0.036188287   -0.22080207     0.00089363551
   6677000   0.050360042   -0.33295459     0.036204598   -0.22121481    -0.00015240464
   6678000   0.050611431   -0.33290805     0.036248308   -0.22074749    -0.0014235494 
   6679000   0.050097962   -0.33306836     0.035947231   -0.22197903     1.5942139e-05
   6680000   0.049778513   -0.3334753      0.036346053   -0.22246629     0.00028376011
   6681000   0.049978948   -0.33349044     0.035946597   -0.22258026     0.0011572295 
   6682000   0.049464822   -0.3332173      0.036456098   -0.22256875    -7.6481494e-05
   6683000   0.050217706   -0.33306113     0.035494217   -0.22224521     0.0007543664 
   6684000   0.050008721   -0.33292349     0.036265066   -0.22165018     0.00067560724
   6685000   0.050315086   -0.33288439     0.035655706   -0.22176093     0.002486071  
   6686000   0.049873884   -0.33308695     0.036289085   -0.22199186    -0.00084084579
   6687000   0.049588444   -0.33299601     0.036790774   -0.22182737     9.3136275e-05
   6688000   0.049941708   -0.33312358     0.036222831   -0.22199302     0.00012156486
   6689000   0.049981738   -0.33297172     0.036282628   -0.22172132     0.00045865031
   6690000   0.049923436   -0.332695       0.036483151   -0.22133152     0.00029247625
   6691000   0.050447891   -0.33278986     0.036345987   -0.22077692     0.0020185185 
   6692000   0.050236201   -0.33320789     0.03627427    -0.22158418    -0.0011605187 
   6693000   0.049737504   -0.33294155     0.03631167    -0.22202844     9.081277e-05 
   6694000   0.050129458   -0.33295854     0.036451246   -0.22131796    -0.00043787551
   6695000   0.050709234   -0.33256447     0.036271747   -0.22023378    -0.0006925522 
   6696000   0.050104898   -0.33279902     0.036044077   -0.22160244     1.3005091e-05
   6697000   0.050152991   -0.33309831     0.035686962   -0.22218671     0.0010131887 
   6698000   0.050330461   -0.33320044     0.035745993   -0.22196363     0.00016488022
   6699000   0.050102012   -0.33303954     0.035173118   -0.22271826     0.0018586721 
   6700000   0.0500046     -0.33292198     0.036274717   -0.2216452      0.0010443374 
   6701000   0.05014278    -0.33329937     0.03621254    -0.22187751     0.0010093221 
   6702000   0.04974429    -0.33288194     0.036621289   -0.22164903    -0.00057926823
   6703000   0.050493605   -0.33290859     0.035585344   -0.22158773     0.00029773913
   6704000   0.050240882   -0.3331142      0.035910347   -0.22184739    -1.1815932e-06
   6705000   0.050173191   -0.33304018     0.0360701     -0.22171515    -0.00048871772
   6706000   0.050188489   -0.33322554     0.036551025   -0.22139664     6.5813252e-05
   6707000   0.050333459   -0.33305858     0.036176881   -0.22138638     0.00059072035
   6708000   0.049911947   -0.33312358     0.036531734   -0.22172875     6.9948897e-05
   6709000   0.050042109   -0.33304099     0.03655912    -0.22142355    -0.00012530227
   6710000   0.049821054   -0.33352937     0.036532711   -0.2222699     -0.00036811274
   6711000   0.04971591    -0.33337258     0.036578352   -0.22222517    -0.00017122592
   6712000   0.050026657   -0.33324412     0.03610414    -0.22210484     0.00079178285
   6713000   0.049488898   -0.3328927      0.03645322    -0.22221092    -0.0008263165 
   6714000   0.049714651   -0.33305381     0.036216841   -0.2222698      0.00045556324
   6715000   0.050330268   -0.33336535     0.036520091   -0.22135473    -0.00025338689
   6716000   0.050289925   -0.33334131     0.036148328   -0.22176296    -0.00044963181
   6717000   0.050197135   -0.33300317     0.036518922   -0.2211934      0.00029458692
   6718000   0.050011845   -0.33330345     0.036314736   -0.22197579    -0.0008221529 
   6719000   0.050180842   -0.33312191     0.035929823   -0.22192568     0.0017661907 
   6720000   0.050042935   -0.33329104     0.036391077   -0.22184041    -0.00017853461
   6721000   0.050343689   -0.3329686      0.035679227   -0.22177871    -3.7341522e-05
   6722000   0.049694324   -0.33300997     0.036464518   -0.22200877    -0.00015405621
   6723000   0.049819807   -0.33333814     0.035941237   -0.22267201     0.00089396161
   6724000   0.049701899   -0.33313211     0.035941991   -0.22264208    -0.0013996409 
   6725000   0.050117204   -0.33331289     0.036529758   -0.22161218     0.00021732373
   6726000   0.050220244   -0.33319013     0.036115969   -0.22174865     0.00070029052
   6727000   0.050046632   -0.33295333     0.036858625   -0.22102961    -0.00067666558
   6728000   0.050142624   -0.3329784      0.036250077   -0.22151924     0.00030994752
   6729000   0.050284565   -0.33309746     0.035896414   -0.22177906    -0.00011114796
   6730000   0.050071465   -0.33253754     0.035936654   -0.22149853     0.0012364354 
   6731000   0.050976725   -0.33310943     0.036014487   -0.22063479    -0.0016641093 
   6732000   0.050048091   -0.33276187     0.036388482   -0.22130609    -0.0007771875 
   6733000   0.050309304   -0.33294307     0.035791513   -0.22169247     0.00071722106
   6734000   0.050540087   -0.33281854     0.036089374   -0.22092393    -7.0933778e-05
   6735000   0.049983084   -0.33329887     0.036445015   -0.22188406     0.00055057934
   6736000   0.049883331   -0.33330305     0.03653609    -0.22194679    -0.0009805435 
   6737000   0.050098475   -0.33323813     0.0363087     -0.22178656    -0.00064042334
   6738000   0.049679123   -0.33259874     0.036170678   -0.22191419    -0.00023201112
   6739000   0.050300024   -0.33302678     0.036227276   -0.22135434    -0.00063059603
   6740000   0.050645189   -0.33267709     0.036013044   -0.22070116     0.0023651503 
   6741000   0.049621799   -0.33243723     0.036384505   -0.22162483     0.0018334665 
   6742000   0.050186528   -0.33301427     0.036211793   -0.22152754     4.5328044e-05
   6743000   0.050432638   -0.33278651     0.036442903   -0.22069953     0.0010496502 
   6744000   0.050037449   -0.3332293      0.036333219   -0.22184475    -0.0015246722 
   6745000   0.049639348   -0.33346519     0.036403623   -0.22260735     0.00039731585
   6746000   0.050492501   -0.33295455     0.036292392   -0.22092829     0.00057079699
   6747000   0.049950442   -0.33298587     0.035919105   -0.22214593     0.00082225248
   6748000   0.05063237    -0.33321067     0.035966855   -0.22130016    -0.00031099821
   6749000   0.050307692   -0.33292143     0.03565288    -0.22181189    -0.00083989086
   6750000   0.050514562   -0.33365306     0.036633243   -0.22125286    -0.0013771451 
   6751000   0.049794482   -0.33322287     0.035919154   -0.22261681     0.0014667862 
   6752000   0.050534041   -0.33354922     0.035964919   -0.22178813     0.00085588037
   6753000   0.050109525   -0.33308935     0.036342852   -0.22158706    -0.00023280333
   6754000   0.05005563    -0.33314523     0.035137991   -0.22292864     0.0017853091 
   6755000   0.049683199   -0.33291532     0.036066358   -0.22232897    -0.00046210068
   6756000   0.049923259   -0.3335064      0.036110945   -0.2225154      2.2684701e-05
   6757000   0.050119692   -0.33380279     0.036322724   -0.22230538     0.00055839229
   6758000   0.049881105   -0.33279691     0.03615078    -0.2218293      0.00060328211
   6759000   0.049667619   -0.33299177     0.035975616   -0.22251953     0.00086393606
   6760000   0.049734533   -0.33329694     0.036118765   -0.22258119     0.00053370666
   6761000   0.05007639    -0.33327311     0.036310125   -0.22185325    -0.0011657204 
   6762000   0.05055876    -0.33311316     0.036402942   -0.22087697     0.00053450802
   6763000   0.050284885   -0.3330025      0.036542305   -0.22103773    -0.00014628366
   6764000   0.05047318    -0.33352654     0.035725254   -0.2220964      0.00066144848
   6765000   0.050192617   -0.33312559     0.036279788   -0.22156173     0.0018316666 
   6766000   0.050034949   -0.33308923     0.036294192   -0.22174746    -0.00073408638
   6767000   0.050408736   -0.33340219     0.035784878   -0.22200909     0.0011546495 
   6768000   0.050284999   -0.33304178     0.035899053   -0.2217201     -0.00032232876
   6769000   0.049753968   -0.3332393      0.036948582   -0.22166459     0.00015433139
   6770000   0.050174487   -0.33344352     0.03617052    -0.22201612     0.0010634534 
   6771000   0.049915371   -0.33325361     0.036004747   -0.22238064    -0.00020481621
   6772000   0.050263082   -0.33285849     0.036104564   -0.22136417    -0.00027584209
   6773000   0.049985972   -0.333464       0.035738932   -0.22275095    -0.00059531712
   6774000   0.049969719   -0.33283604     0.036201966   -0.22168433    -0.00018690147
   6775000   0.050204997   -0.33338703     0.036164136   -0.22192026    -0.00013401254
   6776000   0.049557965   -0.33290462     0.036318185   -0.22225428     9.2136673e-05
   6777000   0.049959284   -0.33309396     0.036077921   -0.22208195    -0.0023125652 
   6778000   0.050455214   -0.33302804     0.035957362   -0.22139274     5.0036313e-06
   6779000   0.050373288   -0.33354805     0.036588403   -0.22140459     0.00030334364
   6780000   0.049401631   -0.33285212     0.036010648   -0.22274381     0.0011617919 
   6781000   0.05031123    -0.33368326     0.03624657    -0.22197471     0.0015305001 
   6782000   0.050097574   -0.33301082     0.036028823   -0.22184049    -0.00014237753
   6783000   0.049974807   -0.3328024      0.036004586   -0.22184044     5.8750274e-05
   6784000   0.049966901   -0.33336868     0.036423228   -0.22199994     0.0016244828 
   6785000   0.049737734   -0.33312123     0.036475402   -0.22204404    -0.0010262372 
   6786000   0.050330496   -0.33336272     0.036357952   -0.2215139      0.00033096126
   6787000   0.049583993   -0.33302324     0.03599172    -0.22266032    -0.00046297429
   6788000   0.049520763   -0.33332251     0.035996017   -0.22305014     0.00056871554
   6789000   0.049237371   -0.33316744     0.035841578   -0.22347457    -0.00085807692
   6790000   0.049697727   -0.33345126     0.036073658   -0.22283582    -0.00061261747
   6791000   0.050310283   -0.33339004     0.036086685   -0.2218428      0.00029737473
   6792000   0.049645587   -0.33338205     0.036400905   -0.22251757     0.00022152688
   6793000   0.050492858   -0.33321203     0.036126575   -0.22135105    -0.00024633231
   6794000   0.050229746   -0.33340842     0.036605849   -0.22146281     0.0010839055 
   6795000   0.05037133    -0.33308939     0.036386      -0.22115127     4.3916099e-05
   6796000   0.049815064   -0.33298725     0.036736998   -0.22153248    -0.00080608763
   6797000   0.050015557   -0.33289794     0.03638094    -0.22149851    -0.00048554445
   6798000   0.050212588   -0.33308079     0.036172916   -0.22159385    -0.00076707841
   6799000   0.049775913   -0.33331195     0.036390698   -0.2222622      0.00080307648
   6800000   0.050183325   -0.33336485     0.036012396   -0.22208232    -0.0015136141 
   6801000   0.049905363   -0.33320157     0.036556342   -0.22179201     0.00042944381
   6802000   0.049771322   -0.33295816     0.036765109   -0.22154088     9.9994185e-05
   6803000   0.049921334   -0.3334684      0.035854103   -0.22273713    -2.9130645e-05
   6804000   0.049930241   -0.33328987     0.036310136   -0.22208921    -0.00086780466
   6805000   0.050101389   -0.33325038     0.036310893   -0.22179225     0.0010115233 
   6806000   0.050006726   -0.33371752     0.036688557   -0.22202371    -0.00070658334
   6807000   0.049762632   -0.3332494      0.036314852   -0.22229541     0.0001892528 
   6808000   0.050391913   -0.33369371     0.036191464   -0.22191925     0.00070015537
   6809000   0.049769309   -0.33364518     0.036029231   -0.2229668      0.00045022474
   6810000   0.050356809   -0.33352063     0.036106698   -0.2218836     -0.0004832655 
   6811000   0.050379786   -0.33348601     0.036339368   -0.22158184     0.00021715285
   6812000   0.050281616   -0.33311173     0.036148518   -0.22154565    -0.00097830909
   6813000   0.049483186   -0.33294586     0.036503462   -0.22222241    -0.00056004235
   6814000   0.050003597   -0.33379512     0.035740137   -0.22305443     0.00057787514
   6815000   0.049787777   -0.33335398     0.036368872   -0.22230826     0.00091766765
   6816000   0.050506483   -0.33332485     0.036222665   -0.22134735    -0.00091743023
   6817000   0.050660657   -0.33361523     0.036184999   -0.22144415    -0.00067493925
   6818000   0.049713975   -0.33357963     0.035907358   -0.22310612    -4.5180374e-05
   6819000   0.049884698   -0.33388112     0.036090987   -0.22296792     0.0010398039 
   6820000   0.049521617   -0.33351198     0.035899149   -0.2233352      6.1198996e-05
   6821000   0.049539087   -0.33391252     0.03635773    -0.22325096     0.001256492  
   6822000   0.050178132   -0.33346148     0.03677528    -0.22142386     0.00062180794
   6823000   0.050635118   -0.33345376     0.035676123   -0.22182986     0.00095686033
   6824000   0.049336396   -0.33355199     0.036161899   -0.22339027    -0.00032852673
   6825000   0.049905184   -0.33359591     0.036190016   -0.22255295    -0.0011569867 
   6826000   0.050014859   -0.33378414     0.035962846   -0.22280385    -0.00088497594
   6827000   0.050358434   -0.33418015     0.036842609   -0.22180476     3.9182209e-05
   6828000   0.049538856   -0.33368807     0.036169179   -0.2232154     -0.0011517441 
   6829000   0.05013009    -0.33364747     0.036787032   -0.22167016    -0.0011440599 
   6830000   0.050162929   -0.33352597     0.03622194    -0.22206449     0.0017203646 
   6831000   0.050326281   -0.33378104     0.035994875   -0.22230161    -0.00019338708
   6832000   0.049672449   -0.33301815     0.03611374    -0.22240054     0.00065185772
   6833000   0.050773192   -0.33338144     0.035921239   -0.22130533     0.00085346702
   6834000   0.049533404   -0.33352829     0.036833644   -0.22239934    -0.00016465458
   6835000   0.050367261   -0.33352051     0.035686006   -0.22228848     0.0015336971 
   6836000   0.050021589   -0.33363935     0.036136584   -0.22247522     0.00035906609
   6837000   0.050637448   -0.33372574     0.035812282   -0.22196219     0.00052482392
   6838000   0.049883732   -0.33380436     0.036242435   -0.22274115    -0.0007651537 
   6839000   0.050267567   -0.33418238     0.036127907   -0.22265798    -0.00056025859
   6840000   0.049844742   -0.33388125     0.036441891   -0.22267707    -0.00027143462
   6841000   0.050150323   -0.33331749     0.036148216   -0.22194865    -0.0010143503 
   6842000   0.049706831   -0.33376714     0.036315939   -0.22289577     2.7167845e-05
   6843000   0.049999169   -0.33442813     0.036488539   -0.22294568    -0.0014766719 
   6844000   0.050032252   -0.33384281     0.036231035   -0.22256824    -1.5843258e-05
   6845000   0.04950189    -0.33400549     0.036195968   -0.22356147     0.00041114016
   6846000   0.049727863   -0.33361578     0.035350589   -0.22367821     0.00058039822
   6847000   0.049911347   -0.33343021     0.036037889   -0.22253014    -3.5395501e-05
   6848000   0.050150263   -0.33378027     0.035841877   -0.22271785     0.0014789148 
   6849000   0.049747538   -0.33340822     0.036356313   -0.22243542    -0.0006207271 
   6850000   0.050020243   -0.33334156     0.036265907   -0.22205013     0.00089275863
   6851000   0.049922442   -0.33389221     0.035961317   -0.22305206     0.00076390497
   6852000   0.049761485   -0.33364307     0.036129678   -0.22287598    -0.00095007995
   6853000   0.049800902   -0.33355782     0.036029492   -0.2228318      0.00014292527
   6854000   0.049750712   -0.33360588     0.036065417   -0.22291921    -8.8618575e-05
   6855000   0.050194525   -0.33357799     0.036228274   -0.22206279    -0.00042425428
   6856000   0.050182874   -0.33358668     0.03670011    -0.22161711     0.0010346166 
   6857000   0.049983936   -0.3335775      0.036748683   -0.22185775    -0.00079034813
   6858000   0.049501802   -0.33411629     0.03651974    -0.22334864     0.00098246977
   6859000   0.050305543   -0.3339133      0.036272435   -0.22218742     0.00020115067
   6860000   0.049885814   -0.33375746     0.035935428   -0.22299814     0.0010975029 
   6861000   0.05013891    -0.33397555     0.036813417   -0.22195862    -0.00013670792
   6862000   0.050221624   -0.33345316     0.036268169   -0.22185742     0.00045019681
   6863000   0.049689629   -0.33321189     0.036383351   -0.22229891    -0.00025957365
   6864000   0.050179914   -0.33366276     0.03597303    -0.22242471     0.00034904547
   6865000   0.049796227   -0.33363336     0.035970011   -0.22297383    -0.0001379152 
   6866000   0.049842267   -0.33348048     0.036505512   -0.22221639    -6.4884513e-05
   6867000   0.049617111   -0.33321575     0.035818711   -0.22297618     0.001571831  
   6868000   0.050293385   -0.33393146     0.036517804   -0.22197844    -0.00096669511
   6869000   0.050185889   -0.33377153     0.036148021   -0.22234953     0.00031562176
   6870000   0.050274398   -0.33378384     0.035925333   -0.22245177    -0.000512561  
   6871000   0.049716084   -0.33393611     0.036282727   -0.22308407    -0.00049221003
   6872000   0.050719067   -0.33399094     0.035621043   -0.2222962     -1.0688783e-05
   6873000   0.049796281   -0.3338386      0.036698111   -0.22245089    -0.00078327768
   6874000   0.050682932   -0.33388384     0.036089377   -0.22177497    -0.00094747478
   6875000   0.05029523    -0.33368143     0.036243872   -0.22199958    -0.0011046273 
   6876000   0.049832884   -0.33347975     0.036255188   -0.22248006    -2.9672599e-05
   6877000   0.050017791   -0.33351026     0.036590425   -0.22189799    -0.00095772376
   6878000   0.050146841   -0.33352271     0.036694394   -0.22161291     0.00070983149
   6879000   0.050318404   -0.3334333      0.035919499   -0.22204106     0.0001430543 
   6880000   0.049456041   -0.33346946     0.03657674    -0.22271345    -0.0010109619 
   6881000   0.050037365   -0.33353242     0.036401776   -0.22207944     0.0005434776 
   6882000   0.050138391   -0.33343822     0.036585076   -0.22165041     0.0017989749 
   6883000   0.049546984   -0.33317768     0.036004403   -0.22285759     0.0011730431 
   6884000   0.049648194   -0.33385581     0.036420955   -0.22296737    -0.00095418593
   6885000   0.050240941   -0.33398127     0.036009882   -0.22261483    -1.3321045e-05
   6886000   0.049502045   -0.3338026      0.03618581    -0.22336851     0.00012434715
   6887000   0.049489808   -0.33348769     0.035588893   -0.22366887     0.00034095054
   6888000   0.050220832   -0.33366998     0.035671455   -0.22267214    -0.0006595595 
   6889000   0.049991072   -0.33330909     0.035963104   -0.22236421     0.00020893872
   6890000   0.049335399   -0.33350486     0.036564826   -0.22294171     5.8290224e-05
   6891000   0.049661931   -0.3334087      0.035350088   -0.22357052     0.00028971727
   6892000   0.049908408   -0.33357351     0.036029927   -0.2226858     -8.0855495e-05
   6893000   0.049786999   -0.33334567     0.036236138   -0.22243385    -0.0002303917 
   6894000   0.050499816   -0.33369393     0.036165028   -0.22178407    -0.00093720604
   6895000   0.050028796   -0.33430179     0.03631811    -0.22294532    -0.000113062  
   6896000   0.049641801   -0.33403129     0.036086049   -0.22348735     0.0010551412 
   6897000   0.050043694   -0.33389272     0.036134272   -0.22269775    -0.00045238839
   6898000   0.049547061   -0.33320941     0.03627459    -0.22261903    -0.00020481595
   6899000   0.049589779   -0.33369009     0.036471319   -0.2228389      9.7953312e-05
   6900000   0.050037494   -0.33389071     0.036354186   -0.22248513    -0.001623852  
   6901000   0.05015032    -0.33359708     0.036338138   -0.22203832    -0.00018226751
   6902000   0.050163601   -0.33369328     0.03620004    -0.2222527      0.0005406503 
   6903000   0.04979608    -0.33429179     0.036570265   -0.22303223    -0.00081599727
   6904000   0.049905783   -0.33419273     0.036336791   -0.2230021     -0.00053940251
   6905000   0.049873522   -0.33364275     0.035609681   -0.22322761     9.052455e-05 
   6906000   0.049402416   -0.33382495     0.036244836   -0.22348127     2.5044921e-05
   6907000   0.049858417   -0.33387979     0.036283921   -0.22281307     1.5658493e-05
   6908000   0.049590612   -0.33377015     0.036317247   -0.22307179     0.00051717686
   6909000   0.050100929   -0.33390597     0.035806086   -0.22295334    -0.00022524189
   6910000   0.050163447   -0.3340463      0.036084003   -0.22272198     0.00084204426
   6911000   0.049248456   -0.33340146     0.036260336   -0.2232732      1.8222687e-05
   6912000   0.049957015   -0.33374374     0.036437877   -0.22237517     0.0024064234 
   6913000   0.050264578   -0.33405685     0.036417956   -0.22224689    -0.0015418856 
   6914000   0.049544201   -0.33368741     0.03620718    -0.22316872    -0.000686636  
   6915000   0.050536202   -0.33369022     0.036082384   -0.22180842     0.0012693584 
   6916000   0.050255981   -0.33347598     0.036209579   -0.22188729    -1.7068755e-05
   6917000   0.050459121   -0.33393786     0.036533264   -0.22172079    -0.00052517516
   6918000   0.050334173   -0.33373751     0.036223898   -0.22201722    -0.00061141664
   6919000   0.050229858   -0.33365681     0.036679567   -0.22163732     8.5505478e-05
   6920000   0.049400642   -0.33353531     0.036141531   -0.2232976      4.8000067e-05
   6921000   0.049592901   -0.33400212     0.036367072   -0.2232505     -0.0011345759 
   6922000   0.049744419   -0.33370776     0.036196747   -0.2228992      0.0001687419 
   6923000   0.049861498   -0.33367282     0.036413277   -0.22247212     0.00094044419
   6924000   0.050285798   -0.33393152     0.036502834   -0.22200485    -3.0213724e-05
   6925000   0.05007455    -0.33399764     0.035924146   -0.22296652     0.00042485663
   6926000   0.049339363   -0.33358003     0.036061286   -0.22351448     0.00078709658
   6927000   0.050180639   -0.33416967     0.035789777   -0.22311379    -0.00052215709
   6928000   0.05037854    -0.33374836     0.035693423   -0.222492       5.5279439e-05
   6929000   0.050240715   -0.33392836     0.036023506   -0.22254865     0.0001017623 
   6930000   0.05015274    -0.33394373     0.035822686   -0.22289679    -0.00027588955
   6931000   0.049778147   -0.3338971      0.035993642   -0.22324105    -0.00035600162
   6932000   0.050706184   -0.33378748     0.035904385   -0.22182873     0.0011180137 
   6933000   0.049482131   -0.3336209      0.036136685   -0.2232658     -0.00093014028
   6934000   0.049135767   -0.33436822     0.036335141   -0.22433419     2.9345914e-05
   6935000   0.049749415   -0.3340767      0.035684781   -0.22377262    -0.00025165843
   6936000   0.050608871   -0.33391687     0.036167951   -0.22184051    -0.0015242644 
   6937000   0.050308148   -0.33335267     0.036625052   -0.22127027     0.00073961521
   6938000   0.049592361   -0.33392256     0.035665524   -0.2238733      0.00096558148
   6939000   0.049285947   -0.33366479     0.036118426   -0.22362221    -0.0002875418 
   6940000   0.049691912   -0.33367968     0.035573119   -0.2235735      0.00065726302
   6941000   0.050277232   -0.33363505     0.036000753   -0.22222331     0.00073946662
   6942000   0.050065955   -0.33380152     0.035978553   -0.22272888     0.00095800135
   6943000   0.050371947   -0.33380479     0.036278721   -0.22197303     0.00057809983
   6944000   0.050561207   -0.33401872     0.03597685    -0.22220495    -0.0010063978 
   6945000   0.05003349    -0.33362625     0.036337196   -0.22224366    -0.00016023927
   6946000   0.050447094   -0.33397851     0.035840439   -0.22247231    -0.00042292853
   6947000   0.049386262   -0.33401373     0.036627138   -0.22331198     0.00038650818
   6948000   0.049635642   -0.33412618     0.035890015   -0.22378751     0.00087196342
   6949000   0.050188499   -0.33417129     0.035545065   -0.22334833     0.00051151757
   6950000   0.0497589     -0.33389062     0.036142632   -0.22311445    -0.0003869662 
   6951000   0.049323459   -0.33423483     0.036397144   -0.22385727    -0.0018685513 
   6952000   0.050548758   -0.33428522     0.036089332   -0.22237765     0.00074906549
   6953000   0.05012416    -0.33427227     0.036845251   -0.22224563    -0.00066026796
   6954000   0.050387713   -0.33439206     0.036663881   -0.22215148    -0.00031921796
   6955000   0.049987031   -0.33399661     0.036303929   -0.22271698     0.00023721869
   6956000   0.049751017   -0.33406246     0.036590756   -0.22284999     0.0013679622 
   6957000   0.049897392   -0.33412318     0.036329144   -0.22295278     0.001074351  
   6958000   0.04965148    -0.33384696     0.036253077   -0.22312146    -2.6562165e-05
   6959000   0.049406306   -0.33371217     0.035988942   -0.22361855    -0.00098526569
   6960000   0.049833745   -0.33399592     0.035796022   -0.22345411     0.00049286997
   6961000   0.050434398   -0.33420265     0.035854632   -0.2227013      0.0009080204 
   6962000   0.050204213   -0.3340348      0.035989389   -0.22274395     0.001020602  
   6963000   0.04951949    -0.33428068     0.036628028   -0.22337821    -0.00058170791
   6964000   0.050054071   -0.33415055     0.036032901   -0.22304138    -0.0013778459 
   6965000   0.04997355    -0.33437468     0.036409547   -0.22300964    -0.00034606013
   6966000   0.049638156   -0.33398603     0.036154342   -0.22337926    -0.00021385223
   6967000   0.049858145   -0.33417404     0.035930956   -0.22346069     5.3715105e-05
   6968000   0.049467086   -0.33389535     0.03642557    -0.22327394     7.8738026e-05
   6969000   0.050162039   -0.33438472     0.036398033   -0.22274848     0.00056436619
   6970000   0.050136336   -0.33392451     0.036689911   -0.22203495     0.00025412096
   6971000   0.049875783   -0.33408944     0.036189025   -0.22309157    -0.00043437992
   6972000   0.049846103   -0.3342218      0.036029876   -0.22342759    -0.00072136806
   6973000   0.050096286   -0.3341179      0.03665772    -0.2223206     -0.0011123313 
   6974000   0.049742253   -0.33416343     0.036117605   -0.22343726     0.00066947649
   6975000   0.049638182   -0.33420135     0.036860753   -0.22288813     7.9582239e-05
   6976000   0.050722726   -0.33419481     0.036570994   -0.22154464     0.00059071254
   6977000   0.050283703   -0.33417255     0.036434119   -0.22231775    -0.00047645372
   6978000   0.050316795   -0.33384193     0.036033485   -0.22233813     0.00056883135
   6979000   0.05048585    -0.33422189     0.03596966    -0.22252834     3.838963e-05 
   6980000   0.049938479   -0.3340852      0.037007746   -0.22217457    -0.00013679814
   6981000   0.050404181   -0.33416208     0.036900169   -0.22166052    -0.00038374916
   6982000   0.049459078   -0.33396272     0.035922217   -0.22385667     0.00042582965
   6983000   0.049322856   -0.33428493     0.036598213   -0.2237072     -0.00067703106
   6984000   0.049798743   -0.3341272      0.035570835   -0.22386307     0.00090870478
   6985000   0.050033269   -0.33429355     0.035691161   -0.22355733     0.0021996663 
   6986000   0.049691766   -0.33422229     0.03629971    -0.22338974     0.00046055883
   6987000   0.049841598   -0.33403331     0.036472105   -0.22280363    -0.00027231744
   6988000   0.050030697   -0.33422819     0.035652742   -0.22353425     0.00030116625
   6989000   0.049888821   -0.33399406     0.036388207   -0.22277745     0.00056161301
   6990000   0.050205238   -0.33423865     0.03649295    -0.2224427      0.0003013304 
   6991000   0.049675207   -0.33427892     0.035831785   -0.22393913     0.00049220647
   6992000   0.050000215   -0.33447215     0.036303885   -0.22317278     0.00030594754
   6993000   0.05011722    -0.33423938     0.03596995    -0.22309845     0.00088508751
   6994000   0.049955462   -0.33429651     0.036207869   -0.22316029    -0.00069979985
   6995000   0.049640495   -0.33436383     0.03630089    -0.223607       0.00072050652
   6996000   0.049889522   -0.33394716     0.035933258   -0.22318445    -0.00037496552
   6997000   0.050228146   -0.33416618     0.036203842   -0.22262498     1.00579e-05  
   6998000   0.049909634   -0.33403424     0.035474753   -0.22369987    -0.0013315935 
   6999000   0.050236548   -0.33416967     0.035673159   -0.22314655     0.00095655753
   7000000   0.050167193   -0.3343044      0.036085945   -0.22297252    -2.6781428e-05
   7001000   0.049878279   -0.33444061     0.036045691   -0.22358233    -0.00046936662
   7002000   0.050241125   -0.33430071     0.036008059   -0.22293583     0.00080965876
   7003000   0.049992582   -0.33406072     0.036140379   -0.22293631     0.0011318807 
   7004000   0.049767975   -0.3344414      0.036518959   -0.2232753      0.00010969757
   7005000   0.049904437   -0.33443691     0.036239268   -0.22334582    -0.00060169144
   7006000   0.050068043   -0.33366545     0.036571911   -0.22199632     0.00011091763
   7007000   0.050541767   -0.33439899     0.03646157    -0.22212966     7.9410838e-05
   7008000   0.049926379   -0.33391418     0.036502975   -0.22252647    -0.00054080501
   7009000   0.049804498   -0.3342728      0.036358442   -0.22321244    -0.0011361109 
   7010000   0.04981       -0.33446971     0.035649851   -0.22410968    -0.00035301105
   7011000   0.05012657    -0.33402346     0.035611768   -0.22322669     0.0012205943 
   7012000   0.049965916   -0.33406442     0.036561306   -0.22255907    -0.0011574677 
   7013000   0.050405657   -0.33431345     0.035616916   -0.22309292     0.00036359932
   7014000   0.049646412   -0.333853       0.035672609   -0.22371558     0.00050132688
   7015000   0.049904287   -0.33438017     0.036479298   -0.22304927    -0.0012869714 
   7016000   0.050423377   -0.33426083     0.035919506   -0.22271114     0.00077677183
   7017000   0.050027227   -0.3340093      0.036377587   -0.22259572     0.0021729455 
   7018000   0.049848864   -0.33420187     0.036267239   -0.22316616    -0.00026660028
   7019000   0.050417745   -0.33411134     0.035810931   -0.22267867     0.00025722678
   7020000   0.049672496   -0.33425942     0.036167835   -0.22358765     0.00019815045
   7021000   0.049475223   -0.33454624     0.036116348   -0.22422184    -0.00067962585
   7022000   0.049732984   -0.33423937     0.036037896   -0.22360681    -0.0005473435 
   7023000   0.049595882   -0.3341434      0.03552834    -0.22422604    -0.0005649099 
   7024000   0.049578417   -0.3338212      0.036275465   -0.22318291     1.4355649e-05
   7025000   0.049751575   -0.33430291     0.036628372   -0.22305199    -0.00079261838
   7026000   0.05031907    -0.3341901      0.036058334   -0.22265803     0.0019259321 
   7027000   0.050075779   -0.33417349     0.036133826   -0.22293084    -6.349622e-05 
   7028000   0.050173718   -0.33395395     0.036493549   -0.22220468     0.00026470274
   7029000   0.049923399   -0.33387485     0.036136126   -0.22285845     0.0015372989 
   7030000   0.049605711   -0.33390702     0.035947109   -0.22355615    -0.00080000093
   7031000   0.049774551   -0.33414753     0.035355292   -0.22413523     0.00021542257
   7032000   0.049449567   -0.33446238     0.035644219   -0.22464859     0.0014660737 
   7033000   0.049173125   -0.33440943     0.036327736   -0.22432676     0.00076719839
   7034000   0.050195322   -0.33442492     0.035906955   -0.22322984     0.0003954751 
   7035000   0.050295373   -0.33432584     0.035636592   -0.22325105     0.0001235146 
   7036000   0.049923058   -0.33400198     0.036285132   -0.2228371      0.00036597481
   7037000   0.049875547   -0.33416434     0.036605841   -0.22275001     0.00022237456
   7038000   0.049285298   -0.33449939     0.0359316     -0.22464461     2.4936836e-05
   7039000   0.050024309   -0.33453581     0.035678691   -0.22382549     6.4052593e-06
   7040000   0.049749803   -0.33458352     0.036197571   -0.22376606    -0.0010893158 
   7041000   0.050184084   -0.33432662     0.036015736   -0.22303961     0.00096079135
   7042000   0.050371633   -0.33488434     0.036223418   -0.22310835     0.001172376  
   7043000   0.050253382   -0.33474152     0.036020466   -0.22334585     0.00053830507
   7044000   0.050019959   -0.33416965     0.036685777   -0.22245877    -0.00077089968
   7045000   0.04994525    -0.33442796     0.036436927   -0.22307799     0.0017669809 
   7046000   0.050107098   -0.33434033     0.036297079   -0.22288745    -0.0011707463 
   7047000   0.050782816   -0.33431653     0.03657304    -0.22157418     0.0015700313 
   7048000   0.050008856   -0.33429317     0.036009436   -0.22327529    -0.00052136296
   7049000   0.050115578   -0.33425669     0.03597366    -0.22311451     0.00038439173
   7050000   0.04956731    -0.33407275     0.036135171   -0.22359141    -0.0017284404 
   7051000   0.049790111   -0.33473169     0.03633818    -0.22371317     0.00055786961
   7052000   0.050278231   -0.33468348     0.03623383    -0.22303717    -0.0014640755 
   7053000   0.049834156   -0.33438246     0.035861727   -0.22377432     0.0012007902 
   7054000   0.05005029    -0.33444187     0.036355596   -0.22301569     0.00026879483
   7055000   0.050046414   -0.33441045     0.035978484   -0.22336718     0.001512731  
   7056000   0.050333692   -0.33411624     0.036270273   -0.2223503     -0.00022179572
   7057000   0.050062462   -0.33405727     0.037129958   -0.22183846    -0.00092398674
   7058000   0.049524854   -0.33421399     0.036807553   -0.22312395     6.6611177e-05
   7059000   0.049845443   -0.33427671     0.035922955   -0.22359042    -0.00035451424
   7060000   0.049910504   -0.33423593     0.036176798   -0.22319821    -0.0008596934 
   7061000   0.049947722   -0.33436607     0.036529021   -0.2229203     -0.00037856766
   7062000   0.050129967   -0.33451007     0.036386278   -0.22293369    -0.0021620191 
   7063000   0.049903098   -0.33405572     0.035967648   -0.22323825     0.00073634008
   7064000   0.049531223   -0.33416131     0.03616907    -0.2237002      0.00042219015
   7065000   0.050690083   -0.33451619     0.036364251   -0.22212172     0.00045010399
   7066000   0.05025572    -0.3347434      0.036062277   -0.22330241     0.00074697122
   7067000   0.049826976   -0.33419862     0.035858507   -0.22360447     0.0013776837 
   7068000   0.050328136   -0.33434873     0.03523674    -0.22362466    -0.00016474203
   7069000   0.050349566   -0.33468098     0.036355398   -0.22280611    -0.00033946481
   7070000   0.049544594   -0.33428182     0.035818613   -0.22415111     0.00066703611
   7071000   0.04927284    -0.334834       0.036553384   -0.22437613    -0.0011677182 
   7072000   0.049913429   -0.33504398     0.036359016   -0.22381965     0.00045801405
   7073000   0.050118595   -0.33472399     0.036127311   -0.22342364    -0.00095521715
   7074000   0.049644926   -0.33464291     0.035753106   -0.22442722    -0.0005491848 
   7075000   0.050345018   -0.33501884     0.035200703   -0.22430548     0.0011575154 
   7076000   0.050132865   -0.33424828     0.036502619   -0.22255122    -0.00062050951
   7077000   0.05040036    -0.33523302     0.036066884   -0.22357047    -0.00088564089
   7078000   0.050170288   -0.33467551     0.036333145   -0.22309179    -0.00046499057
   7079000   0.050227682   -0.33450878     0.035760515   -0.2234116     -2.8441567e-05
   7080000   0.050488928   -0.33491838     0.036059523   -0.22313035    -0.00084606653
   7081000   0.050030575   -0.33432314     0.036017128   -0.22326499     0.00015706023
   7082000   0.050493298   -0.33466572     0.036045047   -0.22288561    -0.00098424601
   7083000   0.049591414   -0.33501247     0.036028982   -0.22460117    -0.0010244389 
   7084000   0.04968712    -0.33488238     0.036303973   -0.22405254     0.00026248506
   7085000   0.050082021   -0.3345572      0.035948407   -0.22349061    -0.0010690216 
   7086000   0.049526063   -0.33498927     0.035729656   -0.22497532     0.00050053339
   7087000   0.050028395   -0.33461465     0.036784628   -0.22279227    -0.0014133335 
   7088000   0.050346766   -0.3344338      0.035442225   -0.2234763     -0.00031505104
   7089000   0.050635957   -0.33488464     0.036170347   -0.22276525     3.7711977e-06
   7090000   0.049992338   -0.33423856     0.036252677   -0.22300221    -8.5816575e-05
   7091000   0.050045362   -0.33488549     0.036593954   -0.22322833    -0.0022420543 
   7092000   0.050185645   -0.3340962      0.036865033   -0.22195755    -0.00056322309
   7093000   0.050443881   -0.33446823     0.036138432   -0.22266886     0.0013593535 
   7094000   0.050483237   -0.33461029     0.036493384   -0.22239693     0.0010079291 
   7095000   0.049842146   -0.33459991     0.036516026   -0.22332549    -0.00045136045
   7096000   0.050189161   -0.33453709     0.036530445   -0.22272777    -0.0016403608 
   7097000   0.050210934   -0.33454456     0.036560039   -0.22267298    -0.00065611796
   7098000   0.049893293   -0.33418366     0.036541292   -0.22280726    -0.00036507035
   7099000   0.04997539    -0.33449012     0.036881604   -0.22265027    -0.001733945  
   7100000   0.050021787   -0.33428608     0.03620953    -0.22304871     0.00025413889
   7101000   0.050221184   -0.33421343     0.036095872   -0.22279064     0.00055741767
   7102000   0.050204377   -0.33416078     0.036137372   -0.2227217      0.0017800136 
   7103000   0.049867126   -0.33427879     0.036108565   -0.22337436     0.00051462058
   7104000   0.050348143   -0.33435274     0.036451694   -0.2223837      0.00020002133
   7105000   0.049573913   -0.3343925      0.036781482   -0.22325495    -0.00042083126
   7106000   0.04986506    -0.33507128     0.036309188   -0.22396932    -0.0018081567 
   7107000   0.050514121   -0.33492392     0.036499739   -0.22265789     0.00056286342
   7108000   0.050420887   -0.33419863     0.036481605   -0.22209057    -0.00048203566
   7109000   0.050416989   -0.33469589     0.036369834   -0.22270545    -0.00012439078
   7110000   0.050032562   -0.33457916     0.035718076   -0.22381708     0.0005907453 
   7111000   0.050005192   -0.33501425     0.035796385   -0.22421492    -0.0011068711 
   7112000   0.050145842   -0.3344433      0.036195108   -0.22303429     0.0010535777 
   7113000   0.050363271   -0.33471225     0.036100823   -0.2230714     -0.0013334138 
   7114000   0.050192556   -0.33442123     0.035524963   -0.22361229     0.00097575042
   7115000   0.049440599   -0.33449711     0.036109766   -0.22423123    -0.00040785288
   7116000   0.050077124   -0.33446585     0.036370498   -0.22298451     8.6750769e-06
   7117000   0.050334329   -0.33451531     0.036409954   -0.22260874     0.0015422259 
   7118000   0.050165464   -0.33450085     0.036261436   -0.22299608     0.00055305873
   7119000   0.050605271   -0.33496978     0.036066896   -0.22299987     0.00030088433
   7120000   0.049728919   -0.33476982     0.035699523   -0.22448173    -0.0013312423 
   7121000   0.049567462   -0.33486016     0.035756121   -0.22475764     0.0011139284 
   7122000   0.050112702   -0.33444908     0.035024853   -0.22426002     0.0015402421 
   7123000   0.050468029   -0.33467997     0.036147097   -0.22283572     0.00049101992
   7124000   0.050056858   -0.33500375     0.035894501   -0.2240288     -1.1846174e-05
   7125000   0.050236247   -0.33441427     0.036210366   -0.2228544      6.7601101e-05
   7126000   0.049608825   -0.33445267     0.036549744   -0.22349449    -5.0471219e-05
   7127000   0.049888648   -0.33452148     0.036448321   -0.22324502    -0.00055000662
   7128000   0.05031352    -0.33477086     0.036194558   -0.22311089     0.00020671114
   7129000   0.050354165   -0.33502753     0.036045402   -0.22345575     9.4284592e-05
   7130000   0.050134942   -0.33430701     0.036338042   -0.22277141     0.001953557  
   7131000   0.050097857   -0.33458508     0.036051748   -0.22339139    -0.00084673591
   7132000   0.04994208    -0.33454434     0.036755973   -0.22288008    -0.00058925057
   7133000   0.049892984   -0.33457212     0.036529274   -0.2232082     -0.0011401618 
   7134000   0.049882411   -0.33461338     0.035469034   -0.22432556    -3.191771e-05 
   7135000   0.049870784   -0.33439406     0.036134832   -0.22345788    -0.00090634492
   7136000   0.049333663   -0.33453675     0.036286253   -0.22425478    -0.00019219625
   7137000   0.050035077   -0.33471018     0.03588709    -0.22377532     0.0010002878 
   7138000   0.049192935   -0.33493169     0.036584504   -0.22456254     0.00037656762
   7139000   0.049697403   -0.33448296     0.036503725   -0.22343794    -0.001113283  
   7140000   0.050362742   -0.33454279     0.035585034   -0.22341852     7.80178e-05  
   7141000   0.049895964   -0.33457854     0.036308954   -0.22343047     0.0004239831 
   7142000   0.04969784    -0.33415488     0.035638534   -0.22397439    -0.00034727886
   7143000   0.049571715   -0.33441866     0.036263293   -0.22380259     0.00054831609
   7144000   0.049880914   -0.33427137     0.035985805   -0.22346902     0.001163708  
   7145000   0.050269654   -0.33461259     0.03653595    -0.22267702     0.0013620593 
   7146000   0.050165939   -0.33492233     0.036125748   -0.22355253     0.0003831292 
   7147000   0.049847386   -0.33472022     0.03581026    -0.2241437      0.00098925485
   7148000   0.049789624   -0.33464938     0.035932139   -0.22403762     0.0018394221 
   7149000   0.050039523   -0.33482547     0.036735432   -0.2230356      0.00032256249
   7150000   0.051133736   -0.3346566      0.036013337   -0.22194761     0.001052026  
   7151000   0.049544329   -0.33436983     0.035957232   -0.2241009      0.00013008842
   7152000   0.04993111    -0.33434828     0.036110928   -0.22334552     0.00091358451
   7153000   0.049464771   -0.33450878     0.036627684   -0.22368873    -0.00021989221
   7154000   0.049941474   -0.33473756     0.035517179   -0.22431301    -0.00080065233
   7155000   0.05023333    -0.3343348      0.035815861   -0.2231738     -5.1157646e-05
   7156000   0.049882293   -0.33485261     0.03630792    -0.22372608     0.0011491545 
   7157000   0.050107222   -0.33469302     0.035991193   -0.22354584    -0.00055742023
   7158000   0.049933017   -0.33494213     0.036201405   -0.22384603    -0.0002730122 
   7159000   0.050303239   -0.33456578     0.035797208   -0.22331858     0.0010684454 
   7160000   0.049623402   -0.33442518     0.035671317   -0.22432356     0.00026544104
   7161000   0.049751315   -0.33488729     0.035717649   -0.22454748     0.0016150581 
   7162000   0.04998073    -0.3349029      0.035943908   -0.22399274     0.00021098053
   7163000   0.049581447   -0.3346803      0.036144915   -0.22416801     0.00040804215
   7164000   0.05000849    -0.3343209      0.036357123   -0.22295588     0.00085252403
   7165000   0.050156755   -0.33439613     0.036228954   -0.2229369      0.00072034317
   7166000   0.050149963   -0.33451863     0.035838833   -0.22345971    -4.8644111e-05
   7167000   0.050397243   -0.33467987     0.036269627   -0.22281925     0.00097848895
   7168000   0.050404582   -0.33475676     0.036312126   -0.22284264     0.00047726741
   7169000   0.050014781   -0.33439211     0.036063365   -0.22331142     0.0023487676 
   7170000   0.049564123   -0.33478616     0.036626381   -0.2238184     -0.00072190029
   7171000   0.049746456   -0.33484695     0.036072064   -0.22416002    -0.00035593429
   7172000   0.050197091   -0.33459792     0.035955343   -0.22335179     0.0017426717 
   7173000   0.050169975   -0.33499317     0.036015152   -0.22372791    -0.0011372405 
   7174000   0.04985411    -0.33524242     0.035727997   -0.22473809    -0.0005117057 
   7175000   0.049649107   -0.33467547     0.036210344   -0.22399627     0.00096121633
   7176000   0.049411095   -0.33482227     0.036191374   -0.22451904     0.00021374025
   7177000   0.05002765    -0.33477        0.036087375   -0.223646       0.00014633636
   7178000   0.050005252   -0.33445095     0.0365396     -0.22290831    -1.2199818e-05
   7179000   0.049871322   -0.33483066     0.036185129   -0.22384337    -0.00048148814
   7180000   0.049617337   -0.33498779     0.036129627   -0.22443696     0.00066543932
   7181000   0.049698358   -0.33532669     0.036479702   -0.22430426    -0.0010107303 
   7182000   0.050025105   -0.33510534     0.036143246   -0.22392928     5.6445227e-06
   7183000   0.050007037   -0.33471848     0.036274256   -0.22343851     0.0015213804 
   7184000   0.04999218    -0.33476922     0.036367397   -0.22341839    -0.0017146136 
   7185000   0.050327266   -0.3342759      0.036019904   -0.22276996     0.0005625116 
   7186000   0.050043764   -0.33475229     0.035901029   -0.22379046    -1.571022e-05 
   7187000   0.050811559   -0.33479291     0.036023647   -0.22255684    -0.00036010623
   7188000   0.050407294   -0.33498221     0.036213951   -0.2231622      0.00033481278
   7189000   0.050208697   -0.33457138     0.036618167   -0.22264503     0.0003937395 
   7190000   0.050042047   -0.33442884     0.036696933   -0.22267368    -8.7861115e-05
   7191000   0.050039479   -0.33477916     0.036207412   -0.22351737     0.0014505363 
   7192000   0.049776875   -0.33494631     0.036279742   -0.22400607    -0.0010802696 
   7193000   0.049628044   -0.33502205     0.036615589   -0.2239692     -0.00064619049
   7194000   0.049832909   -0.33489764     0.036701383   -0.22345172     0.00045578393
   7195000   0.049300511   -0.33464844     0.036281902   -0.22442055    -0.00097032915
   7196000   0.049995683   -0.33464032     0.036036816   -0.22361482     0.0011657045 
   7197000   0.049573839   -0.33464465     0.035809748   -0.22447894    -0.0014115829 
   7198000   0.050569671   -0.33485488     0.035853812   -0.22315146     0.00041136574
   7199000   0.050303797   -0.33486213     0.035802863   -0.22360844    -0.0015450628 
   7200000   0.050276649   -0.33460382     0.036189596   -0.22300411     0.0015859608 
   7201000   0.04948829    -0.33494513     0.036482314   -0.22423517     0.00053963544
   7202000   0.049874381   -0.33467076     0.036060702   -0.22380331     0.00014847344
   7203000   0.049961569   -0.33486981     0.036365532   -0.22356676     0.00027136847
   7204000   0.049411401   -0.33479485     0.036315131   -0.2243674      0.00014884558
   7205000   0.050063758   -0.33486688     0.035923517   -0.22385257     0.00031851999
   7206000   0.050329996   -0.33471838     0.035935131   -0.22329312    -0.00076157609
   7207000   0.049970622   -0.33420168     0.036125589   -0.223125      -0.00063778024
   7208000   0.050200381   -0.33454929     0.036041692   -0.22321189    -0.00044995664
   7209000   0.050043421   -0.33421547     0.035747417   -0.22340777     0.0010344672 
   7210000   0.049807637   -0.33428215     0.036513822   -0.22306169     0.0012066074 
   7211000   0.050169002   -0.33443658     0.035935846   -0.22325209     0.00076453709
   7212000   0.049705425   -0.33463844     0.035634515   -0.2244506      0.00070037844
   7213000   0.050180292   -0.33469986     0.036558703   -0.22287557    -0.00088568182
   7214000   0.049921236   -0.33473599     0.036527011   -0.22333196     0.0010101157 
   7215000   0.050093524   -0.33466682     0.036317987   -0.22321339     0.00055409682
   7216000   0.04994695    -0.33448715     0.03603153    -0.22354003     0.001692924  
   7217000   0.050081181   -0.33505104     0.035774762   -0.22415935     7.9270017e-05
   7218000   0.050039733   -0.33478635     0.036407717   -0.22332387    -0.00040454415
   7219000   0.049911076   -0.33473286     0.036498599   -0.22337247    -0.0006635165 
   7220000   0.049785492   -0.33482503     0.0366199     -0.22353171    -0.00048509019
   7221000   0.049843995   -0.33497232     0.037012718   -0.22319843    -0.0011229761 
   7222000   0.049732614   -0.33487798     0.036713168   -0.2235707     -0.00089021212
   7223000   0.04992708    -0.33475328     0.036642943   -0.22322455    -0.0014885982 
   7224000   0.049628283   -0.33484554     0.036086956   -0.22432096     0.00072172386
   7225000   0.050183211   -0.33473963     0.036300198   -0.22316947    -0.0005862255 
   7226000   0.04955595    -0.3344212      0.036326681   -0.22376539    -0.00038099551
   7227000   0.049772787   -0.33478762     0.035734665   -0.22439859     0.0017682304 
   7228000   0.049850021   -0.33490599     0.036285244   -0.22385054    -0.00034776071
   7229000   0.049789342   -0.3347511      0.035623036   -0.22444887     0.00051148018
   7230000   0.049814251   -0.33455583     0.036621948   -0.22321733    -6.0708916e-05
   7231000   0.050107535   -0.33514789     0.036396616   -0.22359482    -0.00074766032
   7232000   0.050275507   -0.33460802     0.036995015   -0.22220461    -0.001958669  
   7233000   0.050261354   -0.33470156     0.036618169   -0.22269622     0.00048130967
   7234000   0.050256119   -0.33462896     0.036596413   -0.22265323    -0.00079699223
   7235000   0.05059799    -0.33496068     0.036146972   -0.22292162    -0.00032260233
   7236000   0.049969289   -0.33465251     0.036095558   -0.22360785    -0.00028621777
   7237000   0.050532408   -0.33443773     0.036531998   -0.22211201    -0.00046007101
   7238000   0.050361356   -0.33461517     0.03646039    -0.22261762     0.0001588236 
   7239000   0.050192419   -0.33465338     0.036327099   -0.22304251    -0.00090739855
   7240000   0.050008166   -0.33482515     0.036183569   -0.22363418     9.139805e-05 
   7241000   0.049815683   -0.3347583      0.036220934   -0.22381866    -5.1911439e-05
   7242000   0.050454261   -0.334951       0.035571984   -0.2237025     -1.8852082e-05
   7243000   0.050145429   -0.3347855      0.035480999   -0.22409121    -0.00049384801
   7244000   0.049585633   -0.33489179     0.036654565   -0.22386357     0.00020106305
   7245000   0.050355705   -0.3347916      0.035879671   -0.22338324     0.00092249147
   7246000   0.049803573   -0.33485774     0.036511759   -0.22364544     0.00059115177
   7247000   0.050163092   -0.33510241     0.03637516    -0.22348747    -0.0014478868 
   7248000   0.049389581   -0.33503792     0.036421345   -0.22453698    -0.0012471469 
   7249000   0.050085425   -0.33524482     0.036053128   -0.22406841     0.00020426704
   7250000   0.050288825   -0.33507885     0.036573212   -0.22307727     0.00042330942
   7251000   0.049974795   -0.33460741     0.036540935   -0.22310912     8.5548648e-05
   7252000   0.049938752   -0.33469138     0.036179908   -0.22360818    -0.00013202001
   7253000   0.050529391   -0.33462724     0.036048138   -0.2227899      0.0013800092 
   7254000   0.050187783   -0.33490794     0.036800637   -0.22283049    -0.00041430885
   7255000   0.049925928   -0.33512069     0.036920589   -0.22331604     0.00027566534
   7256000   0.050233592   -0.33531154     0.036801278   -0.22316474    -0.0014184126 
   7257000   0.050766334   -0.33500246     0.036333451   -0.22252442    -0.00058128218
   7258000   0.050440743   -0.33464823     0.035893948   -0.22309805    -0.00032781404
   7259000   0.050372914   -0.33525258     0.036663789   -0.22303429    -0.00055226777
   7260000   0.050471548   -0.33491665     0.035639295   -0.22357492     0.00048720447
   7261000   0.050594429   -0.33473834     0.036347215   -0.22250438     0.00092697807
   7262000   0.049954077   -0.33466334     0.036643297   -0.22309376    -0.0019275818 
   7263000   0.050197787   -0.33478104     0.035844538   -0.22364468     0.00077638102
   7264000   0.049970808   -0.33521436     0.036126565   -0.22413642     0.0010607656 
   7265000   0.049954577   -0.33543368     0.03560316    -0.22490349    -0.00098599842
   7266000   0.049927825   -0.33485792     0.036353552   -0.22361746     0.00065963766
   7267000   0.050388731   -0.33518238     0.036470355   -0.2231338      0.0004094315 
   7268000   0.049620843   -0.33488459     0.036189756   -0.22426837    -0.00054425922
   7269000   0.049988897   -0.33492944     0.03619353    -0.2237574     -0.00030950973
   7270000   0.049878478   -0.33493532     0.036129774   -0.22399265     0.00012607465
   7271000   0.049984335   -0.33488633     0.036150393   -0.22376427    -0.00047421824
   7272000   0.049776175   -0.33500915     0.036184651   -0.22416505    -0.0005020297 
   7273000   0.049922663   -0.33443029     0.035867331   -0.2236838      0.00041211255
   7274000   0.050706553   -0.33496263     0.036521359   -0.22238635     0.00027594177
   7275000   0.049693406   -0.33454647     0.036199067   -0.2238121     -0.00042144242
   7276000   0.05049349    -0.33500404     0.036220693   -0.22304799    -0.00053013364
   7277000   0.049494041   -0.33486519     0.037045061   -0.22358385    -0.0010549649 
   7278000   0.050537656   -0.33507274     0.035946006   -0.22332514     0.0004083054 
   7279000   0.049701802   -0.335119       0.036370422   -0.22420069     4.1848072e-05
   7280000   0.050593831   -0.33498201     0.036487102   -0.22260906    -0.0009513637 
   7281000   0.050566546   -0.33504004     0.03537351    -0.2238216     -5.7995487e-05
   7282000   0.049413545   -0.33479145     0.035810349   -0.22486556    -0.00028646302
   7283000   0.050189697   -0.33515304     0.036043337   -0.22383001     0.0011928774 
   7284000   0.049878209   -0.33503873     0.036385781   -0.22384046    -0.00023612168
   7285000   0.049733961   -0.33499076     0.035747024   -0.22464761     0.00038871103
   7286000   0.050393093   -0.33475065     0.035863084   -0.22330281     0.00075312105
   7287000   0.050467211   -0.33472518     0.036001645   -0.2230276      0.00013171055
   7288000   0.049982338   -0.33500212     0.036471263   -0.22356219     0.00078987432
   7289000   0.050120485   -0.33538833     0.036165271   -0.22404718     0.00054867566
   7290000   0.050630787   -0.33508069     0.035823035   -0.22331637    -0.00040342126
   7291000   0.050055574   -0.33560645     0.03667259    -0.22385534     0.00065353219
   7292000   0.049610549   -0.33510699     0.0362196     -0.22447637    -0.00023896629
   7293000   0.049711913   -0.33563622     0.036566193   -0.22450696    -0.00075908947
   7294000   0.050207203   -0.33519835     0.035880624   -0.22401178     0.00038323209
   7295000   0.050273679   -0.33517607     0.036592816   -0.2231776     -0.00067913954
   7296000   0.050079325   -0.3349557      0.036641016   -0.22320054     0.00095606288
   7297000   0.050299274   -0.33511063     0.036726907   -0.22293968    -5.5620439e-05
   7298000   0.050073229   -0.3348968      0.036036933   -0.22375487     0.0016343858 
   7299000   0.050615231   -0.33469246     0.035749199   -0.22302532     4.1046722e-05
   7300000   0.050742398   -0.33466768     0.036400056   -0.22215894    -0.0012983121 
   7301000   0.050622891   -0.33464081     0.036467726   -0.22224365     8.4808565e-05
   7302000   0.050266446   -0.33488944     0.03599542    -0.22349922     0.0007022183 
   7303000   0.049991862   -0.33506518     0.036019631   -0.22406259     0.00019324941
   7304000   0.049514215   -0.33499704     0.036388546   -0.22434196    -0.00053127472
   7305000   0.050111855   -0.33503254     0.036527242   -0.22334237     0.0010890429 
   7306000   0.050108284   -0.33517649     0.035896803   -0.22412211     0.0014256031 
   7307000   0.050380919   -0.33504241     0.035724144   -0.22375177     0.00020141359
   7308000   0.049794382   -0.33515021     0.036018009   -0.22444545    -0.00034298612
   7309000   0.050406029   -0.33510833     0.035506336   -0.22399783     9.8067927e-05
   7310000   0.049589776   -0.33521941     0.036725261   -0.22411429     0.00056923346
   7311000   0.049684468   -0.33502651     0.036166349   -0.22433827     0.00058484548
   7312000   0.049782137   -0.33521484     0.036148677   -0.22439778    -0.0012523251 
   7313000   0.050412103   -0.33529362     0.035936155   -0.22374419    -0.00042641995
   7314000   0.050472314   -0.33483192     0.036013692   -0.22311464     0.0013979819 
   7315000   0.050460419   -0.33533537     0.035660589   -0.22398904     0.00037403432
   7316000   0.050053253   -0.33545291     0.036440527   -0.22393735    -0.00081091637
   7317000   0.050535028   -0.33517415     0.036230209   -0.22314629     0.00029430539
   7318000   0.049835614   -0.33533591     0.036479144   -0.22410817    -0.0010302735 
   7319000   0.049709911   -0.33488341     0.035831593   -0.22449176    -0.00038865799
   7320000   0.049323351   -0.33468871     0.036210803   -0.22449765     0.00068596542
   7321000   0.050206288   -0.33540625     0.03645492    -0.22364676     0.00031907409
   7322000   0.049927906   -0.33496482     0.036082097   -0.2239957     -0.00017402349
   7323000   0.049586825   -0.33496865     0.036172201   -0.22442101     0.00018854728
   7324000   0.049882897   -0.33494036     0.035845239   -0.22427561     0.0010337699 
   7325000   0.050133496   -0.33519277     0.036411999   -0.22358538     0.00050995233
   7326000   0.049953712   -0.33505434     0.0354863     -0.2246423      0.00021598366
   7327000   0.049793753   -0.33551203     0.036369784   -0.22445643     0.00073799689
   7328000   0.050060178   -0.33534235     0.03615669    -0.22410024    -0.00053261938
   7329000   0.050317059   -0.33519391     0.036023904   -0.22369929    -0.00018373327
   7330000   0.050282582   -0.33486948     0.036077622   -0.22337285     0.000616781  
   7331000   0.050048777   -0.33534598     0.036538703   -0.22373896    -0.0011258914 
   7332000   0.05046086    -0.33525638     0.036088437   -0.22348154    -0.0011916124 
   7333000   0.050423182   -0.3350904      0.036393532   -0.22306698    -0.00029851131
   7334000   0.050546271   -0.33504327     0.036373573   -0.22285518     0.00073941957
   7335000   0.049864144   -0.33543802     0.03667488    -0.22397175     0.00027321248
   7336000   0.050280189   -0.33479336     0.036324655   -0.22305328    -0.0011045574 
   7337000   0.049862962   -0.33457495     0.035608949   -0.22417638     0.00095182885
   7338000   0.050245898   -0.33475962     0.035774659   -0.22362097     0.00083906628
   7339000   0.049911259   -0.33480128     0.036679919   -0.2232593     -9.7300228e-05
   7340000   0.050347064   -0.33501672     0.036076074   -0.22342493     0.00016849953
   7341000   0.050169894   -0.3346737      0.035779439   -0.22364428     0.0015227406 
   7342000   0.050027186   -0.3346051      0.035629346   -0.22393982     0.00046564549
   7343000   0.050072589   -0.33529141     0.036528241   -0.22365914    -0.00018885251
   7344000   0.049999067   -0.33496898     0.036443624   -0.22353159    -0.00046775989
   7345000   0.049606437   -0.3351799      0.036422063   -0.22435298     6.9953015e-05
   7346000   0.049777609   -0.33465928     0.035963022   -0.22403466     0.00030762492
   7347000   0.050064672   -0.33499221     0.03606376    -0.22383629    -0.00037191534
   7348000   0.050077243   -0.33542688     0.0359728     -0.22434306    -0.001171895  
   7349000   0.049225171   -0.33560703     0.036635465   -0.22513857     0.00077597735
   7350000   0.050183861   -0.33525325     0.036118062   -0.22386425     0.00077500307
   7351000   0.049872592   -0.33516361     0.036021215   -0.22433834    -0.00035797836
   7352000   0.050198468   -0.33482858     0.035686205   -0.22384953     0.00069788196
   7353000   0.050120031   -0.33509655     0.036324611   -0.22359675     0.00054038803
   7354000   0.050159047   -0.33497206     0.0361173     -0.22362104     0.00066013211
   7355000   0.049921033   -0.33509426     0.035996311   -0.22422123     0.00020604786
   7356000   0.049993991   -0.3351775      0.035345867   -0.22484549     0.00013195565
   7357000   0.049893256   -0.33531228     0.036350529   -0.22412669    -0.0012108882 
   7358000   0.050356404   -0.3346866      0.036008117   -0.22314875     0.00059664349
   7359000   0.050680921   -0.33526088     0.035735028   -0.22350937     0.0011831583 
   7360000   0.050327271   -0.33524795     0.03626358    -0.22349833     0.0004029673 
   7361000   0.049972924   -0.33524295     0.036032757   -0.22425564    -0.00077867633
   7362000   0.050070467   -0.33495956     0.03567592    -0.22418279     0.00087068624
   7363000   0.049437764   -0.33507502     0.035973524   -0.22494963    -0.00051899172
   7364000   0.049735791   -0.33520272     0.036190557   -0.22441329    -0.00060143194
   7365000   0.050355626   -0.3351088      0.03632591    -0.22325433     2.3498737e-05
   7366000   0.050638828   -0.3348992      0.03616301    -0.22278285     0.0014373413 
   7367000   0.05080422    -0.33491141     0.036852754   -0.22185724    -0.0020570203 
   7368000   0.050283356   -0.33473413     0.037062426   -0.22225153    -0.00051365257
   7369000   0.049914784   -0.33522136     0.036194675   -0.22415934     0.00026876994
   7370000   0.049670486   -0.33503489     0.035975605   -0.22455836    -0.00044757261
   7371000   0.049621483   -0.33525771     0.036705328   -0.22412496     0.00019033883
   7372000   0.049826602   -0.33511476     0.036087479   -0.2242922      0.00066063338
   7373000   0.049627014   -0.33512621     0.036764805   -0.22392569    -0.00017023627
   7374000   0.049579599   -0.33529171     0.03616334    -0.22476376    -0.0007175424 
   7375000   0.05004131    -0.3349902      0.035179954   -0.22475312     0.00014286473
   7376000   0.05001799    -0.33495104     0.036211408   -0.22371748     9.3269269e-05
   7377000   0.049899364   -0.33524643     0.036189514   -0.2242127      0.00080140637
   7378000   0.049919472   -0.33527709     0.036186605   -0.2242161     -0.00060065686
   7379000   0.050230791   -0.33518985     0.036118665   -0.22372986    -0.001245467  
   7380000   0.049821823   -0.33539129     0.036123102   -0.22454027     0.0028832663 
   7381000   0.049678866   -0.33500769     0.035915504   -0.2245787     -0.00039132227
   7382000   0.049923035   -0.33481933     0.036254924   -0.22368469     0.00087771247
   7383000   0.050108527   -0.33504299     0.036076349   -0.2238087      0.00036904159
   7384000   0.050283026   -0.33449461     0.035893229   -0.22318171     0.0015380732 
   7385000   0.049769377   -0.33490838     0.036376142   -0.22388299     0.00046181926
   7386000   0.049623719   -0.33497819     0.035955458   -0.22459195     0.00039932   
   7387000   0.050565125   -0.33479151     0.035666387   -0.22328233    -0.0011122066 
   7388000   0.049751993   -0.33514134     0.036420287   -0.22409788     0.00021844008
   7389000   0.05036236    -0.33547557     0.035833154   -0.22410375     0.00035486186
   7390000   0.050127428   -0.3351545      0.036464375   -0.22350384     0.00064893296
   7391000   0.050003813   -0.33512007     0.036635861   -0.22348332    -0.00081589761
   7392000   0.05029121    -0.33500831     0.036057747   -0.22351861     8.9544476e-05
   7393000   0.049945261   -0.33534367     0.036260651   -0.22416996     0.00090609977
   7394000   0.050274572   -0.33528505     0.035713105   -0.22416495     0.0004594295 
   7395000   0.050295702   -0.33488856     0.036651484   -0.22279839    -0.0011732706 
   7396000   0.05003293    -0.33506345     0.036325016   -0.22369388     0.00079284821
   7397000   0.050252568   -0.33503794     0.036268861   -0.22339509    -0.00018442353
   7398000   0.050260518   -0.33517707     0.036037185   -0.22375398     0.00048697175
   7399000   0.050352604   -0.33459755     0.036435054   -0.22263846     0.0013056722 
   7400000   0.050985946   -0.33530829     0.037008255   -0.22182605    -0.001305655  
   7401000   0.049838609   -0.33506364     0.036130503   -0.22418005    -0.00063999555
   7402000   0.050011914   -0.33512142     0.035075806   -0.22503259     0.0012307068 
   7403000   0.049933289   -0.33537963     0.036247241   -0.22423728    -0.00077976071
   7404000   0.049386598   -0.33494228     0.036540495   -0.22432667    -0.00057558632
   7405000   0.050040158   -0.33514396     0.035688725   -0.22439984     0.00056631033
   7406000   0.0503518     -0.33486817     0.036085921   -0.22325942     6.9759821e-05
   7407000   0.050081696   -0.33492378     0.036154889   -0.2236512     -0.0013919748 
   7408000   0.049929842   -0.33498365     0.036144789   -0.22394892     0.00038436484
   7409000   0.049786458   -0.33486182     0.036492758   -0.22369419     0.001562309  
   7410000   0.050237221   -0.33508705     0.036671473   -0.22306461    -0.00046398789
   7411000   0.050407286   -0.33474704     0.036501408   -0.22263958     0.0012674504 
   7412000   0.050494543   -0.33506589     0.036429146   -0.22289982     8.2613751e-05
   7413000   0.050330406   -0.33537352     0.036247745   -0.22363503    -0.00082209784
   7414000   0.049959154   -0.33508237     0.035951163   -0.22419731     0.00043663265
   7415000   0.050128261   -0.3349696      0.035877052   -0.223905      -0.0012355678 
   7416000   0.05016493    -0.33534122     0.035944896   -0.22415378    -0.00029352032
   7417000   0.050208128   -0.33483879     0.036343894   -0.22318756    -0.00064630294
   7418000   0.050196935   -0.33537085     0.036729294   -0.22335101    -0.00075760024
   7419000   0.050518709   -0.33567853     0.03675989    -0.22314547     0.00042679952
   7420000   0.049738694   -0.33532659     0.035945543   -0.22477782    -0.00026181389
   7421000   0.049990206   -0.33524073     0.036124562   -0.2241357      0.00088145864
   7422000   0.050206136   -0.33550538     0.036483014   -0.22371802    -0.0017823048 
   7423000   0.049700125   -0.33537167     0.036363903   -0.22446239    -0.00089994269
   7424000   0.050634338   -0.33551698     0.03608669    -0.22348368     2.7102007e-05
   7425000   0.049539975   -0.3353575      0.036289943   -0.22476239    -0.00093085777
   7426000   0.04972721    -0.33526511     0.03565044    -0.22502867     0.0006863509 
   7427000   0.050076591   -0.33525798     0.036178271   -0.22396967    -0.00034616861
   7428000   0.049975725   -0.33539699     0.036562491   -0.22387575    -0.0011926829 
   7429000   0.049958683   -0.33547543     0.036525062   -0.22401718    -0.00065073514
   7430000   0.05028945    -0.33554214     0.036354434   -0.2237584      0.00066485581
   7431000   0.049859122   -0.33506293     0.036326641   -0.22395243     0.00025249051
   7432000   0.049778297   -0.33522602     0.036209674   -0.22435372     0.0012608077 
   7433000   0.049529059   -0.33553886     0.035524182   -0.22572588     0.00041544374
   7434000   0.050197838   -0.3352393      0.03598692    -0.22396048    -0.0010633885 
   7435000   0.049959425   -0.33546089     0.036320678   -0.22420591    -0.0006210186 
   7436000   0.050104806   -0.33542351     0.03555302    -0.22471813     0.00015880587
   7437000   0.049280319   -0.33530783     0.03637201    -0.22502011    -0.00074826808
   7438000   0.050075736   -0.33555453     0.035778396   -0.22466737    -8.9893658e-05
   7439000   0.050043236   -0.33526856     0.036263871   -0.22394468    -0.00021029864
   7440000   0.049502684   -0.33557933     0.036232719   -0.22509737    -0.00098496187
   7441000   0.049988192   -0.33541145     0.035580146   -0.22485385     0.0014153269 
   7442000   0.049678856   -0.3354823      0.035552776   -0.22541605     0.0002647749 
   7443000   0.049650783   -0.33536142     0.036360624   -0.22452942    -0.00022787555
   7444000   0.049940067   -0.33498816     0.036120373   -0.22396252     0.00045432467
   7445000   0.049805547   -0.33497222     0.035909646   -0.22435908     0.00019404712
   7446000   0.050277202   -0.33528763     0.035767713   -0.22410898    -0.00094376233
   7447000   0.04976268    -0.33499233     0.036651217   -0.22370191    -0.00060325574
   7448000   0.050582364   -0.33538032     0.036338822   -0.22317285    -0.00074752568
   7449000   0.049864483   -0.33515255     0.036840511   -0.22352014    -1.9211219e-05
   7450000   0.050217603   -0.33513451     0.036325727   -0.22348724     0.00017903859
   7451000   0.0498327     -0.33500862     0.036270294   -0.2239941      0.00028631548
   7452000   0.050057799   -0.33504617     0.035901159   -0.22406316    -0.0014507181 
   7453000   0.049463939   -0.33513745     0.036553024   -0.22439331     0.000269139  
   7454000   0.04980169    -0.33494164     0.035677441   -0.22456649     0.001417402  
   7455000   0.050332378   -0.33540387     0.035849586   -0.22406058     0.0005596477 
   7456000   0.05033753    -0.33542725     0.036731516   -0.22319431    -1.6074502e-05
   7457000   0.049928487   -0.33502509     0.036065914   -0.22407127    -0.00034876725
   7458000   0.049801776   -0.33518514     0.036102175   -0.22438512     0.00028086359
   7459000   0.049851033   -0.33529314     0.035768896   -0.22475252    -0.00013531017
   7460000   0.04974019    -0.33537957     0.035737327   -0.22503677    -0.00046364912
   7461000   0.049605022   -0.33556679     0.03664183    -0.22452222    -0.00068433161
   7462000   0.049755158   -0.33516903     0.035769555   -0.22477155     0.0012024061 
   7463000   0.05068802    -0.33519874     0.035921883   -0.22324973    -0.0011288302 
   7464000   0.050068941   -0.33515899     0.035921834   -0.22413859     0.00025563918
   7465000   0.049495204   -0.33560504     0.036385776   -0.22498124     0.00015579086
   7466000   0.049707303   -0.33500911     0.035714488   -0.22473848    -0.0012157709 
   7467000   0.049499224   -0.33488733     0.035968122   -0.22467516     0.0019219315 
   7468000   0.050132974   -0.33488848     0.036200971   -0.2234929      0.0015333347 
   7469000   0.05007954    -0.33537365     0.036164003   -0.22409519     0.00012827167
   7470000   0.050093995   -0.33490855     0.036749362   -0.22302304     0.00055997175
   7471000   0.05035566    -0.33502478     0.035987501   -0.22350867     9.3217166e-05
   7472000   0.050329853   -0.33521578     0.036012202   -0.22371367     0.00051310227
   7473000   0.050487232   -0.33518963     0.037108073   -0.22235559    -0.00079960609
   7474000   0.05057192    -0.33527654     0.036625678   -0.22279788    -0.00014885424
   7475000   0.050711589   -0.33511101     0.036009722   -0.22303882     0.00034588359
   7476000   0.050389418   -0.33483412     0.036105825   -0.22314905    -0.00052140347
   7477000   0.050588452   -0.33516745     0.035479003   -0.22381066    -0.00030567344
   7478000   0.049652409   -0.33531376     0.036186473   -0.22465348    -0.0016145128 
   7479000   0.050367303   -0.33511552     0.036348936   -0.2232205      0.00052190873
   7480000   0.050472732   -0.33494049     0.036176993   -0.22305928    -0.00026799726
   7481000   0.049947419   -0.33565655     0.036596671   -0.22414358    -0.00042015391
   7482000   0.049457896   -0.33512826     0.03549908    -0.22544712     0.0003081066 
   7483000   0.049406707   -0.33515566     0.035160593   -0.22588979    -0.00046057522
   7484000   0.05004935    -0.335136       0.036266421   -0.2238004     -0.00096914985
   7485000   0.049773092   -0.33499424     0.0358128     -0.22452662     0.0003473135 
   7486000   0.05037476    -0.335245       0.035928385   -0.22375935     0.0011058742 
   7487000   0.050384118   -0.33517094     0.036340597   -0.22325904     0.00087959854
   7488000   0.049823078   -0.33498995     0.036621156   -0.223639       0.00035812116
   7489000   0.049652751   -0.33511504     0.036417645   -0.22422308     0.0016175135 
   7490000   0.050481393   -0.33521498     0.035947482   -0.22355029    -0.00039298414
   7491000   0.049764844   -0.33510574     0.036503659   -0.22395964    -0.0019886109 
   7492000   0.050239736   -0.33515433     0.03572604    -0.22407355     0.0010501138 
   7493000   0.049694584   -0.33521459     0.036054283   -0.22462324     0.00077874433
   7494000   0.05007071    -0.33527414     0.036541602   -0.22363131     0.0014740419 
   7495000   0.050086087   -0.33549508     0.036690218   -0.22368058     3.890071e-05 
   7496000   0.050138281   -0.33496509     0.036438439   -0.22332409     0.0011462562 
   7497000   0.049798646   -0.33531986     0.036289975   -0.22433673     0.00025977963
   7498000   0.049721656   -0.33532217     0.036274361   -0.22447014     0.00075234985
   7499000   0.049950103   -0.33485364     0.035547404   -0.22438592     0.00031479005
   7500000   0.049850546   -0.33444282     0.036114153   -0.22355767     0.00034165498
   7501000   0.050123437   -0.33501054     0.036641588   -0.22318864    -0.00051980411
   7502000   0.05008841    -0.33462776     0.035665288   -0.2238347      0.00030751993
   7503000   0.050327294   -0.33532397     0.036566854   -0.22327105    -0.00054413545
   7504000   0.050199533   -0.33501626     0.036237496   -0.22348433     0.0015294109 
   7505000   0.050011688   -0.33537541     0.036194036   -0.22416868     0.00017569303
   7506000   0.050394643   -0.33503769     0.03593664    -0.22351396     0.0008672814 
   7507000   0.049919756   -0.3352987      0.036003241   -0.22442066    -0.000515888  
   7508000   0.049808613   -0.33539787     0.036255907   -0.22443386    -0.0010425498 
   7509000   0.050004229   -0.33501176     0.036626325   -0.22338393     0.00027147857
   7510000   0.049617177   -0.33514883     0.036210089   -0.22451778    -0.00034679999
   7511000   0.050202138   -0.33548783     0.036029738   -0.22415975     0.00057197499
   7512000   0.049652323   -0.33502765     0.036537075   -0.22401689    -0.00027064231
   7513000   0.050715837   -0.33539819     0.03647953    -0.22284981    -0.00078897193
   7514000   0.050027765   -0.335286       0.036647123   -0.22360207     0.00083963945
   7515000   0.049795197   -0.33489702     0.036679709   -0.22352933     0.0010521333 
   7516000   0.050050099   -0.33523992     0.036065451   -0.22410417    -0.00082580041
   7517000   0.049721527   -0.33548532     0.036013482   -0.22489436    -0.0008660828 
   7518000   0.049099495   -0.33527485     0.036191668   -0.22543869     6.3816676e-05
   7519000   0.049222797   -0.33554715     0.036291961   -0.22542575     0.00051461316
   7520000   0.04952728    -0.3349928      0.036066764   -0.22463991    -0.00030985799
   7521000   0.04938781    -0.33499664     0.036083856   -0.22483585     0.00047853419
   7522000   0.050249354   -0.33492307     0.036072298   -0.2234816      0.0007989731 
   7523000   0.050292263   -0.3347318      0.036476806   -0.22282146     0.00060827051
   7524000   0.050391939   -0.33447521     0.035992456   -0.22289972     0.0007190122 
   7525000   0.049885181   -0.3351522      0.036606747   -0.22372251    -0.00024483692
   7526000   0.050172185   -0.33490227     0.035555481   -0.22409337    -5.0038976e-05
   7527000   0.0497578     -0.33528328     0.035965207   -0.22468619    -0.00047899828
   7528000   0.050026691   -0.33526804     0.036652303   -0.22358055    -2.8004829e-05
   7529000   0.04970209    -0.33550817     0.036036302   -0.22492354    -0.0013831805 
   7530000   0.049228253   -0.33529022     0.03565392    -0.22579869    -0.00094124684
   7531000   0.048846536   -0.33497536     0.036542107   -0.22516817    -0.00054115627
   7532000   0.049901968   -0.33540264     0.036482265   -0.22407225     0.00080657068
   7533000   0.049705812   -0.3348866      0.035991871   -0.22434082     0.00017660149
   7534000   0.049677248   -0.33549169     0.036374594   -0.22460603    -0.00093804405
   7535000   0.050121507   -0.33523141     0.036194234   -0.22385977    -0.00078550848
   7536000   0.049759011   -0.33488779     0.03621055    -0.22404354    -0.00026948418
   7537000   0.049840683   -0.33509665     0.03562834    -0.22471211     0.0021507376 
   7538000   0.050132215   -0.33538055     0.035619055   -0.22456802    -0.0013603832 
   7539000   0.050241327   -0.33519492     0.036226602   -0.22361119    -4.7915203e-05
   7540000   0.050160926   -0.33509688     0.03600835    -0.22385199    -6.4657216e-05
   7541000   0.050550287   -0.33539309     0.036187485   -0.22338506    -0.0010450593 
   7542000   0.04959447    -0.33527782     0.036194796   -0.22469611     0.0013430238 
   7543000   0.049991039   -0.33548019     0.035751556   -0.22474691     0.0012707976 
   7544000   0.050413405   -0.33536479     0.036199423   -0.22355013    -0.00056206293
   7545000   0.050573277   -0.33556296     0.037037427   -0.22267052    -0.0018846497 
   7546000   0.050245277   -0.33541211     0.036385193   -0.22366386     0.00010638336
   7547000   0.049824435   -0.33538489     0.036872357   -0.2237807      0.0003134629 
   7548000   0.049752602   -0.33529015     0.036239411   -0.22442665     0.00039962645
   7549000   0.049830348   -0.33541588     0.035881141   -0.22479403     0.001639722  
   7550000   0.049563466   -0.335358       0.036607482   -0.22441012    -0.00076878499
   7551000   0.049793655   -0.33517397     0.036440751   -0.22404756     0.00090013653
   7552000   0.04993768    -0.33532467     0.036819178   -0.22360381    -0.00065342006
   7553000   0.049723353   -0.33525841     0.03603518    -0.22464301     0.001249285  
   7554000   0.050158178   -0.33503765     0.036164825   -0.22364041    -0.00022586596
   7555000   0.049987268   -0.33546731     0.035763199   -0.22472804    -0.001750384  
   7556000   0.049644179   -0.33548716     0.036000232   -0.22502546    -0.0001147523 
   7557000   0.050284557   -0.3357641      0.035382629   -0.2249595      0.00046475946
   7558000   0.049590791   -0.33569374     0.036315138   -0.22499721     0.00057999082
   7559000   0.049780066   -0.33528581     0.036241742   -0.22437878    -0.00018197948
   7560000   0.049974942   -0.33603958     0.036523066   -0.22455893    -0.00086346544
   7561000   0.050116327   -0.33539884     0.036064822   -0.22416438     0.00076772893
   7562000   0.049545742   -0.33545874     0.036018143   -0.22512678    -0.00016112042
   7563000   0.050307536   -0.33538276     0.036308674   -0.22361765    -0.0014486729 
   7564000   0.050431783   -0.33518339     0.036469209   -0.22307139     0.00044998591
   7565000   0.050391925   -0.3354579      0.035368897   -0.22450599     0.0011254937 
   7566000   0.050418973   -0.33541584     0.035903858   -0.2238884      4.5897321e-05
   7567000   0.049789448   -0.33537143     0.036531292   -0.22416078     0.0014506635 
   7568000   0.049496245   -0.3354948      0.036416459   -0.22483877    -0.001345814  
   7569000   0.050311614   -0.33566487     0.035783744   -0.22441858     0.00048879171
   7570000   0.050007314   -0.33529392     0.03617242    -0.22411537     0.00059677187
   7571000   0.050178594   -0.33559001     0.036233349   -0.22409363     8.806632e-05 
   7572000   0.050145406   -0.33503536     0.03573773    -0.22408437     0.00037961235
   7573000   0.04934331    -0.33545482     0.036637187   -0.22480745     0.00056623828
   7574000   0.050448974   -0.33551125     0.035303563   -0.22453911     0.0015406915 
   7575000   0.050035871   -0.33549713     0.036501333   -0.22394683     7.3157627e-05
   7576000   0.049969047   -0.33524049     0.036005676   -0.22428608     0.00023584791
   7577000   0.050061323   -0.33542158     0.035378374   -0.22495606     0.0010344871 
   7578000   0.049639719   -0.33531836     0.035748693   -0.22511489     0.00143418   
   7579000   0.049898524   -0.33526002     0.036067575   -0.22434949    -0.00042666889
   7580000   0.049046432   -0.33531052     0.036469687   -0.22527594    -0.00078074513
   7581000   0.049844064   -0.33544085     0.035627529   -0.22505205    -0.00026102444
   7582000   0.049381116   -0.33520001     0.03623661    -0.2248965      0.00028534352
   7583000   0.050227632   -0.33540295     0.035881833   -0.22418453     0.00089651623
   7584000   0.049558663   -0.33502216     0.035940113   -0.22474885     0.00039599931
   7585000   0.050344935   -0.3352904      0.036310826   -0.22346704     0.00081467935
   7586000   0.050664018   -0.33549394     0.036549332   -0.22295349    -0.00045484909
   7587000   0.050198727   -0.33549905     0.035655294   -0.22455052    -0.00017171567
   7588000   0.05021183    -0.33528349     0.036300873   -0.22366974     0.00027051767
   7589000   0.049777113   -0.33535431     0.035898442   -0.22479502     0.00015705313
   7590000   0.049607351   -0.33542256     0.036512772   -0.22450357    -0.00083349264
   7591000   0.049902247   -0.33532192     0.035602948   -0.22487043     0.00045959366
   7592000   0.049992845   -0.33563805     0.03617272    -0.2244809     -0.0002768325 
   7593000   0.050123739   -0.33548702     0.036181643   -0.22412462     0.00051885   
   7594000   0.049729647   -0.33507864     0.036466014   -0.22402297     0.00062818524
   7595000   0.049646606   -0.33544083     0.036156337   -0.22481939     0.00055658278
   7596000   0.050167254   -0.33586072     0.035968584   -0.22464611     5.428425e-05 
   7597000   0.049624315   -0.33515262     0.035923366   -0.22479759    -2.9765645e-05
   7598000   0.049760499   -0.33579412     0.036304      -0.22485418    -0.00025751659
   7599000   0.050359119   -0.33528321     0.036294206   -0.2234552     -0.00072506343
   7600000   0.05000352    -0.33488086     0.036295474   -0.22358495     0.00092437438
   7601000   0.049873169   -0.33562626     0.036141828   -0.22467951     0.0011751116 
   7602000   0.049721003   -0.3353953      0.036135392   -0.22468321     0.00098133666
   7603000   0.05044412    -0.33545307     0.036273533   -0.22351824     0.00031790336
   7604000   0.050258523   -0.3353916      0.036776454   -0.22323223    -0.0012529165 
   7605000   0.049812478   -0.33534352     0.036386417   -0.2242432     -0.00091086887
   7606000   0.04999352    -0.33563889     0.036458443   -0.22419501    -0.00038721147
   7607000   0.049646203   -0.33554539     0.036294315   -0.22478657     0.00013194783
   7608000   0.050210324   -0.3352837      0.035932678   -0.2240404      0.00096425758
   7609000   0.050057985   -0.3356338      0.036520284   -0.22403138    -0.00027805641
   7610000   0.049922271   -0.33537314     0.036089103   -0.22440546    -0.0016048658 
   7611000   0.049807461   -0.33539844     0.036433704   -0.22425837    -0.0010195844 
   7612000   0.049877667   -0.33531462     0.035759931   -0.22474301    -0.0006410467 
   7613000   0.049533517   -0.33561078     0.035782036   -0.22553327     6.0842327e-05
   7614000   0.050114821   -0.33537622     0.036416682   -0.22379216     0.00011751707
   7615000   0.050489968   -0.33515014     0.036845929   -0.22257415    -0.0011088448 
   7616000   0.050237546   -0.33548034     0.03677381    -0.22335508     0.00019168579
   7617000   0.050285325   -0.33549194     0.036409397   -0.22365942    -0.00030985225
   7618000   0.049881216   -0.3353307      0.036788768   -0.22372493     0.00072130811
   7619000   0.049908375   -0.33537897     0.036796413   -0.22372483     0.00028077952
   7620000   0.049886326   -0.3353214      0.036816222   -0.22368052     0.00011129552
   7621000   0.050407973   -0.33506282     0.035787692   -0.22366805    -0.00042389491
   7622000   0.04956277    -0.33528366     0.036360613   -0.22458369     9.0563417e-05
   7623000   0.049686569   -0.33568058     0.036274997   -0.22488054     6.0289985e-05
   7624000   0.049922955   -0.33543298     0.035928903   -0.22462447     0.0008585679 
   7625000   0.049364657   -0.33524714     0.036681338   -0.2245236      0.00040816559
   7626000   0.050094982   -0.33568759     0.036188034   -0.22436194     0.0015038376 
   7627000   0.04955656    -0.33536429     0.036069764   -0.22496448    -3.378812e-05 
   7628000   0.050078749   -0.33516391     0.036093617   -0.22395702    -0.00043499223
   7629000   0.04965401    -0.3351978      0.036240012   -0.22448158    -0.00026592107
   7630000   0.050018209   -0.33532635     0.036441323   -0.22386255    -0.002814754  
   7631000   0.050203016   -0.33550188     0.036065476   -0.22413673     0.0006465453 
   7632000   0.050159852   -0.33544318     0.036478343   -0.22372992     3.0548632e-05
   7633000   0.050447148   -0.33540656     0.035645835   -0.22409489    -0.00039555763
   7634000   0.049772436   -0.33514523     0.03635262    -0.22413877    -0.00068876359
   7635000   0.050251916   -0.33509319     0.036192601   -0.22352758     0.0016262178 
   7636000   0.050163779   -0.33522598     0.035926995   -0.22405817    -7.8646555e-05
   7637000   0.050083959   -0.3353721      0.036049152   -0.22420186     0.0008618326 
   7638000   0.049787206   -0.33553507     0.036855834   -0.22400325    -0.00063857926
   7639000   0.050502382   -0.33559538     0.03608247    -0.22376422    -0.00045574832
   7640000   0.050036677   -0.33542645     0.036311948   -0.22406433     0.0015876547 
   7641000   0.050323673   -0.33528616     0.036464963   -0.22334056     0.00083875505
   7642000   0.050384888   -0.33526634     0.036412384   -0.2232815      0.00050271547
   7643000   0.05021184    -0.33558041     0.036112389   -0.22415512     0.00037950892
   7644000   0.050405204   -0.33551568     0.036283124   -0.22362962     0.00025930101
   7645000   0.049839575   -0.33506492     0.036482301   -0.22382808     0.00063805575
   7646000   0.049949287   -0.33541491     0.036464816   -0.224031       0.00092710166
   7647000   0.049443817   -0.33525537     0.036390842   -0.22470358     0.00045252566
   7648000   0.049848831   -0.33572527     0.03608621    -0.22487064     0.00018104145
   7649000   0.049817298   -0.33557627     0.035679544   -0.2251756     -0.00062989623
   7650000   0.049487104   -0.3357374      0.036455872   -0.22505566    -0.0011250861 
   7651000   0.050052794   -0.33541668     0.03593709    -0.22440525     0.00063685041
   7652000   0.05014959    -0.33508561     0.036225544   -0.22364053     0.0010428801 
   7653000   0.050005333   -0.3355048      0.036382633   -0.22411901     0.0005236033 
   7654000   0.05045796    -0.33584248     0.036685578   -0.22347484     0.00068884598
   7655000   0.050285273   -0.33533624     0.03638257    -0.22353063     0.00043872837
   7656000   0.05055833    -0.33556354     0.036275583   -0.22345535     0.00029317713
   7657000   0.050392145   -0.33520793     0.035958157   -0.22366644     0.00082054325
   7658000   0.04985005    -0.33575166     0.036124426   -0.22485698    -0.0013449852 
   7659000   0.049889013   -0.33548177     0.036042139   -0.22461094     0.0015842931 
   7660000   0.049942567   -0.33543593     0.036503335   -0.22402358    -0.00086122497
   7661000   0.049664854   -0.33563228     0.036328358   -0.22481144     0.00080589582
   7662000   0.050510265   -0.33596973     0.036215679   -0.22399354     0.00068515606
   7663000   0.050503269   -0.33537951     0.036787293   -0.2228422      0.0010670113 
   7664000   0.050520506   -0.33525375     0.036099179   -0.2233787      9.4590373e-05
   7665000   0.049687201   -0.33585327     0.035948085   -0.22537919     0.00053882923
   7666000   0.050158613   -0.33568462     0.03579179    -0.22465977    -0.0006138663 
   7667000   0.049956208   -0.33575119     0.03543157    -0.22539014    -0.00057876898
   7668000   0.049154978   -0.33559841     0.036179756   -0.22569094    -0.0002844039 
   7669000   0.049426855   -0.33572413     0.035960441   -0.22562819     0.00038223996
   7670000   0.049980756   -0.33532856     0.036165621   -0.22419664     0.00015888682
   7671000   0.049815539   -0.33556386     0.036175247   -0.22467013    -0.00096677807
   7672000   0.050036686   -0.33580637     0.035992995   -0.22476318     0.00040906789
   7673000   0.049643036   -0.3355125      0.03652022    -0.22453253     0.00051648055
   7674000   0.050129205   -0.33548447     0.036651674   -0.22364384    -0.0019426245 
   7675000   0.049713287   -0.33562755     0.036261409   -0.22480102    -0.0011833899 
   7676000   0.050244901   -0.33565602     0.036418644   -0.22387488     0.0011147389 
   7677000   0.050176058   -0.33587373     0.036370684   -0.22424382     0.0016817971 
   7678000   0.050294257   -0.33596598     0.036060964   -0.2244685      0.00077001282
   7679000   0.049529154   -0.33560703     0.036104897   -0.22521319     0.0007220518 
   7680000   0.049652652   -0.33567341     0.036581332   -0.2246179      0.00080002993
   7681000   0.049072605   -0.33556626     0.035716639   -0.22624546    -9.8486887e-05
   7682000   0.049606796   -0.33567501     0.035687054   -0.22558256    -0.00033207949
   7683000   0.049910556   -0.33592597     0.036032174   -0.22503279     0.00063595118
   7684000   0.049962928   -0.33591143     0.035834329   -0.22513754    -0.00058650955
   7685000   0.049927093   -0.33573134     0.03660915    -0.22423638    -0.00054839161
   7686000   0.050293328   -0.33549478     0.036088857   -0.2239708     -0.00053328994
   7687000   0.049890428   -0.33599238     0.036660005   -0.22450156    -0.00069827797
   7688000   0.049964964   -0.33587346     0.035856397   -0.22507445    -0.00057238217
   7689000   0.050328125   -0.33600445     0.036320733   -0.2241964      0.00021973954
   7690000   0.049161648   -0.33564067     0.036741806   -0.22516115    -0.0010900271 
   7691000   0.050613432   -0.33556265     0.036248233   -0.22339916     0.00042963551
   7692000   0.050468658   -0.33555335     0.035996353   -0.2238589     -0.00021210474
   7693000   0.049759441   -0.33559702     0.036642897   -0.22431978    -0.00072758239
   7694000   0.049701483   -0.33588737     0.03668975    -0.22465021    -0.0012928591 
   7695000   0.050375277   -0.33554226     0.036140057   -0.22384416     0.0011665091 
   7696000   0.049480526   -0.3359734      0.03563278    -0.22612462    -0.00052381776
   7697000   0.04982396    -0.33562339     0.036277866   -0.22461441    -0.0028009305 
   7698000   0.05002258    -0.33554432     0.035926149   -0.22458914     0.00081479163
   7699000   0.049620982   -0.33588482     0.036208971   -0.22524918    -0.0007506846 
   7700000   0.049824154   -0.33568607     0.036214021   -0.22474064     0.00029514988
   7701000   0.049842541   -0.33612889     0.036046211   -0.2253237     -0.00042333619
   7702000   0.049573521   -0.33589909     0.03594684    -0.22559677    -0.00029895593
   7703000   0.049737907   -0.33571044     0.035701166   -0.22540722     0.0015296473 
   7704000   0.050407687   -0.33580583     0.036261273   -0.22393791    -0.0015211852 
   7705000   0.049923241   -0.33556191     0.036309007   -0.22437287    -0.00077516848
   7706000   0.050413778   -0.33589402     0.036587714   -0.22369051    -0.0012460736 
   7707000   0.049862502   -0.33597365     0.036087553   -0.22509717     9.9562831e-05
   7708000   0.049708647   -0.33580418     0.035595223   -0.2256508      0.00016647315
   7709000   0.049917257   -0.33592586     0.035620672   -0.22543413     0.0014498395 
   7710000   0.050050087   -0.33616996     0.035971923   -0.22512775    -8.2904716e-05
   7711000   0.049910566   -0.33601845     0.036007177   -0.22515025    -0.00097787444
   7712000   0.050591797   -0.33600155     0.036428547   -0.2236902     -0.00049756661
   7713000   0.049898165   -0.33587135     0.036652581   -0.22437635    -0.00072121087
   7714000   0.050053238   -0.33625185     0.036313612   -0.22486323     0.0011811493 
   7715000   0.049989466   -0.33607141     0.036085331   -0.22500671    -0.00057321637
   7716000   0.049733022   -0.33636923     0.036494891   -0.22527962     0.00065211767
   7717000   0.049547911   -0.33639825     0.036760977   -0.2253202      0.00059773639
   7718000   0.049906735   -0.3359317      0.036715594   -0.22436083    -0.0017445346 
   7719000   0.049810247   -0.33587251     0.035948722   -0.22521324    -4.8128533e-05
   7720000   0.050560589   -0.33597629     0.036425394   -0.22371491     0.0015448294 
   7721000   0.050344159   -0.33586343     0.036073728   -0.22427834     0.0002048987 
   7722000   0.050162437   -0.33601511     0.036550367   -0.22422594    -0.0017411476 
   7723000   0.049678182   -0.33571967     0.03626696    -0.22494024     0.0013630916 
   7724000   0.050006778   -0.33603423     0.036012791   -0.22501612    -0.0016677751 
   7725000   0.050446217   -0.33586318     0.036447898   -0.22375084     0.000158387  
   7726000   0.049835237   -0.33588389     0.036655746   -0.22448011     0.0016461691 
   7727000   0.049972276   -0.33590218     0.036468523   -0.22448008    -5.5570618e-05
   7728000   0.050183174   -0.33563879     0.035697353   -0.22467153     0.00028990987
   7729000   0.049711718   -0.33597416     0.036113551   -0.22529784     0.00011005108
   7730000   0.049085845   -0.33608001     0.035976187   -0.22647981     0.00060005957
   7731000   0.049472222   -0.33603968     0.035897895   -0.22593824    -7.459283e-05 
   7732000   0.050500216   -0.33571954     0.036052373   -0.22392173     0.0012531179 
   7733000   0.050185322   -0.33554685     0.036064846   -0.22420888     0.0015925848 
   7734000   0.050636649   -0.33604058     0.03615888    -0.22393163     0.00032562552
   7735000   0.050645665   -0.33587138     0.03589567    -0.22401211     0.00056651197
   7736000   0.049703541   -0.33575475     0.03653508    -0.22466917     0.00022579643
   7737000   0.049872396   -0.33563562     0.035980209   -0.22485164     0.00016896048
   7738000   0.050110972   -0.33618013     0.035635152   -0.22538337     0.00061992336
   7739000   0.050753829   -0.33573903     0.035851146   -0.22376205     0.00051274814
   7740000   0.049970013   -0.33575851     0.036095472   -0.22471285    -0.00059499584
   7741000   0.049762972   -0.33576618     0.036132922   -0.22499362    -0.0002885318 
   7742000   0.049722537   -0.33588156     0.035949983   -0.22535258    -0.00053066799
   7743000   0.049956072   -0.33621589     0.03605189    -0.22523472     0.0010663717 
   7744000   0.049981571   -0.33596459     0.036105451   -0.22489162     0.0015397262 
   7745000   0.049973126   -0.33603332     0.036127212   -0.22495126    -0.00018563096
   7746000   0.050152323   -0.33575163     0.036725009   -0.22380299     0.00050261276
   7747000   0.050349198   -0.33578602     0.036010126   -0.22425697     0.00060127343
   7748000   0.050383004   -0.33570637     0.036405017   -0.22373173    -0.00063535917
   7749000   0.050170496   -0.33568144     0.036181709   -0.22424884     0.00091920489
   7750000   0.050448645   -0.33576027     0.035599435   -0.22449275     0.000200268  
   7751000   0.049489976   -0.3360773      0.036369914   -0.22547721    -0.00064332312
   7752000   0.049630398   -0.33592719     0.035369026   -0.22611737    -0.00074056615
   7753000   0.04994713    -0.33621722     0.036033793   -0.22526757    -0.00078728811
   7754000   0.050706869   -0.33618217     0.035578086   -0.22454869    -0.0012446389 
   7755000   0.050255918   -0.33597583     0.036323756   -0.22427306     0.0012366492 
   7756000   0.050162948   -0.33562186     0.035965843   -0.22441645     0.0010719261 
   7757000   0.049457346   -0.33584623     0.035650862   -0.22601414     0.0011449711 
   7758000   0.050372458   -0.33578231     0.036229705   -0.22399879     0.00013020231
   7759000   0.050079365   -0.33599313     0.036382301   -0.22449663     0.0014860915 
   7760000   0.049952578   -0.33597957     0.036302607   -0.22475293    -0.0015176351 
   7761000   0.049893175   -0.33572529     0.03674319    -0.22414716    -3.7356223e-05
   7762000   0.050102666   -0.33565783     0.036024273   -0.22448441    -0.00010662836
   7763000   0.050009418   -0.33602127     0.035918765   -0.22509322    -0.00025254301
   7764000   0.049957262   -0.33632206     0.035950395   -0.22544061     0.00015176595
   7765000   0.049873648   -0.33570758     0.036209865   -0.22469207     0.00037119096
   7766000   0.049943178   -0.3358101      0.036680668   -0.2242195      0.00047462189
   7767000   0.04956476    -0.33561629     0.036686056   -0.22458789     0.00063036354
   7768000   0.050537903   -0.3360471      0.036887834   -0.2233573     -0.00095435975
   7769000   0.050700354   -0.33610346     0.035731779   -0.22432606     0.00091545848
   7770000   0.050477663   -0.335746       0.036027654   -0.22400674     0.0010601318 
   7771000   0.049937265   -0.33624575     0.036300117   -0.22504457    -5.7618491e-05
   7772000   0.050236476   -0.33604873     0.035564112   -0.22513476    -8.4341213e-05
   7773000   0.049580891   -0.33586408     0.036310875   -0.22518666     0.00049470346
   7774000   0.049764031   -0.33563663     0.035523493   -0.2254719      0.00044462452
   7775000   0.050419139   -0.33607091     0.036045168   -0.22440191     0.0014193466 
   7776000   0.049687174   -0.33559033     0.036261092   -0.22480328     0.00082777463
   7777000   0.050188021   -0.3358635      0.035861196   -0.22472513     0.0017658817 
   7778000   0.049508703   -0.33577828     0.036867566   -0.22465245    -0.00073653673
   7779000   0.049867817   -0.33581763     0.035857322   -0.2251634     -0.00034062891
   7780000   0.049517484   -0.33625137     0.036222382   -0.22575755    -2.4933769e-05
   7781000   0.04973932    -0.33615415     0.036309532   -0.22524045    -0.0001989665 
   7782000   0.050078832   -0.33604627     0.03601932    -0.22491355     0.0005728407 
   7783000   0.04996982    -0.33619408     0.036701005   -0.22454318    -0.00024029315
   7784000   0.04987189    -0.33582739     0.036075576   -0.22494881     0.00037013944
   7785000   0.04995619    -0.33549727     0.036357204   -0.22421062     0.00049152589
   7786000   0.050052638   -0.33591121     0.036420892   -0.22441621     0.0013445871 
   7787000   0.050750529   -0.33585499     0.036264486   -0.22346963    -0.000187898  
   7788000   0.050606779   -0.33581492     0.036358944   -0.22355071     8.6169233e-05
   7789000   0.050431586   -0.33587499     0.036307653   -0.22392484     0.0014819219 
   7790000   0.05006717    -0.33608475     0.036095211   -0.22489363     0.0006380697 
   7791000   0.050063204   -0.33574733     0.035766347   -0.22489102     0.0014385756 
   7792000   0.050103136   -0.33566434     0.035935468   -0.22457902    -0.00032521578
   7793000   0.050515409   -0.33604076     0.03600902    -0.22426351     0.00068442281
   7794000   0.049983834   -0.33571699     0.036222193   -0.22452388     0.00057487343
   7795000   0.050756597   -0.33632334     0.035822868   -0.22437049    -0.00025637281
   7796000   0.050007109   -0.33594705     0.036915489   -0.22402573    -0.00047512005
   7797000   0.050177283   -0.33597862     0.036050522   -0.22466703     0.00055856219
   7798000   0.049206552   -0.33595201     0.036290292   -0.22585665     0.0002129922 
   7799000   0.050172905   -0.33597728     0.036301333   -0.22442144     0.0010815989 
   7800000   0.049985131   -0.33608398     0.036400884   -0.22471024    -0.00064129007
   7801000   0.050041099   -0.33547477     0.035991312   -0.22442665     0.00064973574
   7802000   0.050256176   -0.33523023     0.036818886   -0.22303194     0.00098062036
   7803000   0.050365789   -0.33587126     0.035724526   -0.22460292     0.00083332598
   7804000   0.050401094   -0.33572442     0.035778467   -0.22434919     4.7269737e-05
   7805000   0.049960871   -0.33552456     0.036777408   -0.22381069     0.00035614451
   7806000   0.050092632   -0.33590251     0.036312812   -0.22445559    -0.00083314134
   7807000   0.050147315   -0.33598642     0.036093878   -0.22467642     0.0021924101 
   7808000   0.049904668   -0.33571721     0.036441163   -0.22442387    -0.0016123748 
   7809000   0.050241769   -0.33584701     0.035929408   -0.22455981     0.00024733678
   7810000   0.050392481   -0.33581775     0.036155738   -0.22407817    -0.00052239691
   7811000   0.050316991   -0.3363736      0.036590711   -0.22431227    -0.00079136394
   7812000   0.050106807   -0.33575668     0.036496663   -0.22410465    -0.00055916486
   7813000   0.049937159   -0.33599175     0.036471823   -0.22461902     0.00041017328
   7814000   0.050080789   -0.33640945     0.035640096   -0.22565302     0.0012638164 
   7815000   0.050123584   -0.33577379     0.036454621   -0.22413864     0.0010374193 
   7816000   0.05008144    -0.33622615     0.03538388    -0.22572496     0.00093049577
   7817000   0.049983752   -0.33618227     0.036161374   -0.2250501     -3.7144793e-05
   7818000   0.049806138   -0.33563596     0.036104722   -0.22482685    -0.00053178215
   7819000   0.050195807   -0.33584202     0.036168922   -0.22438424     0.001108388  
   7820000   0.050495206   -0.33569579     0.036315522   -0.22364234     0.0019499735 
   7821000   0.050083619   -0.33564873     0.036466787   -0.22406136     0.00042151952
   7822000   0.050387852   -0.33578265     0.036303032   -0.22390272    -0.00069864845
   7823000   0.050102993   -0.33605653     0.03577241    -0.22513447     0.00045403475
   7824000   0.050020982   -0.33566179     0.036320254   -0.22431491     0.0017683678 
   7825000   0.049826997   -0.33609885     0.036123866   -0.22523931    -0.00036458635
   7826000   0.049737163   -0.33560479     0.035899044   -0.22510481     0.00025865447
   7827000   0.050276287   -0.33611313     0.035655718   -0.22504785     0.00078621665
   7828000   0.05023589    -0.33561064     0.036407798   -0.22385387    -0.00095411341
   7829000   0.049623241   -0.33616445     0.03646189    -0.2252725      0.00023020148
   7830000   0.050197048   -0.33578352     0.03634131    -0.2241515      0.0013587921 
   7831000   0.050257556   -0.33586102     0.036780845   -0.22369871     0.00058821767
   7832000   0.050307697   -0.33616385     0.036321786   -0.22438539     0.00083435647
   7833000   0.049726714   -0.33610783     0.035871389   -0.22565118     0.0011611093 
   7834000   0.049693719   -0.33593323     0.03613433    -0.22526313    -0.0012515036 
   7835000   0.049962174   -0.33611094     0.036178573   -0.22499395    -0.00014464372
   7836000   0.050191011   -0.33616643     0.035745062   -0.22513971     0.0002015431 
   7837000   0.049322215   -0.33623162     0.036366749   -0.22588632    -0.00084407146
   7838000   0.050173203   -0.33617765     0.036196232   -0.22472647     0.00011576023
   7839000   0.050279078   -0.33597129     0.036369571   -0.22418796     0.00048889104
   7840000   0.050200141   -0.33625916     0.03548147    -0.22548234    -0.00073336934
   7841000   0.049734431   -0.33633869     0.036125669   -0.22561619     3.3795373e-05
   7842000   0.050328809   -0.33613495     0.035898596   -0.22474801     0.00040377373
   7843000   0.050660492   -0.33570261     0.036102557   -0.22361422    -0.00033442799
   7844000   0.049988583   -0.33628038     0.035829544   -0.2254728      0.00026406661
   7845000   0.049885893   -0.3358182      0.036221942   -0.22477224    -0.00014451246
   7846000   0.050212226   -0.33622454     0.03663636    -0.22427471    -0.0011865196 
   7847000   0.049529517   -0.33587131     0.035824542   -0.22575729     0.00017054243
   7848000   0.049670753   -0.33650333     0.036238963   -0.22576305    -0.0011940843 
   7849000   0.050042817   -0.33631582     0.035302009   -0.22595443     0.001884196  
   7850000   0.049697212   -0.33601242     0.036575234   -0.22489618     0.00032072905
   7851000   0.050176977   -0.33589447     0.036505513   -0.22412835    -0.00084470689
   7852000   0.050548831   -0.33650296     0.035767208   -0.22491739     0.00033278116
   7853000   0.049808672   -0.33622141     0.036800314   -0.22471291     1.7136619e-05
   7854000   0.050287507   -0.33572933     0.035879076   -0.22442386    -0.00037157728
   7855000   0.050032735   -0.33575063     0.036411776   -0.2242946     -4.5683794e-05
   7856000   0.050254691   -0.3358148      0.036538376   -0.22389925    -0.00075790686
   7857000   0.050199398   -0.33608548     0.035994729   -0.22479651    -0.00020854478
   7858000   0.049908832   -0.33605071     0.036572031   -0.22462026     0.0010859248 
   7859000   0.050324413   -0.33589128     0.036008816   -0.22440071     0.0011056065 
   7860000   0.049611426   -0.33593496     0.035668648   -0.22585397     0.0010986524 
   7861000   0.050360773   -0.33628224     0.036050013   -0.22469594    -0.00017669226
   7862000   0.05004925    -0.33601804     0.035788824   -0.22516018     0.00054082816
   7863000   0.050002445   -0.33589627     0.035646484   -0.22525095     0.0011922378 
   7864000   0.049937864   -0.33608889     0.03599356    -0.22519337     0.0014156738 
   7865000   0.050083161   -0.33609557     0.036898188   -0.22407749    -0.00011142594
   7866000   0.049836438   -0.33580455     0.036035491   -0.22501923     5.3107391e-05
   7867000   0.049898346   -0.33632139     0.036407359   -0.22507134    -0.00036459083
   7868000   0.049611199   -0.33654517     0.036514373   -0.2256188     -0.0023703764 
   7869000   0.050170502   -0.33584815     0.036288609   -0.22430864    -9.1096363e-05
   7870000   0.050060236   -0.33554845     0.036021565   -0.22444138     0.0015800132 
   7871000   0.05074412    -0.33618496     0.035945122   -0.22412857     0.00026630071
   7872000   0.050244778   -0.33597915     0.036033828   -0.22458302    -0.00041312113
   7873000   0.050305564   -0.3359323      0.036489371   -0.22398945     0.00021995828
   7874000   0.050159836   -0.33641045     0.037018333   -0.22415721    -0.00069617014
   7875000   0.049613634   -0.33640827     0.036345357   -0.22564727    -0.00053893946
   7876000   0.049765888   -0.33617956     0.035979535   -0.22555601     0.00066362963
   7877000   0.050359357   -0.33637526     0.036228483   -0.22461261     0.00085968107
   7878000   0.04979326    -0.33596609     0.035589379   -0.22569164     0.00071747166
   7879000   0.049239873   -0.33577141     0.03607351    -0.22584285     0.00070035279
   7880000   0.049747582   -0.33598617     0.035429182   -0.22594043     0.0010133092 
   7881000   0.049481061   -0.33624099     0.035304946   -0.22671924    -0.0013967342 
   7882000   0.050054012   -0.33621187     0.035895476   -0.22524022    -0.00036818206
   7883000   0.049399717   -0.33610676     0.035974332   -0.22603763     0.00092302728
   7884000   0.050188255   -0.33624579     0.035919457   -0.22504881    -0.00045353539
   7885000   0.050276372   -0.33616994     0.036284365   -0.22447588    -0.00040010935
   7886000   0.049657835   -0.33621576     0.036424633   -0.22530918    -0.00098655197
   7887000   0.049538389   -0.33595902     0.035905109   -0.22575112     0.001618471  
   7888000   0.05020809    -0.33586874     0.03625135    -0.22431011     0.00013477823
   7889000   0.050292896   -0.33559147     0.03576626    -0.22439074     0.00028324001
   7890000   0.050125628   -0.33614718     0.036449309   -0.22451428     0.00010028749
   7891000   0.050334381   -0.33575558     0.036396115   -0.22386276     0.0013478011 
   7892000   0.050074033   -0.33598808     0.036019635   -0.22486224     0.00094542558
   7893000   0.049627137   -0.33611976     0.036676941   -0.22500692    -0.0013364296 
   7894000   0.050833541   -0.33599197     0.035970042   -0.22377654    -0.00017267104
   7895000   0.049706738   -0.33637262     0.035921657   -0.22589567     0.0017117814 
   7896000   0.050227253   -0.33545651     0.03637523    -0.22374526     0.00035698237
   7897000   0.050398766   -0.33588032     0.036120933   -0.22416611     0.001083245  
   7898000   0.050333535   -0.33631573     0.036051858   -0.22476844     0.00019593885
   7899000   0.050186529   -0.33580573     0.036277334   -0.22425346    -0.0001907374 
   7900000   0.049817173   -0.33590447     0.036119479   -0.22506406     0.0002061454 
   7901000   0.049474264   -0.33571111     0.035550023   -0.22595448     0.00025792561
   7902000   0.04992816    -0.33613192     0.03582639    -0.22541812     5.24827e-05  
   7903000   0.049408825   -0.33589696     0.036000066   -0.22578844     0.00077254447
   7904000   0.050209353   -0.335978       0.035446718   -0.22522211     0.00020462361
   7905000   0.049792667   -0.335756       0.036475992   -0.22459583     0.00065342368
   7906000   0.050028972   -0.33611514     0.036022566   -0.22505396    -0.00098293909
   7907000   0.050373658   -0.33575752     0.036282477   -0.22391943     0.00096166155
   7908000   0.050082439   -0.33566201     0.036499541   -0.22404366     0.00038219022
   7909000   0.049765955   -0.33618884     0.036450333   -0.22509439    -0.00032660732
   7910000   0.050481427   -0.33607902     0.035912344   -0.22444942     0.00019146508
   7911000   0.049498375   -0.33601597     0.036503908   -0.2252693      0.00039578435
   7912000   0.04987201    -0.33600686     0.036102396   -0.22510127     0.00043497525
   7913000   0.049997696   -0.33623219     0.036032032   -0.22520845    -9.1372068e-05
   7914000   0.049643654   -0.33586678     0.036365034   -0.22504107    -0.00015367223
   7915000   0.049910192   -0.33618518     0.036328438   -0.22499628    -0.00032960529
   7916000   0.05015324    -0.33590466     0.036250153   -0.2244295      0.00013797928
   7917000   0.05078952    -0.33589665     0.036279293   -0.22343799    -0.00036889924
   7918000   0.050297576   -0.33589969     0.036120749   -0.22433744    -0.00085031688
   7919000   0.049688338   -0.33590763     0.036525555   -0.22485437    -0.0018216765 
   7920000   0.050461215   -0.33641107     0.035722283   -0.22500185     0.00065088719
   7921000   0.049887125   -0.33631878     0.03602418    -0.22546874     0.00092132923
   7922000   0.050009175   -0.33591113     0.036111147   -0.22479106    -0.00025698989
   7923000   0.049769145   -0.33605221     0.036351326   -0.22505198     0.00062714186
   7924000   0.049672103   -0.33585352     0.035965996   -0.22538418     0.00020871461
   7925000   0.049699677   -0.335925       0.036509898   -0.22487039    -0.00061713591
   7926000   0.050055672   -0.33619443     0.036180403   -0.22493536     0.00019280502
   7927000   0.049503229   -0.33603893     0.036160872   -0.225628       0.0011602582 
   7928000   0.05006195    -0.33614644     0.036342279   -0.22471608     0.00028010743
   7929000   0.050298597   -0.33549759     0.036398941   -0.22365562     0.00070157502
   7930000   0.05037589    -0.33590234     0.036298969   -0.22404441     0.00065062598
   7931000   0.050456986   -0.33598183     0.036277852   -0.22402338     0.00035782286
   7932000   0.050577031   -0.33630853     0.036356641   -0.22409124     0.0008003061 
   7933000   0.050332288   -0.33593204     0.036634108   -0.22380437     0.00072290417
   7934000   0.050303734   -0.33585679     0.036349003   -0.22405705     0.00036080796
   7935000   0.049958936   -0.33609938     0.036156556   -0.22500925     0.0001165206 
   7936000   0.049526595   -0.33608552     0.036121878   -0.22567854     0.0009014059 
   7937000   0.050153474   -0.33623914     0.035825145   -0.22518864    -0.00015222086
   7938000   0.049532081   -0.33628101     0.036143583   -0.2258441      0.00059702221
   7939000   0.050209484   -0.3359414      0.035845368   -0.22478666     0.00042642531
   7940000   0.050349797   -0.33620256     0.035945536   -0.2247372     -7.2664902e-05
   7941000   0.049495285   -0.33572217     0.036068568   -0.22541546    -0.0010798463 
   7942000   0.049980094   -0.33604627     0.036862054   -0.22421891    -0.0017062927 
   7943000   0.04993371    -0.33597253     0.036151236   -0.22492556     0.0012079161 
   7944000   0.04954288    -0.33606746     0.035806041   -0.2259519     -0.00049439926
   7945000   0.050086763   -0.33600414     0.036106199   -0.22477264    -0.00016914219
   7946000   0.049899603   -0.33629595     0.03618394    -0.22526743     0.00053385267
   7947000   0.049441042   -0.33634289     0.036440297   -0.22574582    -0.00029624618
   7948000   0.049767156   -0.33627495     0.035820891   -0.22580815     0.00047265413
   7949000   0.049782457   -0.33585406     0.035644214   -0.22554097     0.0001123042 
   7950000   0.050543014   -0.33610455     0.03540343    -0.22489149     0.00066599732
   7951000   0.049886802   -0.33646699     0.036581067   -0.22506055    -0.00017557916
   7952000   0.049944573   -0.33586189     0.035324551   -0.22562532     0.00023120011
   7953000   0.05017471    -0.33625803     0.036548385   -0.22445243    -0.00072707931
   7954000   0.050242031   -0.33622519     0.036349828   -0.22451718    -0.00031718565
   7955000   0.050007847   -0.33636311     0.036392207   -0.22496397     0.00076259451
   7956000   0.050065203   -0.33584501     0.036269883   -0.22448217    -0.00061060417
   7957000   0.050039483   -0.3362321      0.036310867   -0.22486685    -0.00048910723
   7958000   0.050269041   -0.33598219     0.036445702   -0.22413779    -0.0003580819 
   7959000   0.049931731   -0.33598006     0.036432645   -0.22465465     0.0016955166 
   7960000   0.049696368   -0.33618268     0.036103435   -0.2255395     -5.6886953e-05
   7961000   0.050046724   -0.33577509     0.036701132   -0.22400871    -0.00028851843
   7962000   0.050225115   -0.33642389     0.035666371   -0.22542471     0.00048325231
   7963000   0.049654279   -0.3360652      0.036311475   -0.22527711    -0.0003995434 
   7964000   0.049824302   -0.3361956      0.036258398   -0.22520557     6.8997651e-05
   7965000   0.049694797   -0.3362575      0.0366938     -0.22502632    -0.0011769532 
   7966000   0.049960511   -0.33590121     0.036222733   -0.22474254     0.00094434643
   7967000   0.049524042   -0.33601575     0.036282304   -0.22545218     0.00051425686
   7968000   0.049598952   -0.33627657     0.036577668   -0.22530527     0.00048932834
   7969000   0.049900865   -0.33598979     0.035808507   -0.22533481     0.00074565859
   7970000   0.050447724   -0.33637906     0.03618041    -0.22453195    -0.0011719244 
   7971000   0.050066529   -0.3359245      0.036156462   -0.22467309    -0.00028519154
   7972000   0.049999318   -0.33609159     0.035991891   -0.22510556     0.0013900355 
   7973000   0.050227116   -0.33608102     0.036431277   -0.22431393     0.00013424122
   7974000   0.05018883    -0.33616572     0.036349513   -0.22453781     0.00033285679
   7975000   0.050080999   -0.33610415     0.03590767    -0.22507982    -0.0012874874 
   7976000   0.049364187   -0.3361513      0.036191002   -0.22591879     0.00087491703
   7977000   0.049860483   -0.33606979     0.036054569   -0.22522932     0.00076691229
   7978000   0.05070539    -0.33648969     0.035937429   -0.22449908    -0.00091389048
   7979000   0.050174476   -0.33651243     0.036314186   -0.22494138     0.00029152883
   7980000   0.050194746   -0.33567441     0.036103085   -0.22428406     0.00064985612
   7981000   0.050515877   -0.33647928     0.036161817   -0.22454854    -0.00010057676
   7982000   0.049887317   -0.33600859     0.036283933   -0.22489851    -0.00044578124
   7983000   0.05019812    -0.33617285     0.035972366   -0.22490816     0.0015337041 
   7984000   0.050514079   -0.33605213     0.03654855    -0.22373735     0.00045594846
   7985000   0.050015004   -0.33631526     0.036337121   -0.22496048    -0.0010509367 
   7986000   0.050318081   -0.33635248     0.035675304   -0.22520493     0.00038388618
   7987000   0.049717308   -0.33570927     0.035742876   -0.22539524     0.00089192352
   7988000   0.049500486   -0.33606631     0.036042047   -0.22577832     0.00094995266
   7989000   0.050436864   -0.33611779     0.035802773   -0.2246646      0.00032839223
   7990000   0.050090246   -0.33596782     0.035461374   -0.22537593     0.00080504839
   7991000   0.049887896   -0.3359476      0.036185577   -0.22493501     0.00032230349
   7992000   0.049865893   -0.3360238      0.0365779     -0.22465188    -0.0015464553 
   7993000   0.049566731   -0.33570899     0.035613202   -0.22575049     0.0017908412 
   7994000   0.050122548   -0.33619864     0.036085902   -0.22493377     0.00035860565
   7995000   0.050266297   -0.33627582     0.036250668   -0.22463057    -0.00055219277
   7996000   0.050326465   -0.3368038      0.036887324   -0.22443165    -0.00084345527
   7997000   0.049918417   -0.33594823     0.036326115   -0.22474932     0.001007292  
   7998000   0.049890815   -0.3360469      0.036323798   -0.22489171    -4.1671446e-05
   7999000   0.050048411   -0.33592649     0.036731617   -0.2241271      0.00014738421
   8000000   0.050620042   -0.33598558     0.035840425   -0.22421999     0.0013456878 
   8001000   0.049641042   -0.33659336     0.036636963   -0.22549963     0.00010623661
   8002000   0.049761498   -0.33624675     0.035683904   -0.22592541    -7.8467647e-06
   8003000   0.05014619    -0.33599393     0.036205931   -0.22457357     0.00049913672
   8004000   0.04992654    -0.33646712     0.036254855   -0.22532729    -4.636131e-05 
   8005000   0.049640202   -0.33597376     0.036146721   -0.22537154     0.0004526236 
   8006000   0.050184533   -0.33585335     0.036581668   -0.22399974     0.00061870379
   8007000   0.049569449   -0.3360998      0.036315018   -0.22543541     8.3166703e-05
   8008000   0.049075479   -0.33572046     0.035859402   -0.22625259     0.0007854855 
   8009000   0.050027474   -0.33662431     0.036336478   -0.22525146     0.00022768787
   8010000   0.049775382   -0.33630736     0.036394724   -0.22525438     0.00051810539
   8011000   0.049667029   -0.33617942     0.036372123   -0.22531156     0.0010127894 
   8012000   0.049788331   -0.33624773     0.035900653   -0.2256694     -0.00075512148
   8013000   0.049728915   -0.3365284      0.035599965   -0.22633988     0.0011825879 
   8014000   0.049109667   -0.33644784     0.03649345    -0.22629464    -0.00048518985
   8015000   0.050186574   -0.33597754     0.036149498   -0.22455304    -0.00085360949
   8016000   0.050485026   -0.3359706      0.03628919    -0.22395876     0.00028699576
   8017000   0.050241687   -0.33628394     0.036336498   -0.22458978     0.0013455028 
   8018000   0.049321455   -0.33634278     0.036272528   -0.22609284    -4.1153626e-05
   8019000   0.049285862   -0.33588841     0.03549439    -0.22647       -0.00083894171
   8020000   0.049752612   -0.33629693     0.03577116    -0.22590167    -0.000928406  
   8021000   0.049307669   -0.33628511     0.035779796   -0.22654859    -0.00030273909
   8022000   0.049707076   -0.33625525     0.036877843   -0.2248216     -0.00015746686
   8023000   0.050272676   -0.33582887     0.036341324   -0.2240834     -0.00012497959
   8024000   0.050354768   -0.33617559     0.035976152   -0.22467216    -0.0006826216 
   8025000   0.050060143   -0.33593584     0.035758715   -0.22509176     8.3686869e-05
   8026000   0.050462804   -0.33609731     0.035992642   -0.22441535     0.00055805335
   8027000   0.050249252   -0.33618796     0.035839148   -0.22497979    -0.00041977356
   8028000   0.050078354   -0.33680701     0.035993977   -0.22570035    -0.00064459875
   8029000   0.050077274   -0.33674471     0.036571357   -0.22506229    -0.00065699239
   8030000   0.050078398   -0.33603149     0.036239478   -0.22467926     0.0003353818 
   8031000   0.049922658   -0.33606526     0.036178243   -0.22500786    -0.00090264729
   8032000   0.050437171   -0.33656628     0.035611061   -0.22530434    -0.00023355439
   8033000   0.049914455   -0.3362981      0.035628956   -0.22580229     0.0011453979 
   8034000   0.05056094    -0.3359086      0.035788676   -0.22428341     0.00074125674
   8035000   0.049745291   -0.33597714     0.036390275   -0.22497375    -0.00068471625
   8036000   0.050521914   -0.3362603      0.03594171    -0.2245406      0.0009542342 
   8037000   0.049915384   -0.33583057     0.035834309   -0.22512801     0.00035041105
   8038000   0.050063506   -0.3361103      0.036050467   -0.22496942    -0.0015917762 
   8039000   0.049955268   -0.33658312     0.036097302   -0.22555775    -0.00088220823
   8040000   0.050151301   -0.33616963     0.035769476   -0.22517805    -0.00014169817
   8041000   0.049602338   -0.33621104     0.036069483   -0.22574286    -0.00017205239
   8042000   0.049544832   -0.33625464     0.035442875   -0.22649931    -0.00068146802
   8043000   0.050130326   -0.33624473     0.035623718   -0.22543037     0.00064017658
   8044000   0.049667872   -0.33594633     0.035950983   -0.22549835     4.7990088e-05
   8045000   0.05040998    -0.33655647     0.035972514   -0.22497387     0.0004896988 
   8046000   0.050193845   -0.33621878     0.035800972   -0.2251319     -0.00012241506
   8047000   0.049916039   -0.33605602     0.036467097   -0.22471969     0.00037509068
   8048000   0.0504124     -0.33588258     0.036394613   -0.22387424    -0.00015333549
   8049000   0.050521811   -0.33578094     0.036056128   -0.22394699    -0.0006351093 
   8050000   0.049842659   -0.33601556     0.03649157    -0.22476483    -0.0011564182 
   8051000   0.050178447   -0.33633369     0.035812401   -0.22525848    -0.00056605157
   8052000   0.049780707   -0.33587018     0.036121476   -0.22508246     0.00020106794
   8053000   0.050293913   -0.33596016     0.035728125   -0.22479603     0.00098447839
   8054000   0.049466217   -0.33611378     0.036425744   -0.2254935     -0.00084319481
   8055000   0.050398457   -0.33601673     0.03639147    -0.22403246    -0.00056499458
   8056000   0.049477905   -0.33623506     0.035965005   -0.22605798    -0.0001760529 
   8057000   0.049816653   -0.33625196     0.036184309   -0.22534749     0.00072971792
   8058000   0.049354797   -0.33619389     0.035969891   -0.22619658     0.0010595412 
   8059000   0.050603291   -0.33632674     0.03605822    -0.22436848     0.00031717471
   8060000   0.049711462   -0.33614266     0.036315981   -0.22526429    -0.00089254492
   8061000   0.04943226    -0.33642485     0.036510666   -0.22577058    -0.00094830602
   8062000   0.049905869   -0.33591471     0.03600154    -0.22505919     0.00024098211
   8063000   0.049496783   -0.33616505     0.03650796    -0.22541671    -0.0010153797 
   8064000   0.049730688   -0.33632824     0.036475076   -0.22526194    -0.00040387288
   8065000   0.049949343   -0.33614742     0.036292669   -0.22493557     9.6954851e-05
   8066000   0.049542329   -0.33628861     0.035317098   -0.22666281     0.0009502778 
   8067000   0.049235394   -0.33632784     0.036107231   -0.22637228    -0.0010671642 
   8068000   0.049426066   -0.33618095     0.035629736   -0.2264169      0.0018455279 
   8069000   0.049763966   -0.33586399     0.036028734   -0.22519412    -0.00038052183
   8070000   0.049679529   -0.33594059     0.035984356   -0.22544175     0.0010393536 
   8071000   0.050457335   -0.33637128     0.036144332   -0.22454583    -0.00041286534
   8072000   0.050329998   -0.3362426      0.036770057   -0.22398242    -0.0015346326 
   8073000   0.049603339   -0.33655629     0.035961502   -0.22619458     0.00030652264
   8074000   0.049165275   -0.33648056     0.036177968   -0.22655944    -1.0038066e-05
   8075000   0.04947959    -0.33587129     0.036192865   -0.22546383    -0.00028864385
   8076000   0.04976815    -0.33611509     0.035315413   -0.22615227    -0.00046115985
   8077000   0.049481211   -0.33643684     0.036464197   -0.22575561    -0.00019129299
   8078000   0.04988478    -0.33621614     0.036049738   -0.22534406     0.00068749894
   8079000   0.04965069    -0.33598643     0.036031518   -0.22548368     7.9497145e-05
   8080000   0.050037594   -0.33611888     0.03647972    -0.22458761     0.00047570626
   8081000   0.050324148   -0.33634066     0.036001784   -0.22485753     0.0006310017 
   8082000   0.050274732   -0.33602095     0.036551419   -0.2240623      9.5404027e-05
   8083000   0.050077972   -0.33645279     0.036491911   -0.22484877     0.00058239256
   8084000   0.05049081    -0.33659827     0.036576871   -0.22429007    -0.00061179982
   8085000   0.049890683   -0.33570805     0.036514965   -0.22436189     0.00070052923
   8086000   0.049442371   -0.33611021     0.036947333   -0.22500411    -0.00020914659
   8087000   0.050278643   -0.33605997     0.036066461   -0.22458041     0.00033200802
   8088000   0.049838838   -0.33590042     0.036201806   -0.22494518     0.00082540451
   8089000   0.050068048   -0.33632007     0.035531373   -0.22569147    -0.0025997266 
   8090000   0.050107928   -0.33596488     0.036093405   -0.22471444    -0.00036850716
   8091000   0.050049983   -0.33644035     0.036176303   -0.22519392     0.00029286903
   8092000   0.050041168   -0.33648676     0.036080903   -0.22534895     0.00045340831
   8093000   0.049970721   -0.33615521     0.036329953   -0.22487401    -0.00015546509
   8094000   0.049858339   -0.33561859     0.036357094   -0.22447881     0.00046886494
   8095000   0.049758256   -0.33584914     0.035746838   -0.22546973    -0.00023250463
   8096000   0.049633948   -0.33600111     0.036103642   -0.22545135    -0.00058628629
   8097000   0.050143719   -0.33584412     0.035726692   -0.2249067      0.00064034369
   8098000   0.0509777     -0.33591884     0.036271487   -0.22318574     0.00082326192
   8099000   0.050594841   -0.33611998     0.036085841   -0.22414677     0.00012410643
   8100000   0.049914691   -0.33612478     0.036473528   -0.22478404    -0.0010005834 
   8101000   0.050107732   -0.33652771     0.036263639   -0.22510733    -0.00063160954
   8102000   0.050812366   -0.33614763     0.036193349   -0.22374065     0.00066325892
   8103000   0.050170508   -0.33591348     0.03678085    -0.22388173    -0.0011941308 
   8104000   0.050342853   -0.33607624     0.036240947   -0.22432588     0.00086660055
   8105000   0.049760567   -0.33564942     0.036594077   -0.2244193     -0.00027270467
   8106000   0.049556943   -0.33636971     0.035880418   -0.22615868    -0.00097246448
   8107000   0.04998773    -0.33584287     0.035851206   -0.22501491     0.00024113894
   8108000   0.050026935   -0.33625765     0.03635312    -0.22486897     0.00045948652
   8109000   0.049931388   -0.3360363      0.035632164   -0.22551188     0.00028292213
   8110000   0.049842556   -0.33562238     0.036233519   -0.22462985    -0.00095858349
   8111000   0.050263189   -0.33590064     0.035887926   -0.2246228      0.00047654901
   8112000   0.049923717   -0.33570482     0.036112656   -0.22471142     0.00059031049
   8113000   0.04976146    -0.33635507     0.036604043   -0.22511365    -0.00020625554
   8114000   0.050162424   -0.33621246     0.036209332   -0.22476434    -0.00037101194
   8115000   0.04974788    -0.33591191     0.035742929   -0.22555198     0.00067004975
   8116000   0.049976126   -0.33598567     0.036187192   -0.22483913     0.00044332632
   8117000   0.049911244   -0.33624272     0.037131466   -0.22424922    -0.00096427067
   8118000   0.050527418   -0.33574574     0.036529956   -0.22342955    -0.00026251428
   8119000   0.050277275   -0.33599354     0.036621689   -0.2239608     -0.00044456054
   8120000   0.050061321   -0.33627501     0.036697015   -0.22449086    -0.00018002846
   8121000   0.049972018   -0.33617325     0.036641854   -0.22457821    -0.001939753  
   8122000   0.050098256   -0.33619584     0.036014545   -0.22503876     0.00026379045
   8123000   0.050047389   -0.3359106      0.035929339   -0.22491502     0.00028981667
   8124000   0.050255441   -0.33622735     0.035983635   -0.22486542    -0.00065254804
   8125000   0.049800049   -0.33649053     0.036314074   -0.2254812      9.8276906e-05
   8126000   0.050170127   -0.33609052     0.036080263   -0.22475993    -0.00019228066
   8127000   0.050792607   -0.3365937      0.036251582   -0.22415812     0.00023719324
   8128000   0.050108282   -0.33609831     0.03638077    -0.22455996     0.00065122497
   8129000   0.050314659   -0.33611616     0.036245534   -0.22440351     0.00091671999
   8130000   0.050164688   -0.33624164     0.036387732   -0.22461173    -0.00057148598
   8131000   0.050096532   -0.33626771     0.03663371    -0.22449405    -0.0012004188 
   8132000   0.050159132   -0.33583822     0.035798329   -0.22480605     0.0012605218 
   8133000   0.049715303   -0.33643465     0.03652933    -0.22533717    -0.00073138347
   8134000   0.050080732   -0.33613374     0.036352924   -0.22466457     0.00047125795
   8135000   0.050065898   -0.33635376     0.036172246   -0.22508751     0.0014637559 
   8136000   0.050103322   -0.33634893     0.036293847   -0.22490495    -0.00081787564
   8137000   0.049849704   -0.3360711      0.036459781   -0.22484158     0.0010558295 
   8138000   0.049688381   -0.33598519     0.035727857   -0.22572957     5.2650825e-06
   8139000   0.050016213   -0.33611939     0.035440714   -0.2256592     -0.00041386861
   8140000   0.04997985    -0.33628292     0.035663918   -0.22565406     0.00080717216
   8141000   0.050143271   -0.33643214     0.03609638    -0.2251257      0.001013866  
   8142000   0.050620337   -0.33616005     0.036156523   -0.22407792     0.00061207787
   8143000   0.050112907   -0.33580966     0.035623747   -0.2250214      0.0006634416 
   8144000   0.050313141   -0.33648384     0.036747509   -0.22427149    -0.00039403758
   8145000   0.049864018   -0.3363745      0.035775081   -0.22580822     0.0011559605 
   8146000   0.050148175   -0.33628678     0.036194657   -0.22487471    -0.0010293007 
   8147000   0.050030829   -0.3361753      0.036639576   -0.22449432    -0.00054842667
   8148000   0.049995797   -0.33594985     0.036730718   -0.22423027     0.00059888463
   8149000   0.050669013   -0.33545946     0.035719136   -0.22374171    -0.00046324745
   8150000   0.04925244    -0.33589976     0.036030506   -0.22599536    -0.00016620353
   8151000   0.049376554   -0.33651765     0.036085877   -0.22637172    -0.00063679085
   8152000   0.050062711   -0.33628203     0.036258161   -0.22493465    -0.0004387672 
   8153000   0.049845032   -0.33626954     0.03619095    -0.22531586     0.00054804875
   8154000   0.049904086   -0.33624083     0.035481567   -0.22590796     0.00017504287
   8155000   0.050062764   -0.33626617     0.035889255   -0.22528762     0.0010894008 
   8156000   0.049441014   -0.33585799     0.036280484   -0.22542077    -0.0013000702 
   8157000   0.049807035   -0.33571861     0.036559919   -0.22445296     0.0013476587 
   8158000   0.050470897   -0.33610068     0.036009235   -0.22438999     0.00019310414
   8159000   0.049688208   -0.33610984     0.036125822   -0.22545651    -0.00033988832
   8160000   0.04986374    -0.33618117     0.036150791   -0.22523959     0.00010049595
   8161000   0.049510244   -0.33622678     0.036198283   -0.22576792     0.00084379863
   8162000   0.050008333   -0.33626109     0.035980097   -0.22527334     0.00080181429
   8163000   0.050292416   -0.3363254      0.036319716   -0.22457192    -0.00085068876
   8164000   0.049724319   -0.33582483     0.036207375   -0.22503578     0.0012033006 
   8165000   0.050043687   -0.33574943     0.03682246    -0.22386629     0.00024398905
   8166000   0.050655483   -0.33614137     0.035966138   -0.22419691    -0.00023493907
   8167000   0.050090739   -0.33574568     0.037273865   -0.22334056    -0.00034801197
   8168000   0.050244596   -0.3361918      0.035920981   -0.22490879    -0.00031424292
   8169000   0.050262219   -0.33607408     0.036350941   -0.22433467     0.00072366939
   8170000   0.049949262   -0.33597566     0.035742109   -0.22531449     0.00079197333
   8171000   0.05030282    -0.33569096     0.036696696   -0.2235449     -0.00055875353
   8172000   0.050217346   -0.33605354     0.036636748   -0.22409563    -0.00091948798
   8173000   0.050593027   -0.33619027     0.036128209   -0.22417741     0.00090802708
   8174000   0.050381633   -0.33597343     0.036824008   -0.22358185    -0.00080996676
   8175000   0.050166054   -0.33585446     0.036839933   -0.2237703     -0.0012486105 
   8176000   0.05030439    -0.33565598     0.036715703   -0.22348856    -0.00043830343
   8177000   0.050520504   -0.33643345     0.036521391   -0.22413619    -0.0003199539 
   8178000   0.050748844   -0.33608871     0.036402947   -0.2235674     -0.00081776201
   8179000   0.050410482   -0.33580625     0.036826388   -0.22336902    -0.00051968642
   8180000   0.050401013   -0.33603212     0.036304474   -0.224131       0.0012251638 
   8181000   0.049985605   -0.33665372     0.036372833   -0.22530731     0.00071093218
   8182000   0.050379967   -0.33645356     0.035884875   -0.22500361    -0.0013727867 
   8183000   0.050276935   -0.3363411      0.036257989   -0.22467257     0.0014557034 
   8184000   0.050233207   -0.33671531     0.036719896   -0.22465046    -0.00015835259
   8185000   0.050135407   -0.33640851     0.036763356   -0.2244469      0.00032461147
   8186000   0.050061942   -0.33639294     0.036219206   -0.22508566     0.00082229133
   8187000   0.049716467   -0.33654119     0.036609772   -0.22536153    -0.00098806824
   8188000   0.050060927   -0.33603798     0.035765439   -0.225186       0.00042848869
   8189000   0.050879621   -0.33659304     0.036411717   -0.22386681     0.00066212692
   8190000   0.050067071   -0.33626883     0.036120345   -0.22505272    -0.00021760043
   8191000   0.049789144   -0.33633319     0.035999063   -0.22565523    -0.00047428673
   8192000   0.0502416     -0.33613743     0.035833459   -0.22494643     0.00055754733
   8193000   0.049783279   -0.33640172     0.036042641   -0.22568898     5.6363994e-05
   8194000   0.050066729   -0.33619035     0.03599566    -0.22509944    -8.4516194e-05
   8195000   0.049838112   -0.33625879     0.036130587   -0.22537585     0.00029914733
   8196000   0.049811131   -0.33668475     0.036369654   -0.22560322    -0.0005603493 
   8197000   0.05016988    -0.33637993     0.036333312   -0.22479665     0.00020316027
   8198000   0.049827984   -0.33632533     0.036640504   -0.22494767     0.00017112274
   8199000   0.049933431   -0.3363782      0.03632914    -0.22515374    -0.0012032935 
   8200000   0.04939396    -0.3363522      0.036291006   -0.22597504    -0.0011031939 
   8201000   0.049443718   -0.33639187     0.03638567    -0.22584541     0.00033957778
   8202000   0.05030961    -0.33635539     0.035773997   -0.22512184    -0.00076685079
   8203000   0.050229378   -0.33598611     0.036442193   -0.22420471    -0.00099783042
   8204000   0.050047869   -0.33628919     0.036473739   -0.2247485     -0.00049723713
   8205000   0.049877756   -0.33625399     0.036233451   -0.22520873    -0.00069698149
   8206000   0.049761483   -0.33633609     0.036421631   -0.22527705    -0.0010038002 
   8207000   0.04975709    -0.33663016     0.036336195   -0.22566314     0.00060984045
   8208000   0.049951775   -0.33622848     0.036047664   -0.22525799    -0.0009281567 
   8209000   0.049955199   -0.33635215     0.036662362   -0.22476182    -0.00049200792
   8210000   0.050514573   -0.33629792     0.036654909   -0.22387604     0.00016926881
   8211000   0.04983245    -0.33635799     0.036214056   -0.22540008    -7.8397014e-05
   8212000   0.049917558   -0.33619424     0.036924027   -0.22439871    -0.00098512757
   8213000   0.050121456   -0.33611195     0.036742044   -0.22419257    -0.00044088949
   8214000   0.05011988    -0.33603689     0.036744398   -0.22411752     0.0022898221 
   8215000   0.050314088   -0.33579808     0.036225871   -0.22410594     0.0016001548 
   8216000   0.050283144   -0.3362188      0.035609692   -0.22518925     0.00017900725
   8217000   0.049776778   -0.33587363     0.036060489   -0.22515279    -0.00086380858
   8218000   0.049626402   -0.33588416     0.03618378    -0.22526558     0.0003516607 
   8219000   0.049826233   -0.33617259     0.036660318   -0.22477775    -0.00051886314
   8220000   0.05036775    -0.33638491     0.0361749     -0.22466325     0.00035828988
   8221000   0.049912267   -0.33623618     0.035992302   -0.22538031     0.00025478803
   8222000   0.049864222   -0.33612962     0.036263722   -0.22507439    -0.00033615113
   8223000   0.050317947   -0.33621241     0.035590197   -0.22515016     0.00016239329
   8224000   0.05014183    -0.33641168     0.035534661   -0.22566913     0.00011858853
   8225000   0.049611984   -0.33601914     0.036179307   -0.22542666     0.00039706121
   8226000   0.0495034     -0.33630756     0.036003828   -0.22605342     0.0015256559 
   8227000   0.049591536   -0.33667742     0.035725105   -0.22656981    -0.0011339399 
   8228000   0.049917938   -0.33605153     0.036384783   -0.22479467    -0.00075738311
   8229000   0.049811561   -0.33641116     0.036671997   -0.22502664    -0.00030446462
   8230000   0.049745277   -0.33605583     0.036185029   -0.2252577      0.00032625037
   8231000   0.049407068   -0.33628733     0.035779443   -0.22640207    -0.00056272514
   8232000   0.04974861    -0.33630274     0.035453861   -0.22623078     0.000743535  
   8233000   0.04963691    -0.33629232     0.036389226   -0.22545254    -2.6568456e-05
   8234000   0.049526115   -0.33618167     0.035917895   -0.2259794     -0.000670319  
   8235000   0.049895761   -0.33633192     0.036244703   -0.22524841     0.0010412633 
   8236000   0.049549706   -0.33644415     0.036185952   -0.22593844    -0.0004133363 
   8237000   0.049706491   -0.33641668     0.036222612   -0.22563914     0.00045173215
   8238000   0.049978304   -0.33588809     0.035833154   -0.22509232     0.00092923062
   8239000   0.049733784   -0.33608786     0.036889459   -0.22460254    -0.00016355612
   8240000   0.049898648   -0.3362395      0.035813667   -0.22558269     0.0006971226 
   8241000   0.049895848   -0.33595983     0.03534771    -0.22577317     0.0017699728 
   8242000   0.049216921   -0.33636379     0.035873648   -0.22666952    -0.0010412046 
   8243000   0.050111702   -0.33676367     0.036475064   -0.2251259     -0.00058421848
   8244000   0.049954708   -0.3364196      0.03623758    -0.22525479    -0.0012822782 
   8245000   0.049586054   -0.33643713     0.036084149   -0.2259787      0.00023885772
   8246000   0.04930368    -0.33666853     0.036488845   -0.22622893    -0.00056547388
   8247000   0.049952674   -0.3366919      0.035844979   -0.22592274    -0.00020815713
   8248000   0.050385476   -0.3364519      0.036009325   -0.22486923    -0.00011219296
   8249000   0.049571298   -0.33647338     0.035856122   -0.22626511     0.0007862415 
   8250000   0.04971628    -0.33653122     0.036130865   -0.22583075    -8.0127095e-05
   8251000   0.049993483   -0.33599162     0.036114935   -0.2248913      0.00017816356
   8252000   0.050157565   -0.336162       0.036008246   -0.22492227    -0.00037972625
   8253000   0.050285822   -0.3362936      0.036142075   -0.22472765     0.00061700447
   8254000   0.04975968    -0.33618378     0.036690242   -0.22485883    -0.0015177801 
   8255000   0.049930568   -0.33576388     0.036047206   -0.22482565     0.0013253594 
   8256000   0.049799373   -0.3361142      0.035404133   -0.22601582    -0.00034697896
   8257000   0.049687712   -0.33602495     0.035421835   -0.22607635     0.0013695039 
   8258000   0.050565456   -0.33652729     0.036311986   -0.22437202    -0.00048085924
   8259000   0.049639149   -0.33643409     0.036076544   -0.22590363    -0.0011359804 
   8260000   0.049971956   -0.33630672     0.036201969   -0.22515165    -0.001054172  
   8261000   0.050407207   -0.33691803     0.036746601   -0.22456549    -0.00072334656
   8262000   0.049920848   -0.33628201     0.036810653   -0.22459492    -0.0017494142 
   8263000   0.049649897   -0.33609846     0.035908602   -0.22571982    -5.994775e-05 
   8264000   0.050009867   -0.33672323     0.036447082   -0.22526618    -0.00020505133
   8265000   0.049979328   -0.33651108     0.03603124    -0.22551569    -0.0015273388 
   8266000   0.050213734   -0.33627032     0.036100164   -0.22485441     0.0016039876 
   8267000   0.049830326   -0.33644112     0.035597845   -0.22610261    -9.0918694e-05
   8268000   0.050100627   -0.33619785     0.035997401   -0.22505436     0.00018816348
   8269000   0.050404926   -0.33646261     0.036046447   -0.22481365    -0.00031476609
   8270000   0.049838256   -0.33662918     0.036264449   -0.22561217    -0.00103666   
   8271000   0.049963083   -0.33642856     0.035660963   -0.2258278      0.00099863904
   8272000   0.050464439   -0.33633069     0.035786007   -0.22485291     0.00061501229
   8273000   0.049993657   -0.33655592     0.035714654   -0.22585562     0.00020712236
   8274000   0.04987107    -0.33632744     0.036428081   -0.22509758    -0.00089442014
   8275000   0.049769168   -0.33664188     0.035735121   -0.22625783    -0.00049896449
   8276000   0.049877026   -0.33654813     0.036758212   -0.2249792     -0.00061982617
   8277000   0.049878568   -0.33634852     0.035845343   -0.22569015     0.00043412141
   8278000   0.04956031    -0.33670921     0.035966764   -0.22640678    -0.00044098264
   8279000   0.049426021   -0.33674173     0.035582238   -0.22702524     0.0006552394 
   8280000   0.049933542   -0.33661973     0.035637832   -0.22608641    -0.00085841982
   8281000   0.050471516   -0.33670446     0.036246919   -0.22475515     0.00096034425
   8282000   0.050467259   -0.33666393     0.036139874   -0.22482805    -0.00023339542
   8283000   0.050420059   -0.33631004     0.035805906   -0.22487892    -2.5995704e-05
   8284000   0.050429056   -0.33684912     0.036032418   -0.225178       0.00061289027
   8285000   0.050226146   -0.33678454     0.036605873   -0.22484431     0.00085102948
   8286000   0.049879633   -0.3366184      0.036184903   -0.22561888     7.7508053e-05
   8287000   0.050686098   -0.3360358      0.036017102   -0.22399446     0.0013616048 
   8288000   0.0507762     -0.33659678     0.036201501   -0.22423589     0.0011197849 
   8289000   0.049853577   -0.33631809     0.035983428   -0.22555912    -0.00081647833
   8290000   0.049261868   -0.33666062     0.036448206   -0.22632438    -0.00085097437
   8291000   0.04992094    -0.33656727     0.035852685   -0.22583801     0.00032365356
   8292000   0.049784607   -0.33662975     0.036144402   -0.22581325    -0.00017644982
   8293000   0.04986867    -0.33681097     0.036493592   -0.2255192     -0.00018101493
   8294000   0.049335521   -0.33655204     0.036232818   -0.22632072    -0.00080606623
   8295000   0.050000312   -0.33674827     0.036248455   -0.22550419     0.0002695913 
   8296000   0.049519672   -0.3367933      0.036238098   -0.22628049    -0.00090676135
   8297000   0.049756207   -0.33674092     0.03626392    -0.22584751     9.3504637e-05
   8298000   0.049502791   -0.33642443     0.036160659   -0.22601438     0.00027986848
   8299000   0.049761565   -0.33643592     0.036902961   -0.22489543    -0.00066105424
   8300000   0.050393157   -0.33677311     0.036351637   -0.22483661     0.00010518646
   8301000   0.049757892   -0.33646459     0.036117802   -0.22571477     0.00070151864
   8302000   0.050540316   -0.33707247     0.036383052   -0.22488384    -0.00062038189
   8303000   0.049842144   -0.33697045     0.036476357   -0.2257357     -0.00025900954
   8304000   0.049671467   -0.33668591     0.035890265   -0.22629325     0.00069145227
   8305000   0.04969222    -0.33613711     0.036148432   -0.22545515     0.00028804542
   8306000   0.049690054   -0.33683496     0.036038841   -0.22626585     0.00012197067
   8307000   0.049825586   -0.33652285     0.036138809   -0.22565048     0.00047151946
   8308000   0.050555303   -0.33685643     0.035709001   -0.22531937     0.0021020488 
   8309000   0.050055169   -0.33676245     0.036534274   -0.22515027     0.00039167191
   8310000   0.049890329   -0.33681848     0.03673568    -0.22525214     0.00054546074
   8311000   0.050305468   -0.33656882     0.036075095   -0.22504039    -0.0009195758 
   8312000   0.049966989   -0.33652402     0.036392651   -0.22518572    -0.0012700723 
   8313000   0.050560662   -0.3364162      0.036327358   -0.22425274    -0.00021607328
   8314000   0.050240976   -0.33652672     0.03625061    -0.22491951     0.00011172115
   8315000   0.049788237   -0.33620621     0.036290126   -0.22523854    -0.0012685054 
   8316000   0.050630618   -0.33655702     0.036437175   -0.22417882     0.00013013372
   8317000   0.050320263   -0.33654048     0.036778121   -0.22428684    -7.6215867e-05
   8318000   0.050101831   -0.3365432      0.035916945   -0.22547835     0.00049491266
   8319000   0.050094227   -0.33683624     0.036419176   -0.22528057    -0.00079243543
   8320000   0.04985623    -0.33676664     0.035853963   -0.22613316     0.00029462413
   8321000   0.050102159   -0.33633666     0.03577876    -0.22540951     0.0017135    
   8322000   0.049869655   -0.33631807     0.03616866    -0.22534976     8.0825424e-05
   8323000   0.05044445    -0.33676118     0.035905376   -0.22519401    -0.00035604926
   8324000   0.04993174    -0.33691466     0.036034645   -0.22598723     2.7672048e-05
   8325000   0.050023291   -0.33647704     0.036045907   -0.22540104     0.001007174  
   8326000   0.049767515   -0.33680035     0.036376954   -0.22577694    -0.00083153897
   8327000   0.050539346   -0.3367233      0.036485237   -0.22443393    -0.00023468859
   8328000   0.049863408   -0.33650782     0.03643063    -0.2252869     -0.00047073852
   8329000   0.049875674   -0.33635879     0.035792239   -0.22575787    -0.00041152105
   8330000   0.05021712    -0.33676666     0.036490419   -0.22495542    -0.00086590425
   8331000   0.050171602   -0.3367322      0.036221389   -0.22525826     0.00074516051
   8332000   0.050414996   -0.33642246     0.036195807   -0.22460904     0.00059096536
   8333000   0.049358683   -0.33643554     0.036304019   -0.22609828     0.00015190253
   8334000   0.049968957   -0.33687399     0.035851121   -0.22607427    -0.00067416391
   8335000   0.049942367   -0.33654976     0.036048638   -0.22559241    -0.00041087119
   8336000   0.050916515   -0.33680633     0.035987773   -0.22444871    -0.00066242743
   8337000   0.049419344   -0.33663417     0.035656449   -0.22685349    -0.00073459248
   8338000   0.050174305   -0.33700863     0.036033184   -0.22571884     0.00048645612
   8339000   0.049921678   -0.33671028     0.036221498   -0.22561109    -0.00033746416
   8340000   0.049803042   -0.33637499     0.036132131   -0.22554312    -0.00013036826
   8341000   0.050219513   -0.33683314     0.03673085    -0.22477788     0.00054302618
   8342000   0.050559492   -0.33644198     0.036091469   -0.22451617     0.0013840397 
   8343000   0.049619758   -0.3362743      0.035854903   -0.22599456    -0.00093827102
   8344000   0.049839463   -0.33657282     0.035763947   -0.2260545      0.00093600446
   8345000   0.050420329   -0.33696543     0.03582664    -0.22551317    -7.8416485e-05
   8346000   0.050578117   -0.33666594     0.036428916   -0.22437475     0.00030225526
   8347000   0.050117855   -0.33633172     0.036109275   -0.22505051    -2.5930437e-05
   8348000   0.050757567   -0.33632032     0.035723564   -0.22446532     0.00091996737
   8349000   0.050177943   -0.3366428      0.036784743   -0.224596      -0.0016313226 
   8350000   0.0501128     -0.33658132     0.036480151   -0.22493682    -0.00028450491
   8351000   0.049690595   -0.3364125      0.036202355   -0.22567906    -0.00058574558
   8352000   0.05064505    -0.33692099     0.03627883    -0.22467949     5.7142418e-05
   8353000   0.050165878   -0.33637697     0.037075133   -0.22405787    -0.0012077872 
   8354000   0.05029369    -0.3364697      0.036310897   -0.22472313     0.0012733829 
   8355000   0.049991282   -0.33676952     0.036440243   -0.22534719     0.0010914323 
   8356000   0.049878334   -0.33713552     0.036161816   -0.22616103     0.0013516998 
   8357000   0.049740404   -0.33685409     0.036039106   -0.22620919     0.00087857165
   8358000   0.049931911   -0.33713619     0.035906673   -0.22633648    -0.0010788306 
   8359000   0.049986806   -0.33701099     0.035974977   -0.22606064     0.00093344784
   8360000   0.049870709   -0.33713818     0.03668172    -0.22565522    -0.0012567707 
   8361000   0.04966931    -0.33668782     0.036387954   -0.22580071     0.0010346434 
   8362000   0.050190666   -0.33618411     0.035891274   -0.22501169     0.00060213378
   8363000   0.050040562   -0.33656493     0.03633915    -0.22516978     2.3181442e-05
   8364000   0.050267453   -0.33661375     0.035567271   -0.22565017     0.00082468288
   8365000   0.049930423   -0.33619431     0.036561565   -0.22474194     0.0012152574 
   8366000   0.050520316   -0.33666602     0.036536883   -0.22435355    -0.00069480331
   8367000   0.050116184   -0.33696799     0.036726751   -0.22507182    -0.0015378797 
   8368000   0.049974832   -0.33640221     0.036176831   -0.22526797    -0.0001111861 
   8369000   0.049642989   -0.33684031     0.035707299   -0.22667333    -0.00054570343
   8370000   0.050028527   -0.3367563      0.035663358   -0.22605499     0.00036232963
   8371000   0.050008884   -0.33677576     0.036454933   -0.22531234    -0.00011692143
   8372000   0.05039277    -0.33702062     0.036072916   -0.22536343    -0.00042414158
   8373000   0.050153477   -0.3364648      0.036024153   -0.22521529     3.5939209e-05
   8374000   0.049799321   -0.33648629     0.036565027   -0.22522711    -7.2102691e-05
   8375000   0.049792541   -0.3368907      0.03576705    -0.22643966    -0.00024834107
   8376000   0.049816262   -0.33679549     0.0360459     -0.22603002    -0.00047803548
   8377000   0.049618191   -0.33646784     0.035246814   -0.22679854     0.0011818491 
   8378000   0.049417895   -0.33647425     0.036520114   -0.22583208     0.0003405037 
   8379000   0.050216548   -0.33691551     0.035860515   -0.22573503     0.00040588802
   8380000   0.050071679   -0.33675456     0.036133429   -0.22551846    -0.00054495456
   8381000   0.049212964   -0.33652134     0.036053565   -0.2266531     -1.4880541e-05
   8382000   0.049628773   -0.33690895     0.035871959   -0.22659863    -0.00048063894
   8383000   0.05000162    -0.3369744      0.036031998   -0.22594481    -0.0016029281 
   8384000   0.049639128   -0.33691527     0.035791553   -0.22666983    -0.00097865708
   8385000   0.050232851   -0.33667463     0.036271618   -0.22505859     0.00062035783
   8386000   0.050096115   -0.33680086     0.036239663   -0.22542187    -0.0006678287 
   8387000   0.050196109   -0.33669324     0.036400079   -0.22500386     0.0008050459 
   8388000   0.050057294   -0.33660745     0.036773268   -0.22475309    -0.00025889226
   8389000   0.049977922   -0.33687428     0.036773282   -0.22513896    -0.0010077062 
   8390000   0.050215524   -0.33664609     0.036203301   -0.22512436    -0.0002560704 
   8391000   0.049762194   -0.3365051      0.036438779   -0.22542785    -6.049837e-05 
   8392000   0.049493121   -0.3365534      0.036556327   -0.22576218     0.00039928162
   8393000   0.050221889   -0.33647        0.036495623   -0.2246464     -0.0011000497 
   8394000   0.049987179   -0.3366188      0.036543557   -0.22509931    -0.00012110976
   8395000   0.049836789   -0.33667985     0.03629915    -0.22563034    -0.00050733122
   8396000   0.050635627   -0.33690519     0.036333026   -0.22462362     0.00080694063
   8397000   0.050109034   -0.33680737     0.036602849   -0.22504582    -1.1631928e-05
   8398000   0.050070773   -0.3368665      0.036690309   -0.22507488    -0.00045638521
   8399000   0.049999354   -0.33674833     0.035968931   -0.2257852     -0.00079127725
   8400000   0.049858158   -0.33689355     0.036066176   -0.22604497    -3.2150758e-05
   8401000   0.049938028   -0.3368023      0.03603284    -0.22586725    -0.0018261035 
   8402000   0.05081616    -0.33667468     0.036566106   -0.22388925    -0.00031236152
   8403000   0.050119485   -0.33664167     0.036549424   -0.22491787    -0.00077585052
   8404000   0.049980953   -0.3368562      0.036439131   -0.22545047     0.00022588643
   8405000   0.049964227   -0.33601271     0.035930953   -0.22514025    -0.00020067728
   8406000   0.049616025   -0.33653822     0.035877415   -0.22624156    -0.00062027028
   8407000   0.049773481   -0.33660583     0.035530493   -0.22641993     0.0013037527 
   8408000   0.049961263   -0.33713297     0.036087008   -0.2261089     -0.00039736702
   8409000   0.049718168   -0.33670955     0.036610625   -0.22552649    -0.0012002369 
   8410000   0.049871839   -0.3371433      0.037230784   -0.22510959     7.825506e-05 
   8411000   0.050281077   -0.33685146     0.036202839   -0.22523187    -0.00090938574
   8412000   0.049986618   -0.33700868     0.036284961   -0.22574863    -0.0010000367 
   8413000   0.050029604   -0.33678967     0.035961829   -0.22578827    -6.651764e-05 
   8414000   0.050164615   -0.33674617     0.036465433   -0.22503867     0.00016624956
   8415000   0.050155246   -0.33680038     0.035931861   -0.2256405      0.00026253796
   8416000   0.049912323   -0.3363742      0.035754758   -0.22575578     0.00067532738
   8417000   0.05026529    -0.33715095     0.035993407   -0.22576447    -0.00063518899
   8418000   0.0501318     -0.33710147     0.036229216   -0.2256794     -0.00077088704
   8419000   0.050080276   -0.33667797     0.035549595   -0.22601281     2.476524e-05 
   8420000   0.049701645   -0.33658565     0.035631871   -0.22640612    -0.00029878449
   8421000   0.050144289   -0.33702873     0.036260297   -0.22555685     3.2199512e-06
   8422000   0.049399254   -0.33674714     0.036434539   -0.2262185     -0.0010656628 
   8423000   0.049352546   -0.3368649      0.036089703   -0.22675116     0.0002332344 
   8424000   0.049807354   -0.33708801     0.036364498   -0.2260173     -0.00028852754
   8425000   0.049745907   -0.33679974     0.036702916   -0.22548277    -0.00044421725
   8426000   0.049993568   -0.33698086     0.03674071    -0.22525464    -0.00021737651
   8427000   0.049994676   -0.33652727     0.036092795   -0.2254473      0.0011077853 
   8428000   0.050456109   -0.33672162     0.036289335   -0.224753       3.3779997e-05
   8429000   0.050436801   -0.33675575     0.036633215   -0.22447221    -0.00035672922
   8430000   0.04988257    -0.33623554     0.036106737   -0.22530978    -0.00029209085
   8431000   0.04948714    -0.33687064     0.036384687   -0.22626003    -0.00054344305
   8432000   0.04990076    -0.3368154      0.03574088    -0.22622821    -0.00085846592
   8433000   0.050066168   -0.33657416     0.03602044    -0.22545931     0.00050122107
   8434000   0.050001474   -0.33672652     0.036028325   -0.22570082    -1.4128566e-05
   8435000   0.050246458   -0.33665636     0.035998504   -0.22529303     0.0017031686 
   8436000   0.050658327   -0.33651694     0.036329865   -0.22420449     0.00064339864
   8437000   0.050334534   -0.33691731     0.036568667   -0.22485171     9.3973811e-05
   8438000   0.050095369   -0.33679718     0.036143385   -0.22551559    -0.00016364278
   8439000   0.049784734   -0.33632432     0.035884705   -0.22576733    -0.00061702627
   8440000   0.049567388   -0.33652087     0.035987423   -0.22618716    -0.0019641836 
   8441000   0.049642304   -0.33681957     0.035731564   -0.22662935     0.00049013407
   8442000   0.05019363    -0.33667304     0.035698096   -0.22568936     0.00059731327
   8443000   0.049748202   -0.33608203     0.035604335   -0.22586021     0.00017769576
   8444000   0.050475286   -0.33620831     0.036615373   -0.22388489    -9.5845419e-05
   8445000   0.050073383   -0.33694312     0.036289728   -0.22554816     0.00030975718
   8446000   0.050468603   -0.33711137     0.03624422    -0.22516913    -0.00024709942
   8447000   0.049921528   -0.33642834     0.036424958   -0.22512592     0.00039329417
   8448000   0.050122237   -0.33667583     0.03612082    -0.22537651     0.0005803188 
   8449000   0.049620195   -0.33659862     0.036564019   -0.22560911     0.0012747267 
   8450000   0.049786473   -0.33674952     0.036237047   -0.22583758     0.00025452323
   8451000   0.050026059   -0.33672201     0.036363157   -0.22532461    -0.0002334772 
   8452000   0.049606196   -0.33693182     0.03610525    -0.22642208     0.00017631791
   8453000   0.049521376   -0.33686017     0.036567867   -0.22601503     0.00036671062
   8454000   0.049235275   -0.33701086     0.036256322   -0.22690639    -8.799454e-05 
   8455000   0.050396847   -0.336925       0.035419536   -0.22591507    -7.1925027e-05
   8456000   0.050134691   -0.33695961     0.03597715    -0.22578527     0.001940192  
   8457000   0.05028614    -0.336617       0.036100729   -0.22509193     0.00070232768
   8458000   0.050576029   -0.33678092     0.035935902   -0.22498587    -0.00031600315
   8459000   0.049643184   -0.33654505     0.036149883   -0.2259352     -0.00054535668
   8460000   0.05062427    -0.33685832     0.035772933   -0.22515388    -0.00014453634
   8461000   0.049705919   -0.33696735     0.036455255   -0.22595803     0.00018417372
   8462000   0.050317614   -0.33660917     0.035803773   -0.22533385     0.0010630654 
   8463000   0.050327028   -0.33628207     0.036070786   -0.22472562    -0.00030328084
   8464000   0.050221648   -0.33674396     0.036517884   -0.22489846    -0.00066986875
   8465000   0.049679016   -0.33673211     0.03589541    -0.22632298     0.00051985703
   8466000   0.050541204   -0.3364204      0.035887947   -0.22472554     0.0020031391 
   8467000   0.049989001   -0.33681222     0.036354843   -0.22547872    -9.8639645e-05
   8468000   0.050140003   -0.33643304     0.035824414   -0.22540347     0.00095591865
   8469000   0.050196583   -0.33707799     0.035799685   -0.22598829    -0.0004940303 
   8470000   0.050084173   -0.33644647     0.036182363   -0.22514269    -0.00025601524
   8471000   0.049622439   -0.33679282     0.03617483    -0.22618913     0.0015083828 
   8472000   0.050026054   -0.33673189     0.035908719   -0.22578894     0.0010933312 
   8473000   0.049950486   -0.3372046      0.036287748   -0.22599596    -0.0012621302 
   8474000   0.049799226   -0.33673951     0.035844254   -0.22620124     0.00017584298
   8475000   0.049983306   -0.33699074     0.036376005   -0.22564461     0.00052792299
   8476000   0.049689957   -0.33668727     0.037266496   -0.22489065    -0.00077828162
   8477000   0.05010008    -0.33667456     0.036433158   -0.22509613     0.00081569875
   8478000   0.050569645   -0.33679671     0.036203261   -0.22474387    -0.00037446574
   8479000   0.050336798   -0.33655428     0.035946185   -0.22510777     0.00034502226
   8480000   0.05020722    -0.33672055     0.036292168   -0.22512242     0.00063004704
   8481000   0.05036798    -0.33690186     0.036688325   -0.22466644    -0.00050906683
   8482000   0.05005238    -0.33674839     0.036505311   -0.22516935     0.00017072089
   8483000   0.049385158   -0.33685107     0.036108924   -0.22666919     0.00073985414
   8484000   0.049946663   -0.33718225     0.036192905   -0.22607418     0.00076419831
   8485000   0.049545945   -0.33662225     0.036313098   -0.22599503     0.0014787653 
   8486000   0.050076778   -0.33695075     0.036217188   -0.22562324    -0.0001584463 
   8487000   0.04996267    -0.33655983     0.03717792    -0.22444273     0.00010608315
   8488000   0.050292883   -0.33669894     0.036873164   -0.22439132     5.8388793e-05
   8489000   0.049870011   -0.33645969     0.036464918   -0.22519458     0.00028179196
   8490000   0.050090512   -0.3370119      0.036235042   -0.22564594    -0.0010323412 
   8491000   0.050328658   -0.33696017     0.036420991   -0.22505106    -0.00039516535
   8492000   0.0505051     -0.33655883     0.035773402   -0.22503266     0.0009259335 
   8493000   0.050412845   -0.33696361     0.035888578   -0.22546065     0.00094935937
   8494000   0.049866321   -0.33669326     0.036249139   -0.22564947    -0.0013203642 
   8495000   0.049977917   -0.33688241     0.035851352   -0.22606902     6.045009e-05 
   8496000   0.049402131   -0.33698384     0.036425212   -0.22646021    -0.00057944993
   8497000   0.050452607   -0.33709779     0.036204808   -0.22521896     0.0012007485 
   8498000   0.050295386   -0.3366678      0.036854812   -0.22437478     0.00077079117
   8499000   0.050377977   -0.33683207     0.036423869   -0.22484611     0.00089939853
   8500000   0.050391745   -0.33695164     0.036644103   -0.2247248     -0.00027997268
   8501000   0.049690156   -0.33683491     0.036666457   -0.22563803    -0.0012847325 
   8502000   0.049560379   -0.33673234     0.036123266   -0.2262733      0.0016035494 
   8503000   0.050153709   -0.33678775     0.035620216   -0.22594182     0.0014980361 
   8504000   0.049762894   -0.33656167     0.03612589    -0.22579626    -0.00072115895
   8505000   0.049661842   -0.33684244     0.036016617   -0.22633786     0.0016652329 
   8506000   0.050015452   -0.33700597     0.036412287   -0.22557534    -0.00082867662
   8507000   0.050327195   -0.33678406     0.036634017   -0.22466412    -1.1392151e-05
   8508000   0.049755194   -0.33679851     0.036762003   -0.22540853    -0.00048230632
   8509000   0.050341732   -0.33677665     0.036275846   -0.22499308     0.00019079746
   8510000   0.049646569   -0.33688464     0.036011335   -0.22640825     0.00023771576
   8511000   0.049662477   -0.33719721     0.036718072   -0.22599023     0.0011699907 
   8512000   0.04999402    -0.33672829     0.035872627   -0.22586947    -0.00044973199
   8513000   0.049800246   -0.33660555     0.035931746   -0.22597825     0.0015753514 
   8514000   0.049448718   -0.33666599     0.036102977   -0.22639472     0.00013713619
   8515000   0.049529096   -0.33673836     0.035360061   -0.22708945     0.00040175597
   8516000   0.049704621   -0.33731999     0.036249781   -0.22651808     8.056361e-05 
   8517000   0.049808031   -0.33679989     0.03658829    -0.22550437    -0.00040117313
   8518000   0.049957712   -0.33681322     0.036260385   -0.2256211      0.00070396004
   8519000   0.05022131    -0.33738299     0.036513131   -0.22554276    -0.00014213865
   8520000   0.049436324   -0.33700696     0.036218834   -0.22663843     0.00067673749
   8521000   0.04979638    -0.33681658     0.036181473   -0.22594536     0.00039965212
   8522000   0.050068008   -0.33666421     0.036018664   -0.22554838    -0.0004335795 
   8523000   0.05049843    -0.33622562     0.036643462   -0.2238394      0.00091059409
   8524000   0.050125029   -0.33661538     0.036464932   -0.22496775     7.7591235e-05
   8525000   0.050655442   -0.33667266     0.036756739   -0.22393766     0.00015191292
   8526000   0.050247562   -0.33685985     0.036426633   -0.22506674    -0.00035518679
   8527000   0.050340286   -0.33694194     0.0368345     -0.22460188    -5.9162641e-05
   8528000   0.049906009   -0.33671558     0.036582612   -0.22527878     0.0004981713 
   8529000   0.04962755    -0.33682537     0.036573      -0.22581584    -0.00024897659
   8530000   0.049678625   -0.33676459     0.035569538   -0.22668193    -0.00099139708
   8531000   0.049705815   -0.33665125     0.036265651   -0.22583169    -0.00033735019
   8532000   0.049925882   -0.33698859     0.036204223   -0.22590038    -0.00011625548
   8533000   0.050050406   -0.33697873     0.036082729   -0.22582524    -0.0018658367 
   8534000   0.049792467   -0.33670591     0.036149781   -0.22587224    -0.00042346989
   8535000   0.049593713   -0.33664083     0.035294472   -0.22696059    -0.00029600896
   8536000   0.050104535   -0.33687271     0.035994696   -0.22572606    -0.0015273772 
   8537000   0.049817989   -0.33660576     0.035731566   -0.22615203    -0.00076274958
   8538000   0.050102592   -0.33672261     0.035822293   -0.22575127     0.0015925605 
   8539000   0.050002827   -0.33667833     0.036510021   -0.2251689      0.0010966014 
   8540000   0.049898668   -0.33666901     0.036255735   -0.2255701     -0.00055398523
   8541000   0.04963658    -0.33680188     0.035587605   -0.22676421    -0.0006471134 
   8542000   0.049475718   -0.33690796     0.036555463   -0.22614371     0.00058905026
   8543000   0.050224861   -0.33683869     0.035782588   -0.22572367     0.0004437205 
   8544000   0.049773834   -0.33655629     0.035934228   -0.22596613     0.00047751315
   8545000   0.049825201   -0.3369876      0.036053466   -0.22620115     0.0001322722 
   8546000   0.050320669   -0.33667213     0.036049075   -0.22514692     0.00061158074
   8547000   0.049969219   -0.33620312     0.036375152   -0.22487897     0.0016186129 
   8548000   0.050204086   -0.33692859     0.036021728   -0.22560559    -0.00059150828
   8549000   0.050208722   -0.33639035     0.036414233   -0.22466789     0.0010083345 
   8550000   0.049737281   -0.33673663     0.035821623   -0.2263139      0.001805153  
   8551000   0.049828286   -0.33682394     0.036079886   -0.22600645    -0.00069602588
   8552000   0.050477025   -0.33674966     0.03663509    -0.22440392    -0.00053455686
   8553000   0.050075369   -0.33711144     0.03592678    -0.22607645     1.8296338e-05
   8554000   0.050541846   -0.33642454     0.03637       -0.22424666    -0.00013346894
   8555000   0.050318265   -0.33675236     0.035982834   -0.22529699    -0.00080767316
   8556000   0.050271302   -0.33670463     0.0363935     -0.22490904     0.0010674764 
   8557000   0.049887247   -0.33672243     0.036592967   -0.22530342    -0.000661766  
   8558000   0.049673379   -0.3363712      0.035731504   -0.22613444    -0.0013685852 
   8559000   0.049707679   -0.33643572     0.03653457    -0.22534444     5.9314512e-05
   8560000   0.050489919   -0.33688234     0.036611352   -0.224541       0.00016499577
   8561000   0.050167327   -0.33673854     0.035999157   -0.22549325     0.00078389638
   8562000   0.050524635   -0.3365055      0.036361357   -0.22436208     0.000108668  
   8563000   0.050223313   -0.33682095     0.036103731   -0.22538711    -0.00026118136
   8564000   0.050092809   -0.33674869     0.036549235   -0.22506509    -0.0014535057 
   8565000   0.05019723    -0.33674482     0.036320596   -0.22513324     0.0004021811 
   8566000   0.050822341   -0.33664214     0.03524421    -0.22516933     0.00096967501
   8567000   0.049853071   -0.33680272     0.036343229   -0.2256847      0.00026682732
   8568000   0.049966023   -0.33724103     0.0356616     -0.22663523     2.3476537e-05
   8569000   0.049241436   -0.33719497     0.036539454   -0.22679812    -0.00033919066
   8570000   0.049952471   -0.33682744     0.035794372   -0.22610919     0.0009250704 
   8571000   0.050266496   -0.33668479     0.036061109   -0.2252288     -0.00023737995
   8572000   0.050645814   -0.33676922     0.036245679   -0.22455973    -0.00018486367
   8573000   0.049687744   -0.33611429     0.036792496   -0.22479498     0.00012004019
   8574000   0.050432205   -0.33665246     0.03630461    -0.22470442     0.00025303935
   8575000   0.050014794   -0.3366076      0.036579453   -0.2250108      0.00061161619
   8576000   0.050065051   -0.33659406     0.03608054    -0.22542079     0.00044812094
   8577000   0.049876035   -0.33627735     0.035856286   -0.22561184     0.0016124011 
   8578000   0.049805041   -0.33709856     0.03614651    -0.22624931    -0.00023434027
   8579000   0.049896845   -0.33687772     0.03636629    -0.225671      -0.0010564894 
   8580000   0.050604254   -0.33711684     0.035858645   -0.22535671     0.00081336168
   8581000   0.04980008    -0.33687094     0.036387507   -0.22578813     0.00061962798
   8582000   0.04969503    -0.33665732     0.036291045   -0.22582854    -0.00053216328
   8583000   0.050125303   -0.33642878     0.0365372     -0.22470847     0.00080425952
   8584000   0.049718415   -0.33657438     0.036107483   -0.22589409    -0.00018996267
   8585000   0.049594386   -0.33680071     0.035903258   -0.22651067     0.00039544649
   8586000   0.050144295   -0.33713309     0.035930864   -0.22599064     0.00034923534
   8587000   0.050145596   -0.33695631     0.036305643   -0.22543713     0.00081903598
   8588000   0.049534467   -0.3368691      0.036479524   -0.22609267     0.00029467189
   8589000   0.050614352   -0.33665229     0.036677128   -0.22405853    -9.8010128e-05
   8590000   0.050282978   -0.33650188     0.036854714   -0.22422756     0.00016132593
   8591000   0.050437519   -0.33633356     0.035968342   -0.22471382     0.0010586109 
   8592000   0.050037717   -0.3365014      0.03612954    -0.22532013    -0.00096080878
   8593000   0.04936067    -0.33679696     0.036199238   -0.22656149     0.00126825   
   8594000   0.049769493   -0.3366637      0.036116964   -0.22589731     3.8239079e-05
   8595000   0.050273733   -0.33640322     0.035788531   -0.22520895     0.0013097733 
   8596000   0.04918226    -0.33659542     0.035951061   -0.22687573    -0.00051867793
   8597000   0.049720722   -0.33692612     0.035946841   -0.226403       0.00084689413
   8598000   0.049750218   -0.33634792     0.036171379   -0.22555603    -0.0012255294 
   8599000   0.049921222   -0.33658988     0.036014415   -0.22569846    -0.0010735444 
   8600000   0.049898637   -0.33695595     0.035644081   -0.22646874     0.00064803736
   8601000   0.050118814   -0.33638785     0.036249815   -0.22496466    -0.00019493439
   8602000   0.050095907   -0.3366009      0.035459642   -0.22600224    -0.00018852755
   8603000   0.049720381   -0.33699451     0.035867367   -0.22655139    -3.5295588e-05
   8604000   0.049331238   -0.33674249     0.035981578   -0.22676883     0.0014179047 
   8605000   0.050092888   -0.33646881     0.036464514   -0.22486981     0.0012016427 
   8606000   0.049878089   -0.33640293     0.036238075   -0.22535255     0.00082349978
   8607000   0.050345628   -0.33710282     0.036038931   -0.22555032    -0.00071124054
   8608000   0.050144516   -0.3369082      0.03596642    -0.22572985     0.0015668256 
   8609000   0.050132949   -0.33637584     0.036057998   -0.22512327     0.0010511501 
   8610000   0.050352688   -0.33628287     0.036547695   -0.22421102     0.0013943131 
   8611000   0.050353852   -0.33629158     0.036270029   -0.22449564     0.00068376631
   8612000   0.050500445   -0.3373362      0.036129833   -0.22546059     0.00044974291
   8613000   0.049510239   -0.33652813     0.036465729   -0.22580183     1.715779e-05 
   8614000   0.050251221   -0.33638122     0.036193781   -0.22481547     0.002021064  
   8615000   0.050290132   -0.33691478     0.035978501   -0.22550595     0.0012361447 
   8616000   0.049884696   -0.33656194     0.036058828   -0.2256809      0.00079744109
   8617000   0.049878557   -0.33680508     0.036605152   -0.22538692     0.0004391286 
   8618000   0.049912      -0.33680924     0.035787481   -0.22615859     0.00028025646
   8619000   0.050240726   -0.33693157     0.036063035   -0.2255123     -0.0012724292 
   8620000   0.049488941   -0.33688762     0.036391227   -0.22626777    -0.00020077166
   8621000   0.049776305   -0.33646337     0.036186755   -0.22561697     0.00058070433
   8622000   0.050217418   -0.33666478     0.036233034   -0.22511048     0.00089386526
   8623000   0.049700016   -0.33705335     0.036198254   -0.22630988    -0.00047138901
   8624000   0.049607852   -0.3363871      0.035674359   -0.22630577     0.0013228751 
   8625000   0.049873347   -0.33642367     0.036487768   -0.22513071     0.00048014608
   8626000   0.050349513   -0.33649682     0.034888811   -0.22608861     0.00047517169
   8627000   0.049860432   -0.33636983     0.03645285    -0.22513116     0.00018068127
   8628000   0.049727678   -0.33635772     0.036503348   -0.22526766     0.00069182325
   8629000   0.050040444   -0.33673625     0.036271902   -0.22540852     0.00036146334
   8630000   0.05038677    -0.33650154     0.035831785   -0.22509448     0.00045250567
   8631000   0.050323427   -0.33652103     0.035980914   -0.22505985     0.0012873477 
   8632000   0.050079625   -0.33651107     0.03591099    -0.22548549    -0.00045653463
   8633000   0.049558354   -0.33637004     0.036120281   -0.22591703     0.0010171247 
   8634000   0.050090943   -0.33653079     0.035978918   -0.22542031     0.0014844068 
   8635000   0.050067803   -0.33663021     0.035857793   -0.22567556     0.001336076  
   8636000   0.050086605   -0.33685011     0.035966565   -0.22575848     0.00075169711
   8637000   0.049655561   -0.33649843     0.03623087    -0.22578903    -0.00059227929
   8638000   0.050232565   -0.33664496     0.035569998   -0.22573098     0.00036931748
   8639000   0.049951497   -0.33693652     0.036021106   -0.22599301     0.00016685773
   8640000   0.050514915   -0.33700872     0.03619109    -0.22505015    -0.0011523808 
   8641000   0.049990286   -0.33684802     0.036307386   -0.22556004    -0.00051117157
   8642000   0.049666854   -0.33651019     0.036684171   -0.22533054    -7.7998087e-05
   8643000   0.049757344   -0.33706386     0.03616113    -0.22627153    -0.00033978576
   8644000   0.049942623   -0.33652422     0.036031804   -0.22558331    -0.00034545338
   8645000   0.050064148   -0.33692298     0.036285827   -0.22554577     0.0011897408 
   8646000   0.050111115   -0.33650236     0.036288964   -0.22505157     0.0011028854 
   8647000   0.050383172   -0.33661745     0.036138087   -0.22490948    -0.0018682874 
   8648000   0.049948097   -0.33675256     0.036448052   -0.22538719     0.0017508045 
   8649000   0.050056357   -0.33668232     0.03562575    -0.22597688    -0.00046646193
   8650000   0.050102648   -0.3369642      0.036890622   -0.22492446    -0.0010943412 
   8651000   0.050362723   -0.33692705     0.036495952   -0.22489189     0.00031646073
   8652000   0.05054043    -0.3367985      0.035576062   -0.22541669     0.00043286321
   8653000   0.050209741   -0.33692498     0.036318858   -0.22529637    -0.00035774284
   8654000   0.049728335   -0.33651804     0.036689828   -0.22524052    -0.00029111614
   8655000   0.049900819   -0.33653798     0.03631663    -0.22537495    -3.9969123e-05
   8656000   0.050275878   -0.33692891     0.036317802   -0.22520216    -0.0010740147 
   8657000   0.049639532   -0.33707921     0.036346856   -0.22627786    -0.00016881062
   8658000   0.049688125   -0.33662763     0.036081175   -0.22601907    -0.00065911588
   8659000   0.049474764   -0.3369237      0.036595401   -0.22612094    -0.00098807105
   8660000   0.050007568   -0.33698018     0.036044291   -0.22592938     8.4409994e-05
   8661000   0.049612583   -0.33675044     0.036241965   -0.2260944      0.0012923257 
   8662000   0.050049929   -0.33659923     0.036223937   -0.22530524    -0.00075310124
   8663000   0.049743011   -0.33657044     0.036661307   -0.22529943     0.0007261724 
   8664000   0.049772949   -0.3364742      0.036385222   -0.22543437     0.00053443321
   8665000   0.050024894   -0.3364861      0.036107252   -0.22534635     0.00078199532
   8666000   0.050039936   -0.33662272     0.035870172   -0.22569749     0.0019430584 
   8667000   0.049759842   -0.33690855     0.036043401   -0.2262302      0.00073114303
   8668000   0.050264965   -0.33678675     0.035905562   -0.22548861     0.00045663029
   8669000   0.049311987   -0.33662993     0.036433234   -0.22623349     0.00044578917
   8670000   0.04998041    -0.33685722     0.035741883   -0.22614956    -0.0010908572 
   8671000   0.050267556   -0.33648452     0.036633692   -0.22445436    -0.0004820895 
   8672000   0.050167502   -0.33644068     0.036502621   -0.22469166     0.00071316304
   8673000   0.049870449   -0.33667807     0.036494505   -0.22538272     0.00022909242
   8674000   0.050158976   -0.33648934     0.036373397   -0.22488234     0.00025448659
   8675000   0.050754205   -0.33714298     0.036516798   -0.22449978    -0.00011922553
   8676000   0.050056296   -0.33682864     0.036763126   -0.22498591     1.1379444e-05
   8677000   0.049788746   -0.33666094     0.036579418   -0.22540322    -0.0013152769 
   8678000   0.049921535   -0.33668053     0.036121945   -0.22568111     0.00067670891
   8679000   0.049528432   -0.33677685     0.036340928   -0.22614806     0.00045868471
   8680000   0.050054519   -0.33701829     0.036102537   -0.22583882    -0.0009584086 
   8681000   0.050343895   -0.33693886     0.035996399   -0.22543149     2.2756599e-05
   8682000   0.050328113   -0.33676586     0.036191993   -0.22508656     0.0011261991 
   8683000   0.049292127   -0.33644794     0.036780273   -0.22573425     0.00027232263
   8684000   0.050066381   -0.33687425     0.036204517   -0.22557501    -0.0013450728 
   8685000   0.049784102   -0.3366881      0.036564005   -0.22545276     0.00041257967
   8686000   0.050891711   -0.33670218     0.036157251   -0.22421229     0.00047301667
   8687000   0.050136904   -0.33658934     0.036503641   -0.22488519     0.0004630967 
   8688000   0.049789472   -0.33651291     0.035792151   -0.22604137     0.0012461503 
   8689000   0.050176179   -0.33667001     0.035790083   -0.22562052     0.00066997795
   8690000   0.049705712   -0.33698014     0.036490965   -0.22593542    -0.00039354721
   8691000   0.049563839   -0.33675113     0.035462539   -0.22694763     6.3255091e-06
   8692000   0.049735974   -0.33691456     0.035993496   -0.22632191    -0.00041841676
   8693000   0.049823554   -0.33703368     0.036437079   -0.22586609    -0.00062458919
   8694000   0.049754194   -0.33669623     0.03593364    -0.22613611     0.00030240617
   8695000   0.050031197   -0.33695332     0.036109036   -0.22580233    -0.00071433269
   8696000   0.049838931   -0.33655522     0.036424565   -0.22537708    -0.00062491615
   8697000   0.049976522   -0.33689009     0.036735909   -0.22519423    -0.00055802293
   8698000   0.049760171   -0.33642393     0.036160884   -0.2256276     -0.00010219717
   8699000   0.049783601   -0.33650644     0.035768048   -0.22606781     0.00068914792
   8700000   0.050298407   -0.33660047     0.035735062   -0.22542266    -0.00060282293
   8701000   0.049857412   -0.33653478     0.036310411   -0.22544308     0.0011708605 
   8702000   0.050274976   -0.33677051     0.036176512   -0.2251864      0.00045711007
   8703000   0.050239298   -0.33679049     0.036099304   -0.2253371     -0.0005748253 
   8704000   0.050639589   -0.33643225     0.035915386   -0.22456238    -0.00025072649
   8705000   0.050551412   -0.33687856     0.035932775   -0.22512356     0.0015452791 
   8706000   0.050282073   -0.33675415     0.036045967   -0.22528994    -0.00016556059
   8707000   0.050194507   -0.33684625     0.036063292   -0.22549606     0.0013176989 
   8708000   0.050099165   -0.33679545     0.036026401   -0.22562515     0.00037576897
   8709000   0.049997458   -0.33650818     0.035753038   -0.22576379     0.0016781294 
   8710000   0.050305896   -0.33685211     0.035707965   -0.22569017     0.00094430897
   8711000   0.049464892   -0.33639604     0.03623242    -0.22597107     0.00018093384
   8712000   0.049869256   -0.33650401     0.036312815   -0.22539213     0.00030477393
   8713000   0.049771681   -0.33658013     0.036326485   -0.22560094     0.00025187296
   8714000   0.049830641   -0.33666458     0.036367331   -0.22555611     0.00029224923
   8715000   0.050246419   -0.33669069     0.035787349   -0.22553858     0.00045947216
   8716000   0.049797052   -0.33654695     0.036569019   -0.22528717    -0.00055648344
   8717000   0.050158131   -0.33661565     0.035999466   -0.22538384    -6.9255208e-05
   8718000   0.050255554   -0.33682325     0.035934618   -0.22551016    -0.00092206494
   8719000   0.050363458   -0.33627711     0.03665377    -0.22408302    -0.001303313  
   8720000   0.04992117    -0.33619444     0.036105001   -0.22521251     0.00046263649
   8721000   0.05044882    -0.33682024     0.036281908   -0.22486998     0.00055088282
   8722000   0.049789428   -0.33692827     0.035971523   -0.22627743    -0.00053179279
   8723000   0.049886867   -0.33661327     0.036252114   -0.22553569     0.0013642326 
   8724000   0.050157989   -0.33627927     0.036067837   -0.22497931     0.001164857  
   8725000   0.050246183   -0.33668295     0.036040857   -0.22527769     0.00051698608
   8726000   0.050343199   -0.33677863     0.037004387   -0.22426431     0.00032619806
   8727000   0.050542583   -0.33665586     0.035893296   -0.22495358     0.00021469212
   8728000   0.049940081   -0.33657617     0.036415835   -0.22525505     0.0010446937 
   8729000   0.049954189   -0.33715364     0.037035214   -0.22519197    -0.00040983906
   8730000   0.049874465   -0.33626295     0.035906535   -0.22554954     0.00085483638
   8731000   0.050327432   -0.33635941     0.035659093   -0.22521404     0.0005868459 
   8732000   0.049616134   -0.33627991     0.036285959   -0.22557455    -0.001005814  
   8733000   0.049861192   -0.33635333     0.036060949   -0.22550542     0.0014934631 
   8734000   0.049958488   -0.33664819     0.036129681   -0.22558561     6.1863792e-05
   8735000   0.049735523   -0.33658875     0.035900213   -0.22609006     0.00050356029
   8736000   0.050010989   -0.33674961     0.035872572   -0.22586539     0.00030968212
   8737000   0.050163514   -0.33624777     0.03638854    -0.22461882    -0.00039697524
   8738000   0.050006718   -0.33639724     0.036568889   -0.22482312     0.00068709784
   8739000   0.049743146   -0.33652976     0.036520127   -0.22539973    -0.0012870726 
   8740000   0.050049108   -0.33674606     0.035405972   -0.22627127     0.0013130261 
   8741000   0.050105834   -0.33649215     0.035851988   -0.22548626     0.0018429913 
   8742000   0.050093662   -0.33656075     0.035172805   -0.2262523      0.0003926904 
   8743000   0.049403114   -0.33653082     0.035838203   -0.22659272     0.00022884843
   8744000   0.050039333   -0.33632513     0.035927036   -0.22534394    -0.00033833081
   8745000   0.049874805   -0.33689885     0.03653923    -0.22555224    -0.0015014644 
   8746000   0.050254553   -0.33640492     0.03617084    -0.22485711    -0.00016658896
   8747000   0.05019364    -0.33658477     0.036588892   -0.22471028     0.00067584125
   8748000   0.04963399    -0.33675698     0.036590941   -0.22571985    -0.00047289537
   8749000   0.049552353   -0.33636633     0.036470979   -0.22557162     0.0006486147 
   8750000   0.050006253   -0.33656746     0.035909728   -0.22565319     0.00060865877
   8751000   0.050304577   -0.33654512     0.036153407   -0.22493971    -0.00083300148
   8752000   0.050418044   -0.33663228     0.035983145   -0.22502695     0.0021921022 
   8753000   0.049707894   -0.33636057     0.035573919   -0.22622962    -0.00025482099
   8754000   0.050004419   -0.33667189     0.035835615   -0.22583449    -0.00064257249
   8755000   0.049847763   -0.33698352     0.036159929   -0.22605677    -0.00087407187
   8756000   0.04948244    -0.33692652     0.035933015   -0.22677464     0.0012786507 
   8757000   0.049313174   -0.33688025     0.036868493   -0.22604677    -0.00064250783
   8758000   0.049835875   -0.33669592     0.035903486   -0.22604344     0.001218489  
   8759000   0.050073869   -0.33712115     0.03693058    -0.22508461    -0.00024133129
   8760000   0.050164394   -0.33666546     0.035877791   -0.22554593     0.00031749423
   8761000   0.04988766    -0.33640774     0.036279536   -0.22530154     0.00012224697
   8762000   0.05018019    -0.33654811     0.036315654   -0.22496703    -0.00068395686
   8763000   0.050406909   -0.3365848      0.036640239   -0.22433907    -0.00032742827
   8764000   0.050032757   -0.33658066     0.036781624   -0.22475474    -0.00099134533
   8765000   0.050355188   -0.33695914     0.036216794   -0.22521443    -0.0010819034 
   8766000   0.050432479   -0.33676948     0.036301545   -0.2248241     -0.0012608685 
   8767000   0.050281717   -0.33657528     0.036708232   -0.22444934    -0.0008840909 
   8768000   0.05086443    -0.33705504     0.03700768    -0.22375564     0.00036721596
   8769000   0.050457639   -0.33651194     0.035952871   -0.22487749     0.00080179067
   8770000   0.050035987   -0.3361663      0.036261246   -0.22485591    -0.00073238777
   8771000   0.04991662    -0.33628761     0.03641228    -0.22500523    -0.00027189952
   8772000   0.050443099   -0.33679802     0.035752104   -0.22538615     0.00050783079
   8773000   0.049715695   -0.33644946     0.036141787   -0.22573894     0.00012601846
   8774000   0.049988415   -0.33678698     0.035864796   -0.22594439     0.00010347331
   8775000   0.050264841   -0.33690801     0.035989583   -0.22552603    -0.00050018648
   8776000   0.050174828   -0.336775       0.035552017   -0.2259656      0.00062413203
   8777000   0.049885351   -0.33679081     0.036170153   -0.22579746     0.0010674034 
   8778000   0.050101497   -0.33679328     0.036121471   -0.22552441     0.0020020391 
   8779000   0.050337973   -0.33638761     0.036198363   -0.22468716    -6.1010856e-06
   8780000   0.050031652   -0.33670103     0.036062261   -0.22559613    -0.00031889007
   8781000   0.050198994   -0.33635667     0.036608883   -0.22445416    -0.00070869054
   8782000   0.050364778   -0.33695878     0.03583742    -0.22557907     0.000803535  
   8783000   0.049780661   -0.33643791     0.035984742   -0.225787       0.00011165848
   8784000   0.049268211   -0.3368011      0.035653847   -0.22724971     0.0016995173 
   8785000   0.049806096   -0.33680838     0.036156365   -0.22594769    -0.00044503773
   8786000   0.049921888   -0.33687101     0.036830879   -0.22516213    -0.0015290642 
   8787000   0.04930851    -0.33717718     0.036692001   -0.22652719    -0.00042060733
   8788000   0.049585093   -0.33686385     0.036137108   -0.2263539      0.00037592081
   8789000   0.050088757   -0.3368436      0.036840734   -0.22487457     0.00065929542
   8790000   0.049699537   -0.33665315     0.03692781    -0.22518084    -0.00140517   
   8791000   0.049751432   -0.33667828     0.0360838     -0.22597215     0.0002929651 
   8792000   0.049870237   -0.33714238     0.035610887   -0.22673096    -0.00034909176
   8793000   0.050277539   -0.33740648     0.035671644   -0.2263234      9.3742284e-05
   8794000   0.049807393   -0.33703929     0.036310792   -0.22602223    -0.0004041307 
   8795000   0.049592048   -0.33681876     0.036110883   -0.2263246      0.0002706894 
   8796000   0.050669678   -0.33677335     0.035567858   -0.22520588    -0.0011827042 
   8797000   0.050212566   -0.33671806     0.036644812   -0.22475926     0.00026016943
   8798000   0.050254858   -0.33634805     0.035681462   -0.22528916     0.00054486169
   8799000   0.050440347   -0.33661844     0.035718554   -0.22524425     0.00074450223
   8800000   0.049644358   -0.33715543     0.036503541   -0.22619015     0.00022265688
   8801000   0.050031605   -0.33668957     0.036374927   -0.22527208     0.00031706611
   8802000   0.049782874   -0.33711105     0.036493487   -0.22594806    -0.0018099674 
   8803000   0.049766669   -0.33738589     0.036494923   -0.22624578    -0.00018207089
   8804000   0.049737665   -0.33721954     0.036318677   -0.22629918    -0.0012084651 
   8805000   0.049417621   -0.33704127     0.035985176   -0.22693444    -0.00061588101
   8806000   0.049660653   -0.33675353     0.036406034   -0.22586133     0.0020086278 
   8807000   0.050122939   -0.33710316     0.036609769   -0.22531383     0.0011464418 
   8808000   0.050156327   -0.33704728     0.03638824    -0.2254294     -0.00096193104
   8809000   0.050076308   -0.3372868      0.037021831   -0.22515536     3.9220792e-05
   8810000   0.049719651   -0.33703852     0.036264319   -0.22619954     0.00017705102
   8811000   0.049806547   -0.33730757     0.036456894   -0.22614567    -0.0019042208 
   8812000   0.050343813   -0.33682169     0.0365187     -0.22479214     0.00044007256
   8813000   0.05003971    -0.33698674     0.035936252   -0.22599577    -0.0002298463 
   8814000   0.049567386   -0.33680879     0.036227579   -0.22623493     0.00016276085
   8815000   0.049902042   -0.33656227     0.036807619   -0.22490641     1.2855243e-05
   8816000   0.050028448   -0.33708098     0.035813683   -0.22622947    -0.00028464957
   8817000   0.050026031   -0.33739378     0.036158286   -0.22620129     0.00063934947
   8818000   0.049647467   -0.33710279     0.036934663   -0.22570173     0.00014045864
   8819000   0.050115743   -0.33705843     0.036318775   -0.22557089    -0.00048613322
   8820000   0.049685574   -0.33690629     0.036696776   -0.22568597    -0.00039166351
   8821000   0.049893324   -0.3371796      0.036388339   -0.2259561      0.00054698143
   8822000   0.049433199   -0.33679167     0.036020161   -0.2266265      0.0005966534 
   8823000   0.049597606   -0.33683175     0.036294479   -0.22614566    -1.4234579e-05
   8824000   0.050189372   -0.33685558     0.035987043   -0.22558933     0.00013684236
   8825000   0.049835817   -0.33712402     0.036412396   -0.22596272     0.00047294314
   8826000   0.049802392   -0.33715062     0.036936312   -0.22551554     0.00037876356
   8827000   0.04993507    -0.33699229     0.035949467   -0.22614505    -0.00091013516
   8828000   0.049498478   -0.33692601     0.036124937   -0.22655814     0.00089832451
   8829000   0.050176452   -0.33758548     0.035550827   -0.22677483    -0.00092009588
   8830000   0.049168329   -0.33685463     0.036110476   -0.22699642     0.00057623922
   8831000   0.049593559   -0.33679352     0.036023001   -0.22638498     0.001551996  
   8832000   0.049855791   -0.33722264     0.036119654   -0.22632412     0.00022627819
   8833000   0.049961597   -0.33680101     0.035687811   -0.22617564     0.00053646508
   8834000   0.05027419    -0.33687517     0.036014528   -0.22545422     0.00021218478
   8835000   0.050297046   -0.33691576     0.036435498   -0.22503956     0.00063998725
   8836000   0.050089493   -0.33706075     0.036541295   -0.22539007     0.00069101195
   8837000   0.050313066   -0.33715632     0.036688786   -0.2250028     -0.001524301  
   8838000   0.049805846   -0.33728402     0.035924365   -0.22665571     0.00028328307
   8839000   0.049476689   -0.33717638     0.036268186   -0.22669795    -0.0011710094 
   8840000   0.050037153   -0.33750211     0.035680342   -0.22677088    -0.00054463738
   8841000   0.049993347   -0.33708004     0.036129924   -0.22596493     0.00095156798
   8842000   0.050231653   -0.33765273     0.036247761   -0.22606235     0.00017287209
   8843000   0.049449327   -0.33696705     0.036525904   -0.22627194    -4.2329387e-05
   8844000   0.050063791   -0.33713902     0.036566597   -0.22548159     0.00098657203
   8845000   0.049915523   -0.33705027     0.036116501   -0.22606531     0.0010594178 
   8846000   0.04957776    -0.33698868     0.036212383   -0.22641445     0.00012721648
   8847000   0.050362564   -0.33775734     0.035779426   -0.22643894     0.00088588938
   8848000   0.049665261   -0.3370343      0.036635527   -0.22590569    -0.00054072795
   8849000   0.05012001    -0.33701084     0.036152208   -0.22568347     0.00081294611
   8850000   0.050050607   -0.33715643     0.036788885   -0.22529648    -0.0021857908 
   8851000   0.049983563   -0.33704518     0.036725031   -0.22534965    -0.00051082314
   8852000   0.050223114   -0.33701253     0.036372883   -0.22530983    -0.00059640862
   8853000   0.049767186   -0.33715174     0.036657673   -0.22584811    -0.0011467989 
   8854000   0.05038231    -0.3372615      0.036141775   -0.22555113     0.00012198323
   8855000   0.049835285   -0.33744635     0.03615541    -0.22654284    -0.00039095612
   8856000   0.050095554   -0.33720515     0.035975268   -0.2260914     -0.0006916242 
   8857000   0.049791302   -0.33689152     0.036141807   -0.22606757     0.0017484873 
   8858000   0.049553937   -0.33709778     0.036082164   -0.2266895     -6.2783751e-05
   8859000   0.049488494   -0.33712159     0.035822615   -0.22707102    -0.00011963323
   8860000   0.050085205   -0.33718928     0.036235752   -0.22583056    -0.00041743964
   8861000   0.04977218    -0.33733248     0.035928599   -0.22675043     0.00086723768
   8862000   0.049947196   -0.33744246     0.03633454    -0.22619196    -0.00092902323
   8863000   0.049424834   -0.33749593     0.036068648   -0.22729482     0.00081580372
   8864000   0.050298283   -0.33697021     0.03650025    -0.2250274     -4.0677103e-05
   8865000   0.049772643   -0.33696073     0.035779364   -0.22652722     0.00024087179
   8866000   0.050281786   -0.33725058     0.035473207   -0.22635956    -0.0011216594 
   8867000   0.050251046   -0.33736189     0.036369773   -0.22562041    -0.00093176309
   8868000   0.049784758   -0.33673925     0.036153325   -0.22591361    -0.0012674312 
   8869000   0.050296809   -0.33743658     0.036135147   -0.22586108     0.00077682563
   8870000   0.049695921   -0.33722913     0.036637732   -0.22605233    -0.001287524  
   8871000   0.050061623   -0.33731482     0.036705916   -0.22552132     7.6491992e-05
   8872000   0.049840871   -0.33730707     0.036650232   -0.22590035     0.00050881822
   8873000   0.050378218   -0.33721968     0.035722327   -0.2259349      0.0005695899 
   8874000   0.049973546   -0.3372786      0.036798068   -0.22552505    -0.00081533552
   8875000   0.049673075   -0.33777159     0.036630838   -0.22663595    -0.0011147951 
   8876000   0.049452403   -0.33728079     0.036079541   -0.22702743    -0.00019581677
   8877000   0.050125376   -0.3371037      0.035931584   -0.2259889      0.00030603197
   8878000   0.049559303   -0.33687968     0.036167175   -0.22637835     8.2850986e-05
   8879000   0.050200096   -0.33724711     0.036566369   -0.22538545    -0.00043793214
   8880000   0.049648507   -0.33730878     0.036854625   -0.2259862     -0.0012864186 
   8881000   0.050549084   -0.33739825     0.035693628   -0.22588589     7.7075209e-05
   8882000   0.049546955   -0.33666886     0.036049663   -0.22630356     0.0013070806 
   8883000   0.04992801    -0.33706563     0.035585761   -0.22659268     0.00038829012
   8884000   0.05029472    -0.33743486     0.036555455   -0.22544219    -0.00012973754
   8885000   0.050011961   -0.33707408     0.035899057   -0.22616192     0.00018992108
   8886000   0.049923699   -0.33661082     0.036287878   -0.22544222    -0.0014445952 
   8887000   0.050068075   -0.33712198     0.036571707   -0.225453      -0.00038825994
   8888000   0.04994297    -0.33691682     0.036341032   -0.22566616     0.0025304425 
   8889000   0.050607842   -0.33731853     0.036842188   -0.22456948    -0.00069468804
   8890000   0.05036895    -0.33728309     0.035860944   -0.2258736     -0.00021496436
   8891000   0.050502208   -0.33706354     0.036378956   -0.22493616     5.4727979e-05
   8892000   0.049776231   -0.33734888     0.036317795   -0.22637155     0.00031681384
   8893000   0.050090792   -0.33715124     0.036324381   -0.22569552    -0.0011803047 
   8894000   0.050147724   -0.33754955     0.036461052   -0.22587177    -0.00056963271
   8895000   0.050251619   -0.33728411     0.036013432   -0.22589812     0.00010758137
   8896000   0.050092338   -0.33704027     0.035952686   -0.22595393     0.0012677326 
   8897000   0.050565406   -0.3371349      0.036243378   -0.22504831    -0.00033373622
   8898000   0.050125233   -0.3370878      0.036780082   -0.22512472    -0.00019425873
   8899000   0.049907239   -0.33737123     0.035989732   -0.22652547    -0.00085715958
   8900000   0.049870055   -0.33765419     0.036338773   -0.22651516     0.00046275889
   8901000   0.049618462   -0.3372502      0.036511704   -0.2263156     -0.00044100525
   8902000   0.049678248   -0.33741979     0.036086815   -0.22682041     0.0017933978 
   8903000   0.050473975   -0.33749033     0.035752703   -0.22603155     0.00097863192
   8904000   0.049743753   -0.33713188     0.036151936   -0.22636913     0.00067079848
   8905000   0.049801211   -0.33717388     0.036252711   -0.22622417     0.00091005977
   8906000   0.050146132   -0.33751911     0.03597509    -0.22632967     5.8441351e-05
   8907000   0.049545942   -0.33737741     0.03605874    -0.22700456    -0.00034062996
   8908000   0.049869328   -0.33744889     0.036098146   -0.22655158     0.00051535582
   8909000   0.049966403   -0.33742734     0.036652331   -0.22583024    -0.0015013367 
   8910000   0.049742696   -0.33742355     0.036827207   -0.22598711    -0.00092808154
   8911000   0.050292243   -0.33729017     0.036495395   -0.22536128    -0.00059043646
   8912000   0.049798519   -0.33708605     0.036797095   -0.22559599     0.0015355471 
   8913000   0.050470648   -0.33720213     0.036073176   -0.22542786    -0.00014772116
   8914000   0.049947994   -0.33754958     0.036314395   -0.22631802    -0.0015403616 
   8915000   0.049788993   -0.33742645     0.03580776    -0.22694002     0.00065801447
   8916000   0.049733442   -0.33740161     0.035945923   -0.22686034    -0.0007335281 
   8917000   0.049904349   -0.33739453     0.035826185   -0.22671665    -0.0011487479 
   8918000   0.050150246   -0.33709828     0.036420164   -0.2254576      0.00014133259
   8919000   0.050220256   -0.33695223     0.036156318   -0.22547039    -0.0010681016 
   8920000   0.050427688   -0.33729425     0.036133674   -0.22552392    -0.00097328239
   8921000   0.049771358   -0.33755991     0.036459615   -0.22644807    -0.00028831346
   8922000   0.050434119   -0.33761997     0.035756092   -0.22621758     0.0015243979 
   8923000   0.049397091   -0.33719565     0.036218418   -0.22688638    -0.00042109708
   8924000   0.050220069   -0.33756733     0.036158215   -0.22608387    -0.00030417797
   8925000   0.049609933   -0.33714078     0.036182754   -0.22654792    -0.00012080485
   8926000   0.049875187   -0.33719134     0.036572245   -0.22581114     0.0006483689 
   8927000   0.049781648   -0.33721662     0.036592312   -0.22595665    -0.0022279906 
   8928000   0.050155734   -0.33766578     0.035925856   -0.22651118     0.00041113272
   8929000   0.050658815   -0.33735617     0.03642302    -0.22494983    -0.00047376382
   8930000   0.049722371   -0.33748121     0.035977963   -0.22692451    -0.0004331722 
   8931000   0.049634023   -0.3371708      0.036117477   -0.22660709     0.00064771155
   8932000   0.049720112   -0.33724619     0.036130219   -0.22654061    -0.0002840387 
   8933000   0.050368598   -0.33738884     0.03642058    -0.22542024     0.00079055624
   8934000   0.050300175   -0.33761702     0.036656409   -0.22551522     0.00013214765
   8935000   0.05058618    -0.33705804     0.036650025   -0.22453364     0.00095639387
   8936000   0.050462242   -0.3371306      0.035917661   -0.22552446     0.0024990105 
   8937000   0.049706699   -0.33721567     0.036273287   -0.22638715    -0.0003215672 
   8938000   0.049801811   -0.33734985     0.035933978   -0.22671798    -0.00015339972
   8939000   0.049965554   -0.33728046     0.035985089   -0.22635187    -0.00043442699
   8940000   0.050083554   -0.33755972     0.036704166   -0.22573507    -0.0015636782 
   8941000   0.05050455    -0.33703359     0.035871579   -0.22541007     0.00019744506
   8942000   0.050625806   -0.33729736     0.036525985   -0.22483756    -0.00074807682
   8943000   0.050070959   -0.33719239     0.036971676   -0.22511912    -0.00067397208
   8944000   0.050147064   -0.33753325     0.036276719   -0.22604079    -0.0014813703 
   8945000   0.04999279    -0.33719051     0.036033016   -0.22617314    -0.00045729936
   8946000   0.050435629   -0.33718973     0.036406729   -0.22513444    -0.000749226  
   8947000   0.049723102   -0.3370542      0.036347975   -0.22612638     0.00030557344
   8948000   0.050209094   -0.33744183     0.035892023   -0.22624102     0.00055509596
   8949000   0.049972207   -0.33728777     0.036882667   -0.22545163     0.0002234216 
   8950000   0.050295396   -0.33744288     0.035755426   -0.22624922     0.0012358428 
   8951000   0.050066751   -0.33774464     0.036948133   -0.22570123    -0.00018702274
   8952000   0.050019558   -0.33730959     0.036266792   -0.2260183     -0.00028105786
   8953000   0.049846633   -0.33754847     0.035981865   -0.22680148    -0.00033785662
   8954000   0.050487415   -0.33754352     0.03650007    -0.22531721    -0.0012150458 
   8955000   0.05057808    -0.33730201     0.03677889    -0.2246609     -0.00072791533
   8956000   0.050042475   -0.33736707     0.036135167   -0.22617303    -0.0012879108 
   8957000   0.0503754     -0.33737118     0.035822911   -0.22599005    -9.8644229e-05
   8958000   0.04969255    -0.33686865     0.03662935    -0.22570528     0.0003602765 
   8959000   0.050285512   -0.33728701     0.036145575   -0.22571803     0.00030084256
   8960000   0.050111584   -0.33693748     0.036285267   -0.22548969    -0.00087221292
   8961000   0.049832506   -0.33694272     0.036128793   -0.22606999     0.00018685745
   8962000   0.050280538   -0.33745637     0.035736554   -0.22630387    -0.00022976228
   8963000   0.049651793   -0.33720717     0.03581273    -0.22692156     0.000241465  
   8964000   0.049475523   -0.33722103     0.035861777   -0.22715076     0.00094697174
   8965000   0.05019167    -0.33741731     0.035909817   -0.22622485    -0.00045489016
   8966000   0.050222033   -0.33712339     0.036022113   -0.22577309     3.7817273e-05
   8967000   0.049569608   -0.33776806     0.036101954   -0.2273165      0.00018242414
   8968000   0.049747159   -0.33691103     0.035814933   -0.22648017     0.0012587453 
   8969000   0.049516611   -0.33744418     0.03580562    -0.22736843     0.00064723202
   8970000   0.049827091   -0.33720482     0.035621943   -0.22684706     0.00021827853
   8971000   0.049723013   -0.33746595     0.036724028   -0.22616222     0.00021902437
   8972000   0.049875704   -0.33752985     0.035616378   -0.22710474    -0.00064305483
   8973000   0.049882089   -0.33795967     0.035906485   -0.22723488    -0.0010769511 
   8974000   0.049317813   -0.33751421     0.036168583   -0.22737368    -8.1300806e-05
   8975000   0.049909712   -0.33729192     0.035644165   -0.22678802    -3.8447814e-05
   8976000   0.050129816   -0.33753994     0.036158697   -0.22619137     0.0001742647 
   8977000   0.050049432   -0.33764313     0.035830917   -0.22674291     0.0007469017 
   8978000   0.049919577   -0.33761195     0.0362268     -0.22651061     0.00045927793
   8979000   0.049532376   -0.33752146     0.035764816   -0.22746287     0.00014567899
   8980000   0.049873313   -0.33739411     0.035890115   -0.22669885    -0.0005705773 
   8981000   0.050419187   -0.33714925     0.035893072   -0.22563228     0.00032932337
   8982000   0.050243475   -0.33692818     0.036567132   -0.2250007     -0.00041654655
   8983000   0.050389687   -0.33730344     0.036592862   -0.22513092    -0.001085784  
   8984000   0.050358292   -0.33728281     0.035810906   -0.22593934     0.00020985266
   8985000   0.049833295   -0.33731038     0.03623473    -0.22633053     0.00076493096
   8986000   0.049921018   -0.33751371     0.036188863   -0.22644816    -0.00097406784
   8987000   0.049979779   -0.33755069     0.035598015   -0.22698784     0.0004684789 
   8988000   0.049953429   -0.33749318     0.036229858   -0.22633801    -0.00084092565
   8989000   0.04978643    -0.33770641     0.036570766   -0.22646082    -0.0001294023 
   8990000   0.050181698   -0.33750328     0.03666796    -0.22556763    -0.0009163018 
   8991000   0.050091159   -0.33739846     0.036682727   -0.22558384    -7.2072733e-05
   8992000   0.050250121   -0.33733309     0.036686205   -0.22527657     0.00034428904
   8993000   0.049732439   -0.33694479     0.036433652   -0.2259173     -0.00044545922
   8994000   0.050182074   -0.33715028     0.0357774     -0.22610463    -0.00054420242
   8995000   0.050473799   -0.33736015     0.035825179   -0.22582916     0.000923454  
   8996000   0.049627278   -0.33737092     0.036148499   -0.2267863     -0.00019847041
   8997000   0.050068038   -0.33752652     0.036366529   -0.22606278    -0.00089141483
   8998000   0.050210695   -0.33731205     0.035985224   -0.22601564    -0.00075530599
   8999000   0.050166003   -0.33707863     0.035947272   -0.22588721     0.00022494242
   9000000   0.049931031   -0.33751687     0.035342483   -0.22728267    -0.00061206269
   9001000   0.050112625   -0.33787017     0.036894346   -0.22581174     0.00079130362
   9002000   0.050409975   -0.33744343     0.036295254   -0.22553809     0.00044209308
   9003000   0.04992739    -0.33724978     0.036300606   -0.22606292     0.00033008114
   9004000   0.049941712   -0.33729637     0.035920028   -0.2264686     -6.6327492e-05
   9005000   0.050155328   -0.33773598     0.036802246   -0.22570559    -0.0012362526 
   9006000   0.049793306   -0.33764546     0.036312125   -0.2266482      0.00039512606
   9007000   0.049562872   -0.33762443     0.035742334   -0.22754259    -0.00017400715
   9008000   0.049038335   -0.3376742      0.035559884   -0.22856156     0.00032089811
   9009000   0.049245274   -0.33779935     0.035515711   -0.2284205     -0.0012675845 
   9010000   0.049674561   -0.33807754     0.035513137   -0.22805737     0.00024371206
   9011000   0.049539179   -0.33791539     0.03616021    -0.22745121    -0.00070072955
   9012000   0.049825428   -0.33739045     0.036410877   -0.22624625     0.0015054365 
   9013000   0.050149396   -0.33728796     0.035988662   -0.22608005     0.0015981473 
   9014000   0.049842263   -0.33730871     0.036218393   -0.22633174     0.00041772448
   9015000   0.049973345   -0.33746469     0.03567795    -0.22683156     0.0001941406 
   9016000   0.049838205   -0.33794524     0.036436404   -0.22675635    -0.00029770549
   9017000   0.04971637    -0.33781982     0.036840079   -0.22640999    -0.00035293658
   9018000   0.05041844    -0.3374524      0.035779127   -0.2260505      0.00046627519
   9019000   0.051134291   -0.33747256     0.036603131   -0.22417294    -0.00037602606
   9020000   0.050203667   -0.33774116     0.036174547   -0.22626598    -0.00053420029
   9021000   0.049829008   -0.33764845     0.036058521   -0.22685124     0.00080374158
   9022000   0.049742023   -0.33757405     0.036178055   -0.22678777     0.00086911079
   9023000   0.049660563   -0.33711239     0.03650837    -0.22611798    -0.00022539099
   9024000   0.050109109   -0.33746488     0.036167881   -0.22613818    -0.00054228396
   9025000   0.049919172   -0.33742103     0.036266916   -0.22628019     0.00020562281
   9026000   0.049725081   -0.33732024     0.036056765   -0.22668067     0.00094998495
   9027000   0.049891147   -0.33731928     0.036177403   -0.22630998     0.0006435249 
   9028000   0.050215355   -0.33759632     0.035683382   -0.22659477     0.00085596538
   9029000   0.049811397   -0.33722485     0.036135464   -0.22637711    -0.00027913407
   9030000   0.050346051   -0.3373016      0.037066028   -0.22472137     0.00021720926
   9031000   0.050289616   -0.33762519     0.036829715   -0.22536592     0.00015892492
   9032000   0.050359804   -0.337439       0.036552784   -0.22535138    -0.000350678  
   9033000   0.050196639   -0.33717094     0.036066564   -0.22581428     0.0004502104 
   9034000   0.050105713   -0.33760663     0.036562014   -0.22589089     0.00054339218
   9035000   0.050005311   -0.33761944     0.036570858   -0.22604545    -8.4300657e-05
   9036000   0.05000504    -0.3373495      0.035806832   -0.22653995     0.0003938239 
   9037000   0.050240557   -0.33702356     0.035622392   -0.22604519     0.00050247022
   9038000   0.049331283   -0.33762685     0.036360376   -0.22727432    -0.00078230087
   9039000   0.049772796   -0.3375372      0.035923897   -0.22695892    -0.00042656118
   9040000   0.04957575    -0.33729299     0.036650927   -0.22628324     0.00027853081
   9041000   0.049992245   -0.33776657     0.036122443   -0.2266606      0.00087858299
   9042000   0.049621711   -0.33748842     0.03592914    -0.22713152     0.00098694858
   9043000   0.049827573   -0.33771529     0.036327931   -0.22665082    -0.00088435723
   9044000   0.050106431   -0.33702377     0.035939231   -0.22592974     0.0006904949 
   9045000   0.05050402    -0.33744539     0.036138815   -0.22555543    -0.00048847593
   9046000   0.050182515   -0.33736944     0.036354182   -0.22574635     0.00088487934
   9047000   0.050249366   -0.33749366     0.03605228    -0.22607219    -9.0843858e-05
   9048000   0.049871487   -0.33707113     0.036433205   -0.22583552     0.00023048153
   9049000   0.050195815   -0.33730807     0.036158305   -0.2258609      0.0024623952 
   9050000   0.049868334   -0.33758493     0.036151575   -0.22663568     0.00028424458
   9051000   0.049157565   -0.33780438     0.036453895   -0.22761889    -0.00013910959
   9052000   0.0497058     -0.33777825     0.035185877   -0.22803848     0.0015709516 
   9053000   0.049979616   -0.33744595     0.036367606   -0.22611375     0.0012720544 
   9054000   0.049988224   -0.33754551     0.036091378   -0.22647663     0.00037951479
   9055000   0.049996675   -0.33722454     0.035727184   -0.22650718     0.00070179797
   9056000   0.050281808   -0.33689601     0.035815251   -0.22566291     0.00017191999
   9057000   0.04979144    -0.33697664     0.036129797   -0.2261645      0.00034810471
   9058000   0.050188353   -0.33714118     0.03579354    -0.22606996     0.00075868241
   9059000   0.049568232   -0.33713679     0.035595661   -0.22719358    -0.00020448531
   9060000   0.050185126   -0.33726202     0.036129504   -0.22585968     0.0011649118 
   9061000   0.049914422   -0.3374999      0.036464033   -0.22616907     0.0012551183 
   9062000   0.049512227   -0.33708988     0.036093055   -0.22673327     0.00053583342
   9063000   0.04979659    -0.33719842     0.036109314   -0.22639904     0.00056949736
   9064000   0.049911249   -0.33751988     0.035274149   -0.22738369     0.00035563059
   9065000   0.049907676   -0.33771107     0.036377694   -0.22647669    -0.00081404698
   9066000   0.049474881   -0.33735452     0.036347938   -0.22679904     0.00019751468
   9067000   0.050338561   -0.33788173     0.036210806   -0.22616796    -0.00041891422
   9068000   0.049983408   -0.33751326     0.036457911   -0.22608508    -0.00011559272
   9069000   0.049903022   -0.33731419     0.036812161   -0.22565232    -0.00013576326
   9070000   0.049934389   -0.33747444     0.036553652   -0.22602404     0.00057748526
   9071000   0.050155921   -0.33733992     0.036498001   -0.22561289     0.0021940969 
   9072000   0.049713927   -0.33703177     0.036376987   -0.22608871     0.00092299553
   9073000   0.049451639   -0.3376383      0.035728186   -0.22773745    -0.000375486  
   9074000   0.049369853   -0.33758094     0.035969419   -0.22756152     0.00044629225
   9075000   0.049881804   -0.33764695     0.035755578   -0.22707349    -0.00058744192
   9076000   0.050590495   -0.33763547     0.036188681   -0.22556594    -2.7637714e-05
   9077000   0.050451913   -0.33708929     0.036206059   -0.22521025     0.0012496812 
   9078000   0.050358405   -0.33730904     0.035887724   -0.22588858    -0.00043359558
   9079000   0.050167331   -0.33750307     0.0365317     -0.22572523     0.00071440541
   9080000   0.049954657   -0.3375807      0.03603337    -0.22662018     0.0012522797 
   9081000   0.050019624   -0.33766295     0.03601641    -0.22662195    -0.0014276197 
   9082000   0.050019643   -0.33715107     0.036154119   -0.22597233    -0.00070425204
   9083000   0.049686649   -0.33726877     0.036138176   -0.22660543     0.00016978565
   9084000   0.049909094   -0.33772389     0.035974002   -0.22689108     0.00052852405
   9085000   0.049547041   -0.33699314     0.036328637   -0.22634874     0.00048897508
   9086000   0.049909397   -0.33740341     0.036161933   -0.22638222    -0.00011772909
   9087000   0.05015899    -0.33727774     0.03689363    -0.22515048    -0.00071588213
   9088000   0.05046851    -0.33743672     0.036462309   -0.22527653     0.00033085428
   9089000   0.049712193   -0.33777162     0.036419584   -0.22678855     0.00026659078
   9090000   0.04990618    -0.33729341     0.036496265   -0.2259427      0.0015523131 
   9091000   0.050040103   -0.33746094     0.03631251    -0.22609312    -0.0010732427 
   9092000   0.049832546   -0.33720429     0.036195802   -0.22626449    -0.0011595526 
   9093000   0.049770893   -0.33771498     0.036070426   -0.22699303     0.00054068763
   9094000   0.049622154   -0.33783651     0.03570312    -0.22770496     0.0007044139 
   9095000   0.049751712   -0.33758669     0.036115428   -0.22684851    -0.00089362969
   9096000   0.050630176   -0.33755279     0.036656281   -0.22495614     0.0001024509 
   9097000   0.050213503   -0.33737037     0.03647487    -0.2255801      0.0010755953 
   9098000   0.050111458   -0.33749        0.036423492   -0.22590417    -4.0713003e-06
   9099000   0.049989095   -0.33756362     0.035979157   -0.22660566    -0.00017092541
   9100000   0.050811123   -0.33790539     0.036542895   -0.22515073     0.00080430618
   9101000   0.049977035   -0.33724882     0.036157393   -0.22613071    -0.0010193555 
   9102000   0.049509679   -0.33735012     0.035867505   -0.22722288    -0.000880561  
   9103000   0.049888363   -0.33736523     0.035562163   -0.22697535     0.001375243  
   9104000   0.049845655   -0.33718712     0.035894439   -0.22652902    -0.00045499936
   9105000   0.050517496   -0.33767374     0.03617288    -0.22572951    -9.7750339e-05
   9106000   0.049507523   -0.33726079     0.036515622   -0.22648867    -0.00036343704
   9107000   0.050437752   -0.33745114     0.036248778   -0.22555061     0.0018317997 
   9108000   0.050204849   -0.33739348     0.036064167   -0.2260269      0.00031688275
   9109000   0.049839972   -0.33747446     0.035978035   -0.22674129    -0.00035446779
   9110000   0.05028315    -0.33731182     0.036212744   -0.22567922    -0.00068227651
   9111000   0.050115512   -0.3375889      0.035103828   -0.22731665     0.00035687393
   9112000   0.05001402    -0.3377648      0.035229769   -0.22751884     0.0018555831 
   9113000   0.049722509   -0.33760427     0.036524388   -0.22650093    -0.00055287003
   9114000   0.049854028   -0.33783043     0.036222376   -0.22683184    -0.00039250666
   9115000   0.04967131    -0.33745475     0.036395117   -0.22655747     0.00019626712
   9116000   0.050337198   -0.3375055      0.036019216   -0.22598536     0.00049529052
   9117000   0.049690027   -0.33732783     0.036130542   -0.22666706    -0.00021540358
   9118000   0.049853972   -0.33708669     0.036281807   -0.22602875    -0.00047107793
   9119000   0.050064458   -0.33733742     0.03609098    -0.2261546     -3.1073982e-05
   9120000   0.049912601   -0.33711338     0.036067475   -0.22618183     0.0010946439 
   9121000   0.050175677   -0.33721723     0.03548762    -0.22647095     0.00018557714
   9122000   0.049537973   -0.33728091     0.036215686   -0.22676306    -0.00095573333
   9123000   0.050375617   -0.33757509     0.035426827   -0.22658972    -0.00024171049
   9124000   0.049317809   -0.33775085     0.036935269   -0.22684364     0.00026876063
   9125000   0.049960833   -0.33763852     0.036006134   -0.22669597    -0.00015195133
   9126000   0.05021635    -0.33759764     0.036175936   -0.22610204     0.00064867805
   9127000   0.049824557   -0.3372155      0.036536677   -0.22594681    -0.00057801169
   9128000   0.049888903   -0.33739199     0.036266216   -0.22629725     0.001135943  
   9129000   0.050114227   -0.33767372     0.035857416   -0.22664981    -0.00059481065
   9130000   0.04925804    -0.33796581     0.036054635   -0.22802889    -0.00034995276
   9131000   0.050412773   -0.33763589     0.035820341   -0.22620127    -0.00061609396
   9132000   0.049807473   -0.337546       0.036564958   -0.22627465    -0.0001776979 
   9133000   0.049783201   -0.33741609     0.036040997   -0.22670511     7.7460771e-05
   9134000   0.049736256   -0.33763206     0.036319005   -0.22671348     0.00040754053
   9135000   0.050082281   -0.33727724     0.036328429   -0.22583024     0.0013130277 
   9136000   0.049656692   -0.33756358     0.03621144    -0.2268719     -0.000561075  
   9137000   0.050502055   -0.33741443     0.036068598   -0.22559764     0.00044377388
   9138000   0.050044585   -0.33739495     0.036438803   -0.22589411    -0.00081371561
   9139000   0.049914349   -0.33750799     0.036326565   -0.22631473     0.0012278534 
   9140000   0.049775111   -0.33813352     0.036414088   -0.22706159    -0.0008143919 
   9141000   0.04977925    -0.33730501     0.036158894   -0.22648206    -0.00017941344
   9142000   0.050054882   -0.33758538     0.03609778    -0.22641012    -0.001245613  
   9143000   0.050262342   -0.33737903     0.036307542   -0.22568284     0.00055523704
   9144000   0.050028777   -0.33734066     0.036105801   -0.22619653     0.00082149876
   9145000   0.050653176   -0.33745593     0.036242728   -0.22523834    -0.00050950952
   9146000   0.050351561   -0.33731923     0.036196229   -0.22560053     0.00017304968
   9147000   0.04934602    -0.33700145     0.036562779   -0.22642441     0.00060300255
   9148000   0.050036171   -0.33762067     0.036274439   -0.22629682     0.0010222163 
   9149000   0.05010319    -0.33755544     0.036475384   -0.22593012    -0.000648887  
   9150000   0.050353617   -0.33754589     0.036417191   -0.22560315    -0.0010504028 
   9151000   0.050246216   -0.33749742     0.036174189   -0.22595877    -0.00093687667
   9152000   0.050128904   -0.33751217     0.035732821   -0.22659084     0.0021987793 
   9153000   0.049793453   -0.33765356     0.03612944    -0.22683876    -6.0792768e-05
   9154000   0.04958129    -0.33699165     0.035781572   -0.22684294    -0.00012476353
   9155000   0.050207802   -0.33766517     0.036152504   -0.22620583     0.001450738  
   9156000   0.050006525   -0.3378249      0.035878862   -0.22694109    -0.00095867825
   9157000   0.050173131   -0.33769838     0.036648281   -0.22579526    -0.00016829592
   9158000   0.050487246   -0.33751571     0.03645019    -0.22533954     0.00029627998
   9159000   0.050419059   -0.33762532     0.036160993   -0.22584062    -1.900251e-05 
   9160000   0.049874925   -0.33728082     0.036689495   -0.22578376     0.00072273853
   9161000   0.050334128   -0.33732695     0.036605496   -0.22522513     0.0008137374 
   9162000   0.050174022   -0.33759652     0.036037771   -0.22630257    -0.00036443064
   9163000   0.050319137   -0.33759053     0.036591112   -0.22552558     0.00065838081
   9164000   0.049567362   -0.33762097     0.036342489   -0.22693224    -0.00076852712
   9165000   0.050116074   -0.33760207     0.036637865   -0.22579494    -0.0013340804 
   9166000   0.050183432   -0.33757031     0.036083118   -0.2262169     -0.0003767331 
   9167000   0.049682993   -0.33745523     0.035706305   -0.22722925     0.00058772391
   9168000   0.050233871   -0.3377064      0.035880957   -0.2264795     -0.00049025637
   9169000   0.049863284   -0.33723396     0.036465121   -0.22597874    -0.00023044662
   9170000   0.050371279   -0.33734223     0.036487666   -0.22530252     0.00096007689
   9171000   0.050456653   -0.33763042     0.0368174     -0.22513292    -0.00013071031
   9172000   0.050063619   -0.33734535     0.037015423   -0.22523934    -0.00010851824
   9173000   0.050091226   -0.33767794     0.03620431    -0.22634163     0.00075651058
   9174000   0.050684143   -0.33769413     0.036589628   -0.22508319    -9.8371304e-06
   9175000   0.050873819   -0.33765002     0.036011745   -0.22533247    -0.00025449861
   9176000   0.050164992   -0.33797136     0.036769797   -0.22595894    -0.0011726864 
   9177000   0.050378916   -0.33764797     0.036725459   -0.22535901     0.00029617509
   9178000   0.049968265   -0.33767436     0.036293332   -0.22643347     0.00030321772
   9179000   0.050429477   -0.33767892     0.036459842   -0.22557974    -0.00026092374
   9180000   0.050257976   -0.33747845     0.036555104   -0.22554125     0.00085197727
   9181000   0.050251644   -0.3377487      0.03639567    -0.22598042    -0.00084283806
   9182000   0.050202187   -0.33745574     0.036857306   -0.22530001     7.2250911e-05
   9183000   0.050234137   -0.33730685     0.036302441   -0.22565806     0.00053397813
   9184000   0.050251778   -0.33794303     0.035949127   -0.2266211     -0.00015652051
   9185000   0.050225498   -0.33757847     0.036648777   -0.2255963     -0.0011037145 
   9186000   0.05008924    -0.33762502     0.036246888   -0.22624912     0.00096020646
   9187000   0.050057317   -0.33793986     0.036257507   -0.22660122    -4.4915336e-05
   9188000   0.050378799   -0.33798005     0.036117495   -0.22629923     0.0013779449 
   9189000   0.04995092    -0.33786068     0.036112315   -0.22682682    -0.0012269561 
   9190000   0.050470679   -0.3375747      0.035983599   -0.22588996     3.6577986e-05
   9191000   0.050168758   -0.33847011     0.036065392   -0.22715644    -0.0014933785 
   9192000   0.04978453    -0.33772302     0.035722481   -0.22732856    -0.00069972933
   9193000   0.050248447   -0.33772405     0.035418501   -0.22693774     0.00054545563
   9194000   0.049751874   -0.33793118     0.035944049   -0.22736414     6.0220498e-05
   9195000   0.049576839   -0.33776395     0.036038577   -0.22736491    -0.00087428506
   9196000   0.050065103   -0.338033       0.036639456   -0.22630074    -0.0010178621 
   9197000   0.050619215   -0.33782738     0.036329507   -0.22557395    -0.000580965  
   9198000   0.049897622   -0.33826956     0.036472262   -0.2269557     -0.00058874522
   9199000   0.049654334   -0.33776061     0.035638219   -0.2276457     -0.00033635397
   9200000   0.049993834   -0.33780552     0.035865989   -0.22695362     0.00020283984
   9201000   0.050027218   -0.33746775     0.036098417   -0.22633335     0.00075522363
   9202000   0.050377018   -0.33800796     0.035917329   -0.22652998     0.00049870075
   9203000   0.049983126   -0.33827239     0.035664016   -0.22763852     0.0016289025 
   9204000   0.050558614   -0.33794304     0.036685717   -0.2254243     -0.0016030146 
   9205000   0.050155439   -0.33793632     0.036425155   -0.22628286    -0.00024374936
   9206000   0.04968279    -0.33808118     0.036116485   -0.22744532     0.00028714007
   9207000   0.049572359   -0.33788739     0.036229602   -0.22730405    -0.0014282723 
   9208000   0.05003954    -0.33811588     0.036153004   -0.22690841    -0.00042912592
   9209000   0.049362453   -0.33819283     0.035874396   -0.22827953    -0.0017592673 
   9210000   0.049918377   -0.33807991     0.035982884   -0.22722429     0.00034661328
   9211000   0.050152535   -0.33772319     0.036017199   -0.22648204     0.00093943401
   9212000   0.050335833   -0.33809988     0.035617884   -0.22698312     0.00051411358
   9213000   0.04972399    -0.33769642     0.035843091   -0.22727216     0.00088950384
   9214000   0.05034999    -0.33783708     0.03653991    -0.22577705    -0.00056731107
   9215000   0.049681096   -0.33812193     0.036189978   -0.22741511    -0.00068306666
   9216000   0.049350907   -0.33819446     0.036431891   -0.22774098     0.00036317508
   9217000   0.050501927   -0.33790556     0.036475659   -0.2256819     -0.0013800833 
   9218000   0.049818328   -0.33795278     0.035607294   -0.22762281     7.5782868e-05
   9219000   0.049352875   -0.33805731     0.036018894   -0.22801388     0.00037478124
   9220000   0.049879716   -0.33825744     0.036016586   -0.22742611    -0.0018717378 
   9221000   0.050512936   -0.33792525     0.035870564   -0.22629017     0.00065727009
   9222000   0.049637816   -0.33814649     0.036080624   -0.22761394    -0.00070519025
   9223000   0.049948743   -0.33821392     0.036658771   -0.22663687     0.00064585548
   9224000   0.0501331     -0.33769112     0.03609441    -0.22640192    -0.00010161279
   9225000   0.049525769   -0.33831466     0.036148933   -0.22788186    -0.0015274646 
   9226000   0.049876797   -0.33826649     0.036379115   -0.227077       0.00019053972
   9227000   0.049707749   -0.33775792     0.036211269   -0.22698983    -0.0010853294 
   9228000   0.049807479   -0.3377658      0.036983795   -0.22607561    -0.0014297067 
   9229000   0.049764051   -0.33766203     0.036432922   -0.22658784    -0.00029894114
   9230000   0.049982862   -0.33813081     0.036582524   -0.22657883    -0.00097762487
   9231000   0.050414904   -0.33746919     0.035905537   -0.22594617     0.002030652  
   9232000   0.04977646    -0.33811047     0.03589279    -0.22755781    -0.00093152239
   9233000   0.050018979   -0.3381523      0.035545669   -0.227583       0.00035910741
   9234000   0.050031588   -0.33759373     0.036025595   -0.2265256      9.2178121e-05
   9235000   0.050155497   -0.33775892     0.035510687   -0.22701984     0.00046742215
   9236000   0.049961197   -0.33792504     0.036370472   -0.22661761    -0.00011975941
   9237000   0.050488379   -0.33778649     0.035401192   -0.22665761     0.00098399396
   9238000   0.050440349   -0.33825296     0.036586545   -0.22601078     0.00018964027
   9239000   0.050444795   -0.33814795     0.036554115   -0.22593152    -0.00082765672
   9240000   0.050412685   -0.33818352     0.036428963   -0.22614041     0.0010919726 
   9241000   0.050290072   -0.33793195     0.036039639   -0.22646207    -0.0011933455 
   9242000   0.049695722   -0.33838863     0.036449907   -0.22739995    -0.00093708456
   9243000   0.04990076    -0.33793491     0.036433589   -0.22665501     0.00094259556
   9244000   0.05038749    -0.33848793     0.036152964   -0.22675861    -0.0011328052 
   9245000   0.049972444   -0.33809265     0.037040718   -0.2260981     -0.0010973813 
   9246000   0.05045335    -0.33800337     0.036175042   -0.22615319     5.8607932e-05
   9247000   0.050363415   -0.3378967      0.036076251   -0.2262802      0.0015262175 
   9248000   0.049890018   -0.3380691      0.03662957    -0.22660933    -0.0012386637 
   9249000   0.049652187   -0.33863381     0.036686191   -0.22747414    -0.0013891527 
   9250000   0.050217473   -0.33803672     0.0361292     -0.22658617     0.00021550438
   9251000   0.049712163   -0.33792275     0.036427619   -0.22693169    -0.0025253408 
   9252000   0.05045759    -0.33789085     0.036365827   -0.22584352    -7.3905326e-05
   9253000   0.049616721   -0.33769347     0.036082333   -0.22719086     0.00075904072
   9254000   0.049939633   -0.33802153     0.036603391   -0.22651353     0.00086136093
   9255000   0.050037132   -0.33829413     0.036389453   -0.22685382     0.00042664643
   9256000   0.050471667   -0.33794962     0.036246705   -0.2260003     -5.4510175e-06
   9257000   0.050133903   -0.33775437     0.035992105   -0.22656627    -0.00028392949
   9258000   0.049153953   -0.33815912     0.03672587    -0.22770708    -0.00056956809
   9259000   0.049696004   -0.3380772      0.035900676   -0.22763732     0.00013228681
   9260000   0.050308392   -0.3382377      0.036578892   -0.22620109    -0.00010726332
   9261000   0.050563919   -0.338008       0.0360553     -0.22611172    -0.00069219888
   9262000   0.050198334   -0.33807443     0.036445499   -0.22633629    -0.0010850116 
   9263000   0.04958195    -0.33800699     0.036132995   -0.22750587    -0.00090436968
   9264000   0.050012403   -0.33795007     0.036254224   -0.22668208     9.0241115e-06
   9265000   0.05041068    -0.33770505     0.036703905   -0.22539        0.0002815873 
   9266000   0.050692566   -0.33819262     0.036077335   -0.22608134     0.0014015137 
   9267000   0.049599232   -0.33847942     0.036863691   -0.22722168    -0.00064124128
   9268000   0.050826406   -0.33778231     0.035691143   -0.22585648     0.00052993721
   9269000   0.050754937   -0.33858967     0.036824056   -0.22563812    -0.00012176526
   9270000   0.050266939   -0.33824438     0.036264743   -0.22658409    -0.00071879539
   9271000   0.049899206   -0.33813144     0.036172966   -0.2271145     -0.0011208022 
   9272000   0.049935821   -0.33841442     0.036064702   -0.22745082    -0.0002413615 
   9273000   0.049826644   -0.33844945     0.036176908   -0.2275374     -0.0010113369 
   9274000   0.049986725   -0.33822215     0.036055701   -0.2271912      0.00031770085
   9275000   0.049827919   -0.33810564     0.03608017    -0.22728841     0.00035177197
   9276000   0.049670171   -0.33801268     0.035956436   -0.22755579     0.0013481874 
   9277000   0.049840412   -0.33816276     0.035896984   -0.22750998     0.00045890307
   9278000   0.050278661   -0.33806964     0.036190636   -0.22646587     0.00064959407
   9279000   0.049912801   -0.33801275     0.036308351   -0.22684003     6.444028e-05 
   9280000   0.049836892   -0.33811663     0.036209908   -0.22715621     2.2057943e-05
   9281000   0.049724402   -0.33790367     0.035891381   -0.2274305      0.00036388148
   9282000   0.049530058   -0.33828366     0.036762653   -0.22723071    -0.0012603956 
   9283000   0.049609984   -0.33811159     0.036056092   -0.22764532     0.00012408905
   9284000   0.049828923   -0.33834151     0.035722053   -0.22788089    -0.00010966654
   9285000   0.049652313   -0.33827622     0.035775488   -0.22802707    -0.00041199617
   9286000   0.049983375   -0.33823498     0.035982008   -0.22728275     0.00056877827
   9287000   0.050343716   -0.33780478     0.035544735   -0.22674934     0.00048287259
   9288000   0.049535207   -0.33829405     0.036153987   -0.22784205     0.00040978906
   9289000   0.05036999    -0.33815778     0.036199882   -0.22640779     0.00048171343
   9290000   0.050349995   -0.33799572     0.035792735   -0.22668287     0.0010915379 
   9291000   0.05002167    -0.33800247     0.036249064   -0.22672574    -0.0011690123 
   9292000   0.049789087   -0.33812189     0.035780183   -0.22766289     0.00013439944
   9293000   0.049738294   -0.33787831     0.035948333   -0.22732735    -0.00087060088
   9294000   0.050311191   -0.33808571     0.035953973   -0.22666982    -0.00016750402
   9295000   0.049789477   -0.3377827      0.036128355   -0.22697495     0.00033235316
   9296000   0.050205848   -0.33830033     0.036393012   -0.2266034     -0.0014901401 
   9297000   0.049996786   -0.33785272     0.036415145   -0.22644724     2.1568851e-05
   9298000   0.050242244   -0.33816849     0.035893512   -0.22691647     0.0019798772 
   9299000   0.049687009   -0.33839777     0.03601181    -0.22786025    -0.00031886204
   9300000   0.049892402   -0.3388308      0.036338429   -0.22765859    -0.00040468072
   9301000   0.050085073   -0.33807811     0.036619533   -0.22633582    -0.0011834797 
   9302000   0.050694961   -0.33814755     0.03609424    -0.22601578    -0.0001980285 
   9303000   0.050188964   -0.33817671     0.036750027   -0.22614809    -0.00067536462
   9304000   0.049734581   -0.33839603     0.036408734   -0.22739024     0.0007030768 
   9305000   0.049539038   -0.33791978     0.036673562   -0.22694246     0.0004411403 
   9306000   0.050254123   -0.33852559     0.036599131   -0.22655014     0.00014603585
   9307000   0.050527958   -0.33806755     0.035893826   -0.22638668    -0.00043703165
   9308000   0.050161644   -0.33812667     0.035690231   -0.22719883    -2.3526232e-05
   9309000   0.050257548   -0.33776854     0.035799053   -0.22658803     0.00068486934
   9310000   0.049154685   -0.33773025     0.036838175   -0.2271648      0.00043458352
   9311000   0.049529679   -0.33805064     0.036549147   -0.22721177    -0.00016231966
   9312000   0.050459794   -0.33813958     0.035912066   -0.22654271    -0.00029462039
   9313000   0.050357548   -0.33828142     0.036822572   -0.2259274     -0.00028223265
   9314000   0.049495523   -0.33842725     0.036276648   -0.22791211    -0.00030406384
   9315000   0.050137856   -0.3377585      0.035951293   -0.22660527    -2.6500354e-05
   9316000   0.050546078   -0.33797517     0.035899496   -0.22626145     0.00062348339
   9317000   0.050575144   -0.33825081     0.036143296   -0.22624969    -0.00049355573
   9318000   0.050026038   -0.33786917     0.035802602   -0.22703236     0.0011020537 
   9319000   0.050024009   -0.33808708     0.036136948   -0.22691896     1.7832297e-05
   9320000   0.049756837   -0.33846083     0.036804339   -0.22702606    -0.001606563  
   9321000   0.049751062   -0.33832449     0.035763663   -0.22793905    -2.2316994e-05
   9322000   0.049723007   -0.33790974     0.036150476   -0.22717957     0.00043598475
   9323000   0.049674238   -0.33828928     0.036999675   -0.22678306     8.0300261e-05
   9324000   0.049970525   -0.33801716     0.036093138   -0.22697307    -0.00051175506
   9325000   0.050272434   -0.33861382     0.035980259   -0.22722977     0.00095409895
   9326000   0.049722929   -0.33806232     0.036558937   -0.2269238     -0.00092372624
   9327000   0.049797392   -0.33760977     0.03665268    -0.22626582     0.0005341409 
   9328000   0.050091204   -0.33810874     0.036011463   -0.22696531     0.00010281444
   9329000   0.050238697   -0.33803349     0.035955449   -0.22672486     0.00020060267
   9330000   0.050203065   -0.33794046     0.035929206   -0.22671152     0.00054453426
   9331000   0.050015175   -0.33845596     0.03594276    -0.22749528    -0.00086985466
   9332000   0.049451676   -0.33853933     0.035643853   -0.22872274     0.00060686236
   9333000   0.04986339    -0.33808785     0.036085749   -0.22721184     0.00069366226
   9334000   0.049616016   -0.33820308     0.036143992   -0.22763987    -0.00028407875
   9335000   0.050064271   -0.33844009     0.035845508   -0.22750302     9.2131805e-05
   9336000   0.04947461    -0.33782853     0.036238786   -0.22738261    -0.00020277561
   9337000   0.049308098   -0.33752962     0.036150001   -0.22742224     0.00058109494
   9338000   0.049863221   -0.33814513     0.036149849   -0.22720527    -0.00030063279
   9339000   0.04988879    -0.33832784     0.036300637   -0.22719884    -4.964224e-05 
   9340000   0.050075802   -0.33820191     0.03611884    -0.22697421     0.00050820131
   9341000   0.049788836   -0.338225       0.03589816    -0.2276484      0.00049598098
   9342000   0.049322241   -0.33793193     0.036301381   -0.22765196    -0.0013911333 
   9343000   0.049385059   -0.33818482     0.035679568   -0.22843245    -0.00019306528
   9344000   0.049815979   -0.33811817     0.035677152   -0.22772187     0.00017444168
   9345000   0.049941155   -0.33831854     0.035629405   -0.22778224    -7.6592009e-05
   9346000   0.050051416   -0.337865       0.036209874   -0.22658285     0.0012381812 
   9347000   0.050399973   -0.33771235     0.036229684   -0.22588759     0.00094683768
   9348000   0.050902988   -0.33784344     0.036549397   -0.22494449     0.0013434609 
   9349000   0.050033333   -0.33814259     0.036732127   -0.22636531    -0.00058852374
   9350000   0.050394271   -0.3379364      0.036272455   -0.22607741     0.00088270541
   9351000   0.049865575   -0.33807086     0.035995833   -0.22728149     0.0017645711 
   9352000   0.04938863    -0.33789398     0.036171141   -0.22764467     0.0011380421 
   9353000   0.049285304   -0.3378756      0.036247172   -0.22770524    -0.00028220808
   9354000   0.050542371   -0.33779611     0.036251702   -0.22573575     0.00086864106
   9355000   0.050021435   -0.33787515     0.035678051   -0.22716979     0.00074895697
   9356000   0.049608941   -0.33793945     0.036573969   -0.22695687    -0.00032383422
   9357000   0.050358869   -0.33819864     0.035949424   -0.22671579    -0.00027778706
   9358000   0.05075669    -0.33795741     0.036107493   -0.2257198      0.0016239517 
   9359000   0.049867712   -0.33795298     0.036489275   -0.22666696     0.00065048724
   9360000   0.050092033   -0.33831866     0.036699588   -0.22648587    -0.00010444068
   9361000   0.050152435   -0.33771954     0.03635071    -0.22614503     0.00026851767
   9362000   0.050008905   -0.33829179     0.03584785    -0.22743543    -0.00033044678
   9363000   0.050113244   -0.33817824     0.036124999   -0.22688823     2.9473174e-05
   9364000   0.049501956   -0.33850053     0.03620397    -0.22804842    -0.00056775637
   9365000   0.049564223   -0.3384323      0.036055125   -0.22803564     0.00043367005
   9366000   0.049897253   -0.33824396     0.035958974   -0.22744393     0.00015296502
   9367000   0.050188744   -0.33809625     0.036061675   -0.22675632     0.00015754849
   9368000   0.049757871   -0.33836341     0.036044926   -0.22768649     0.00068609789
   9369000   0.049707073   -0.33775017     0.036380797   -0.22681357     0.00087397175
   9370000   0.050254931   -0.3379586      0.036080271   -0.2265008      0.0012478617 
   9371000   0.050111649   -0.3382313      0.036217787   -0.22685089     0.0007586591 
   9372000   0.049797512   -0.33806906     0.035861911   -0.2275157     -0.00022940158
   9373000   0.050240582   -0.33800556     0.03622969    -0.22641986     0.00090870826
   9374000   0.050230079   -0.33795086     0.036413742   -0.22619686     0.0011623795 
   9375000   0.050429068   -0.33809593     0.035362474   -0.22709474     0.00012145127
   9376000   0.049951588   -0.33833639     0.035623981   -0.22778986    -0.0010768734 
   9377000   0.050034774   -0.33799879     0.036276619   -0.22667485    -0.0014820104 
   9378000   0.050090332   -0.33779006     0.036202182   -0.22645722    -0.00050060213
   9379000   0.049583355   -0.33774965     0.036288929   -0.22709048    -0.0012936082 
   9380000   0.050171881   -0.33842887     0.036564308   -0.2266116      6.5198701e-05
   9381000   0.050255572   -0.3375022      0.036071671   -0.22605203     0.0018638961 
   9382000   0.04994992    -0.33804764     0.036288172   -0.22683942     0.00095342531
   9383000   0.050555762   -0.33831046     0.036677344   -0.22580436     0.00059538685
   9384000   0.050091995   -0.33800815     0.036745353   -0.22612965    -0.00071179669
   9385000   0.050047381   -0.33799258     0.036361246   -0.2265651     -9.8412989e-05
   9386000   0.049769396   -0.3383899      0.036498894   -0.22724172     0.00045140044
   9387000   0.050432125   -0.3381348      0.035876404   -0.22661509     0.00014815919
   9388000   0.049711403   -0.33790493     0.035980527   -0.22736211     0.00068652734
   9389000   0.050112634   -0.33787053     0.036788957   -0.22591747     0.00034464836
   9390000   0.050187682   -0.33769463     0.036295245   -0.22612272     0.00080485582
   9391000   0.050223907   -0.33776691     0.036327862   -0.22610805    -0.0010168657 
   9392000   0.050381027   -0.33817537     0.035855659   -0.22675305    -0.0002722676 
   9393000   0.050044836   -0.33806342     0.035687877   -0.22731313     0.00064003919
   9394000   0.049865855   -0.33823198     0.036276068   -0.22716196    -0.00073894535
   9395000   0.049667515   -0.33860935     0.036832446   -0.22728044    -0.0013077603 
   9396000   0.050323317   -0.33816644     0.036095326   -0.22659101    -0.0011565346 
   9397000   0.04985232    -0.33831199     0.036154878   -0.22738346     0.00016031201
   9398000   0.049124183   -0.33791802     0.035836489   -0.22840002     0.00099337347
   9399000   0.049220896   -0.33814883     0.036119346   -0.2282029      0.0016532384 
   9400000   0.049702575   -0.33840927     0.035742163   -0.22811805    -0.0013593224 
   9401000   0.049823388   -0.33862615     0.035988593   -0.2279073     -0.00041797567
   9402000   0.049994339   -0.33856333     0.036328289   -0.22724837    -0.00039149821
   9403000   0.05019113    -0.33826691     0.036567113   -0.22641796    -0.00049048022
   9404000   0.050417332   -0.33827505     0.035841941   -0.22681199     0.00016369274
   9405000   0.050070367   -0.33852613     0.036436265   -0.22698916    -0.00013223368
   9406000   0.05058174    -0.33828831     0.036455401   -0.22596519    -0.00039859964
   9407000   0.04923547    -0.33778812     0.036058747   -0.22788093    -0.00013189411
   9408000   0.049907107   -0.33843121     0.036180683   -0.2273947      0.00018532468
   9409000   0.050094259   -0.33812704     0.035833776   -0.22715672     0.0011245446 
   9410000   0.04958221    -0.3382882      0.036081213   -0.22783847    -0.00080013214
   9411000   0.049763173   -0.3384844      0.035939663   -0.22790479     0.0011962391 
   9412000   0.049762288   -0.33857039     0.036201723   -0.22773005     0.00068554377
   9413000   0.050412059   -0.33863792     0.036243103   -0.2267816      0.00051184932
   9414000   0.049606179   -0.33821536     0.036123683   -0.22768721     0.00038144262
   9415000   0.049734087   -0.33842548     0.03638533    -0.22744383    -0.00053307391
   9416000   0.050189629   -0.33844091     0.036432736   -0.22672859     0.00025364154
   9417000   0.049814437   -0.33808614     0.035864705   -0.2275046      0.0016878301 
   9418000   0.050079232   -0.33837542     0.036550179   -0.22671124    -0.0013947306 
   9419000   0.050024831   -0.3380568      0.03580404    -0.22722035     0.00081842848
   9420000   0.049971672   -0.3382449      0.03632554    -0.22696669    -3.7283983e-05
   9421000   0.050217004   -0.33844116     0.036205765   -0.22691475     5.4880653e-05
   9422000   0.05030692    -0.33827653     0.036117013   -0.226704       0.0016005028 
   9423000   0.050276575   -0.3381168      0.036137451   -0.22656936     0.0014699901 
   9424000   0.050438627   -0.33831978     0.036264277   -0.22640244     0.0014559204 
   9425000   0.049805904   -0.33790989     0.036716876   -0.22648898     0.00044539281
   9426000   0.049792304   -0.33798419     0.035813166   -0.22748738     4.2194271e-05
   9427000   0.050063701   -0.33791726     0.036086743   -0.22673981     0.00029885557
   9428000   0.050386854   -0.33831162     0.035810816   -0.22692539    -6.4073793e-05
   9429000   0.050198053   -0.33814801     0.036430638   -0.22642515    -0.0013504402 
   9430000   0.049550123   -0.33833808     0.035798191   -0.2282195     -0.0012355854 
   9431000   0.049497365   -0.33810363     0.035499678   -0.2283627      0.00063862296
   9432000   0.049375738   -0.33805301     0.035539928   -0.22845425     0.00065206037
   9433000   0.049661928   -0.33847184     0.035983749   -0.22800001     0.00054844537
   9434000   0.049684696   -0.33853271     0.036012396   -0.22799808     0.00039591542
   9435000   0.050141616   -0.33830501     0.036300806   -0.22679663    -0.00050819419
   9436000   0.050311618   -0.3383888      0.03621336    -0.22671288     0.001564934  
   9437000   0.050027836   -0.33798938     0.036180353   -0.22677212    -0.0013292252 
   9438000   0.049773087   -0.33796369     0.035910346   -0.22739853     0.00036878781
   9439000   0.049690405   -0.33826622     0.036505909   -0.22722951    -0.00088747682
   9440000   0.050066182   -0.33854524     0.036369162   -0.22708165     0.0010832038 
   9441000   0.050524465   -0.33808634     0.036420757   -0.22588378    -0.00065516627
   9442000   0.04983649    -0.33795489     0.035969268   -0.22723571    -3.7651327e-05
   9443000   0.050505953   -0.33839882     0.036292458   -0.22635232     0.00095842523
   9444000   0.050185331   -0.33824247     0.035890104   -0.22707923    -0.00014761463
   9445000   0.050254075   -0.33877905     0.03625911    -0.22714369     4.1035039e-05
   9446000   0.050227859   -0.33807532     0.036573946   -0.22616444     0.00015603824
   9447000   0.049863534   -0.33792998     0.036082762   -0.22705674     0.00052531069
   9448000   0.049688529   -0.33810696     0.036090854   -0.22748812     0.00038369082
   9449000   0.050318797   -0.33845263     0.035770981   -0.22720832     0.00025911004
   9450000   0.049477851   -0.33838673     0.036044386   -0.22813035     0.00048096201
   9451000   0.049831071   -0.3385562      0.035780572   -0.22803385    -0.0013642131 
   9452000   0.049368095   -0.33831534     0.035971285   -0.22829669     0.00051884987
   9453000   0.050052705   -0.33844541     0.035409355   -0.22796185     0.00055505526
   9454000   0.0497849     -0.33850681     0.036605221   -0.22722906    -0.0003003482 
   9455000   0.050470094   -0.33859934     0.037095225   -0.22580386    -3.8772892e-05
   9456000   0.049638116   -0.33857835     0.036167429   -0.22795855    -3.6435674e-05
   9457000   0.050134425   -0.33849789     0.036110944   -0.22719016     0.00076677091
   9458000   0.049709888   -0.33861024     0.035871041   -0.22817918    -0.0012339949 
   9459000   0.049238714   -0.33818189     0.036170254   -0.22815833     0.00093914319
   9460000   0.049970747   -0.33800498     0.035876997   -0.2271767      7.0213484e-05
   9461000   0.050124484   -0.33838424     0.036361463   -0.22684091     7.8017365e-05
   9462000   0.049546661   -0.33884543     0.035718665   -0.22881157     0.00065697507
   9463000   0.049599435   -0.33845204     0.036439947   -0.22761774    -0.00043340934
   9464000   0.050034609   -0.33808066     0.035624964   -0.22740862     0.0012913547 
   9465000   0.049859161   -0.33866443     0.036324323   -0.22755619    -0.00061051049
   9466000   0.049557253   -0.33832555     0.03601939    -0.22797508    -0.00019303493
   9467000   0.049398789   -0.33882856     0.036570078   -0.22816508     0.00034131752
   9468000   0.049354373   -0.33861445     0.036142401   -0.22844526    -0.00099541793
   9469000   0.049940197   -0.33796063     0.036110071   -0.22694509     0.0017683542 
   9470000   0.050718778   -0.33865691     0.035937104   -0.22664654     0.001282655  
   9471000   0.04998131    -0.33861175     0.036513708   -0.22713091    -0.0014170357 
   9472000   0.050012996   -0.33828775     0.036230355   -0.22704274     0.0011933868 
   9473000   0.049619915   -0.33829272     0.036369616   -0.22749804     0.0015115281 
   9474000   0.049912145   -0.33827943     0.036260547   -0.22715549    -0.00021631312
   9475000   0.04993309    -0.33824483     0.036317213   -0.22703282    -0.00092883645
   9476000   0.050059444   -0.33817463     0.035975282   -0.22711503    -0.00032827784
   9477000   0.05025766    -0.33856342     0.036234685   -0.22694711    -0.0012050493 
   9478000   0.049896856   -0.33815378     0.03588937    -0.22742396    -0.00034256492
   9479000   0.050122571   -0.33815943     0.036295917   -0.2266845      0.00072072676
   9480000   0.049739431   -0.33839684     0.036671123   -0.22712138     0.00029427578
   9481000   0.049590652   -0.33824029     0.036252959   -0.22760616     0.00032841817
   9482000   0.049326473   -0.33849686     0.035714405   -0.22879752     0.00055077902
   9483000   0.050187358   -0.33865366     0.035780743   -0.22759673     0.00074381221
   9484000   0.050220486   -0.33843498     0.036944613   -0.22616449    -7.8806296e-05
   9485000   0.049652155   -0.33869755     0.036509699   -0.22771442     0.00024702439
   9486000   0.049857276   -0.33873245     0.035844081   -0.22810728     0.00065272997
   9487000   0.049762083   -0.33865811     0.036276011   -0.22774379    -0.0015917254 
   9488000   0.050008935   -0.33866479     0.036020279   -0.22763595     0.00018359634
   9489000   0.050310508   -0.33837643     0.036192228   -0.22672331    -0.00044157366
   9490000   0.050032351   -0.33866816     0.036429672   -0.2271948     -0.00079150246
   9491000   0.049974778   -0.33855342     0.036352142   -0.22724394     7.3949947e-05
   9492000   0.050078586   -0.33822175     0.036263858   -0.22684486    -0.00028041542
   9493000   0.050270773   -0.33815571     0.036196517   -0.2265579     -0.00022262183
   9494000   0.050260445   -0.33852874     0.035620161   -0.22752277     0.0014885493 
   9495000   0.049410207   -0.33844345     0.03588546    -0.22844746     0.00028778904
   9496000   0.049833536   -0.33857421     0.035955089   -0.22787364     0.00063138727
   9497000   0.0499736     -0.33853413     0.036093854   -0.22748471    -0.0015462267 
   9498000   0.050298912   -0.33874188     0.035800562   -0.22749782    -0.0014645989 
   9499000   0.049849342   -0.33836581     0.035732268   -0.22786435    -0.00035831711
   9500000   0.050072633   -0.33806601     0.03619124    -0.22677066     0.00051796811
   9501000   0.05035177    -0.33846422     0.036989517   -0.22595192     0.00042521774
   9502000   0.050057211   -0.33838523     0.036428745   -0.22687552     0.00019146101
   9503000   0.050315721   -0.33880467     0.03702597    -0.22630999    -0.0011882629 
   9504000   0.049748043   -0.33841688     0.036878447   -0.22692118    -0.0009629303 
   9505000   0.049699058   -0.33813417     0.036299867   -0.22729053     0.0017520686 
   9506000   0.049815726   -0.33867631     0.036106511   -0.22785103     0.00059244109
   9507000   0.050216458   -0.3385706      0.036514331   -0.22673644    -0.00031646207
   9508000   0.050124067   -0.33821046     0.036050207   -0.226979       0.0015220192 
   9509000   0.050088825   -0.33857388     0.036011818   -0.22743368    -0.00019395843
   9510000   0.050182135   -0.33862318     0.036357308   -0.22699752     0.00011235311
   9511000   0.04986738    -0.33800114     0.036384661   -0.22682023     0.0014232293 
   9512000   0.05002241    -0.33869161     0.035715341   -0.2279475      0.00031095504
   9513000   0.049653231   -0.33873958     0.03665891    -0.22760563    -0.0024390289 
   9514000   0.05002252    -0.33828858     0.036524248   -0.2267354     -0.00013539144
   9515000   0.050112239   -0.33858767     0.035842173   -0.22758199     0.00012348   
   9516000   0.050301786   -0.33862311     0.036897829   -0.22627747     0.00018188577
   9517000   0.05020709    -0.33851659     0.035658131   -0.22755268     0.00014161901
   9518000   0.049177855   -0.33823571     0.035815529   -0.22865815     0.0014902513 
   9519000   0.050120974   -0.33832071     0.03611287    -0.22703123     0.0001132258 
   9520000   0.04981861    -0.33829324     0.036458912   -0.22711124    -0.0010225708 
   9521000   0.050027091   -0.33832881     0.036519983   -0.22677303     0.00037662529
   9522000   0.04993884    -0.33840107     0.036333157   -0.22716448    -0.0010098272 
   9523000   0.049766123   -0.33838469     0.035896281   -0.22784404     0.00062570197
   9524000   0.05069061    -0.33888061     0.035720642   -0.22712896     0.00018311938
   9525000   0.04977083    -0.3389642      0.036716286   -0.22759648    -0.0024812185 
   9526000   0.049883736   -0.33857192     0.036157471   -0.22759367     0.0013851559 
   9527000   0.049520091   -0.33873128     0.035692357   -0.22876358    -0.0017471089 
   9528000   0.049999792   -0.33881027     0.035607617   -0.2282078     -0.00096641261
   9529000   0.050168547   -0.3387381      0.036672839   -0.22681729    -1.6290069e-05
   9530000   0.049690605   -0.33856995     0.036914524   -0.22712433     0.00042281272
   9531000   0.049876655   -0.33861209     0.036160822   -0.22764111    -0.00063483035
   9532000   0.049912697   -0.33905058     0.036273042   -0.22791332    -0.00019893365
   9533000   0.049495402   -0.33877079     0.036604202   -0.22792828     0.00092476277
   9534000   0.049557472   -0.33845542     0.03608849    -0.22803552     0.00078728765
   9535000   0.049983455   -0.3386333      0.036478514   -0.22718444    -0.0005395759 
   9536000   0.049956424   -0.33839079     0.036358525   -0.22710247    -0.00016194346
   9537000   0.050312773   -0.3386114      0.036312541   -0.22683457     0.00011920702
   9538000   0.049789079   -0.33892526     0.036794096   -0.22745236    -0.00055177176
   9539000   0.050144217   -0.33867632     0.036460657   -0.22700419    -0.00062281148
   9540000   0.050046118   -0.3387074      0.036269917   -0.22737315    -0.00022913406
   9541000   0.049247656   -0.33849375     0.035741574   -0.22888546     0.00076057578
   9542000   0.049903822   -0.33870484     0.03523774    -0.22861619    -0.00065605578
   9543000   0.049739955   -0.33857803     0.036271289   -0.22770163     0.00023615633
   9544000   0.050693781   -0.33858767     0.035709492   -0.22684242     0.001129706  
   9545000   0.049821584   -0.33825468     0.03615211    -0.22737501     0.0009636796 
   9546000   0.049652562   -0.33865381     0.036515603   -0.22766417    -0.0012565507 
   9547000   0.050242561   -0.33868178     0.035617237   -0.22770556     0.00099865981
   9548000   0.049430429   -0.33823952     0.036025488   -0.22807318    -0.00015649197
   9549000   0.04975615    -0.33860089     0.036622477   -0.22734901    -0.0001416216 
   9550000   0.05017992    -0.33858275     0.0359242     -0.22739353     0.00039183528
   9551000   0.049972103   -0.33863939     0.035965266   -0.2277208     -6.3371704e-05
   9552000   0.049610384   -0.33850109     0.035724031   -0.22836628    -0.0010217032 
   9553000   0.049896417   -0.33856518     0.036011566   -0.22771382    -0.000305544  
   9554000   0.050621223   -0.33852424     0.036500653   -0.22609665    -0.00095179025
   9555000   0.050217378   -0.33836781     0.036440129   -0.22660647     0.00075255746
   9556000   0.0501303     -0.33822324     0.036488118   -0.22654452     0.00074564474
   9557000   0.049967858   -0.33851476     0.035779936   -0.22778787     0.00047066029
   9558000   0.049483845   -0.33853862     0.035805531   -0.22851211    -0.0015428736 
   9559000   0.049739795   -0.33851084     0.036259437   -0.22764652     0.00023838424
   9560000   0.049880254   -0.33873368     0.036744741   -0.22717339     0.0003743656 
   9561000   0.049895009   -0.33855246     0.036309349   -0.22740543     0.00057242873
   9562000   0.05048041    -0.33874806     0.036206765   -0.22682557    -0.00012851664
   9563000   0.050327521   -0.33872008     0.035489594   -0.22774408    -0.00036766919
   9564000   0.050019125   -0.3386056      0.035994976   -0.22758678    -1.2972499e-05
   9565000   0.050182768   -0.33877735     0.036024824   -0.22748323     0.0010498204 
   9566000   0.050503257   -0.33851638     0.036140798   -0.22662558    -0.00010475991
   9567000   0.049462999   -0.33841814     0.036381393   -0.22784704     0.00038612173
   9568000   0.049739608   -0.33862458     0.036401508   -0.22761847    -0.00023584174
   9569000   0.049687429   -0.33861232     0.03651539    -0.22757059    -0.00049211031
   9570000   0.050012763   -0.33843057     0.036350492   -0.22706577     0.00012215982
   9571000   0.050285872   -0.3387467      0.036741715   -0.22658105    -0.0017452999 
   9572000   0.050079049   -0.33822972     0.036824106   -0.22629189    -0.00030487119
   9573000   0.04982706    -0.33867216     0.036402266   -0.22753412     0.0002470604 
   9574000   0.049458815   -0.33854122     0.035751151   -0.22860663     0.00014973974
   9575000   0.049843522   -0.33863612     0.035764867   -0.22811079     0.00041685716
   9576000   0.050158167   -0.33899216     0.036054877   -0.22770489    -7.8616401e-05
   9577000   0.050521938   -0.33847371     0.036056061   -0.22663964     0.0016551036 
   9578000   0.050080586   -0.33830627     0.036483229   -0.226707      -0.00031018186
   9579000   0.049609543   -0.33857233     0.036735005   -0.22742782    -0.00053458067
   9580000   0.049937054   -0.33851805     0.036362594   -0.22725471     0.00038550651
   9581000   0.050446512   -0.33854053     0.03663429    -0.22624135    -0.00036550643
   9582000   0.049840727   -0.33885456     0.036603515   -0.22749478     0.00059379454
   9583000   0.049911805   -0.33882528     0.036238553   -0.22772385    -0.000234558  
   9584000   0.049661792   -0.33865118     0.035995676   -0.22816762    -0.00034553699
   9585000   0.049554462   -0.33858064     0.036186828   -0.22806692    -0.00021827166
   9586000   0.050251645   -0.33862767     0.035696663   -0.22755841    -0.00041042797
   9587000   0.049607865   -0.33853484     0.035332838   -0.228795       0.001490733  
   9588000   0.049883345   -0.3387886      0.0361793     -0.22778911     0.00030803862
   9589000   0.049943594   -0.33836886     0.036333953   -0.22712435     0.0015413896 
   9590000   0.049553601   -0.33821247     0.036642228   -0.22724463    -0.00034676848
   9591000   0.050231899   -0.33858325     0.036383555   -0.22685671     0.0010506358 
   9592000   0.050392527   -0.33884405     0.035763446   -0.22749669     0.00048917695
   9593000   0.049782463   -0.33852998     0.035824722   -0.22803638    -0.0007210849 
   9594000   0.049077614   -0.33839914     0.036039698   -0.22874777     0.00054211935
   9595000   0.049975581   -0.33848971     0.036300675   -0.2272305     -0.00078445436
   9596000   0.050107854   -0.33856054     0.036184975   -0.22721864    -0.00058501299
   9597000   0.050479165   -0.33842964     0.036315037   -0.22640074     0.00093538288
   9598000   0.049444444   -0.33846659     0.036234223   -0.22807048    -0.00053158069
   9599000   0.04977813    -0.3383017      0.035915276   -0.22772405    -0.00030523634
   9600000   0.05023083    -0.33833185     0.035740391   -0.22725007     0.00015041157
   9601000   0.050229849   -0.33851327     0.035720307   -0.22745305     0.0001385339 
   9602000   0.0506582     -0.3383282      0.035749194   -0.22659661     0.00034534155
   9603000   0.0500461     -0.33831384     0.035629033   -0.2276205      0.00073968151
   9604000   0.049544328   -0.33816124     0.036677084   -0.22717246    -0.00082178301
   9605000   0.050022287   -0.33904058     0.036351127   -0.22766087     0.00079117193
   9606000   0.049695719   -0.33872038     0.035500958   -0.22868065    -0.00031312888
   9607000   0.049812376   -0.33854456     0.036196859   -0.22763396    -0.00047332989
   9608000   0.050128221   -0.33875422     0.035929014   -0.22763773     0.00065151656
   9609000   0.04980814    -0.33886644     0.035905742   -0.22825331    -0.00032050114
   9610000   0.050021465   -0.33877482     0.035398121   -0.22834934    -0.00018409026
   9611000   0.050061542   -0.33862586     0.035959228   -0.22757917    -0.00020945254
   9612000   0.050627121   -0.33893475     0.035908958   -0.22709001    -0.00081179578
   9613000   0.049828487   -0.33838177     0.037011826   -0.22663203    -8.4837935e-05
   9614000   0.050300637   -0.33869445     0.037141003   -0.22610736    -0.00016309499
   9615000   0.050099371   -0.33852514     0.036053612   -0.22732732     0.0003810805 
   9616000   0.049755586   -0.33827393     0.035907477   -0.22773789     0.00097835838
   9617000   0.049326777   -0.33868485     0.035897963   -0.22880149     0.00090677804
   9618000   0.049495173   -0.33899215     0.03578252    -0.22897166     0.0006793823 
   9619000   0.049867544   -0.33844616     0.035720806   -0.22792887     0.0010044406 
   9620000   0.050602789   -0.3384158      0.036323821   -0.22619269     0.00019204089
   9621000   0.050452602   -0.3385596      0.036118906   -0.22676667     0.0015330924 
   9622000   0.050251259   -0.33827394     0.036071533   -0.22683038    -0.0010503786 
   9623000   0.049377459   -0.33830524     0.036050381   -0.22819345    -0.00017624443
   9624000   0.050361782   -0.33884703     0.036611654   -0.22669758    -0.00012378149
   9625000   0.04973572    -0.33892917     0.036449457   -0.22788094     0.00050370717
   9626000   0.050219557   -0.33865027     0.036270349   -0.22705545     0.00024488438
   9627000   0.05005586    -0.33890119     0.036375677   -0.22744657    -0.00061995446
   9628000   0.049372399   -0.33861557     0.03627248    -0.22828927     0.00024289005
   9629000   0.050068062   -0.33874788     0.036014927   -0.22763571     0.00059020303
   9630000   0.050467087   -0.33888877     0.036412793   -0.22678023     0.00081068664
   9631000   0.049683728   -0.33868539     0.036222107   -0.2279425      0.00047117473
   9632000   0.049815116   -0.3387722      0.035534798   -0.22851955     0.0017437558 
   9633000   0.049981602   -0.33844408     0.036147529   -0.22732899     0.0018162636 
   9634000   0.049876917   -0.33899961     0.036179388   -0.22800968     3.2523102e-05
   9635000   0.049985825   -0.33895937     0.03587984    -0.22810563    -0.00047207816
   9636000   0.049612236   -0.33902956     0.035827112   -0.2287889     -0.00125915   
   9637000   0.050450851   -0.33873582     0.036444798   -0.22661963    -0.00026280196
   9638000   0.049821749   -0.33869048     0.036084749   -0.22787793     3.7787617e-05
   9639000   0.04986748    -0.33907514     0.036087599   -0.22819114     0.00055888646
   9640000   0.049685016   -0.33859818     0.036486954   -0.22758851    -0.00026681028
   9641000   0.050743669   -0.33936273     0.035887847   -0.22736429    -0.00026639532
   9642000   0.050883609   -0.33914237     0.036564331   -0.22625755    -0.00031924385
   9643000   0.050595762   -0.33853616     0.035866348   -0.22678106     0.00050534584
   9644000   0.049826493   -0.33902184     0.036559885   -0.22772703    -0.00053595368
   9645000   0.04971748    -0.33870673     0.036756708   -0.22737861    -0.0011270611 
   9646000   0.050177363   -0.33882022     0.03621432    -0.22734471     0.001067156  
   9647000   0.050108133   -0.33842596     0.036738265   -0.22653035    -0.00067322609
   9648000   0.050225684   -0.33870632     0.036772093   -0.22660056    -0.00027679003
   9649000   0.05068979    -0.3389378      0.036519358   -0.22638866     0.00087438623
   9650000   0.049980157   -0.33920662     0.036326814   -0.22791441    -0.00020701514
   9651000   0.049891668   -0.33930811     0.036320608   -0.22815483     7.6866713e-05
   9652000   0.049530154   -0.33942022     0.036510846   -0.22861894    -0.00030357932
   9653000   0.04982671    -0.33909749     0.036302675   -0.22805957     0.00032711869
   9654000   0.050175407   -0.33876638     0.035615783   -0.22789234     0.00016389846
   9655000   0.049788876   -0.33851656     0.036257711   -0.22758035    -0.0013658438 
   9656000   0.050186313   -0.33886874     0.035911537   -0.22768259    -0.00035713688
   9657000   0.049656901   -0.33868274     0.03701674    -0.22718546     0.00078052542
   9658000   0.04968549    -0.33863382     0.036557155   -0.22755324    -0.00016619443
   9659000   0.049693242   -0.33829671     0.035707045   -0.22805461     0.00012818652
   9660000   0.050228685   -0.33861353     0.036099185   -0.22717618     0.0012787984 
   9661000   0.050330264   -0.33874901     0.035947863   -0.22731062     0.00061017895
   9662000   0.050020109   -0.33849565     0.036667744   -0.22680259    -0.0004965083 
   9663000   0.050175863   -0.33881015     0.035871313   -0.2276799     -0.00078351797
   9664000   0.050554847   -0.33884666     0.036137237   -0.22688205     0.00070796773
   9665000   0.050517234   -0.33903059     0.035761389   -0.22749824    -0.00044903248
   9666000   0.050081544   -0.33844507     0.036239654   -0.22708794     0.00028914708
   9667000   0.050218767   -0.33897082     0.036769287   -0.22687825     0.00045472652
   9668000   0.049773493   -0.33894171     0.036385571   -0.22790072    -0.00064596314
   9669000   0.050133914   -0.33915306     0.035925348   -0.22803169     0.00014188917
   9670000   0.049812039   -0.33927443     0.036231823   -0.22832937    -0.00043092439
   9671000   0.050050385   -0.33917028     0.036501727   -0.22759782     0.00014368588
   9672000   0.04991184    -0.33875845     0.036221539   -0.22767398    -0.0003145253 
   9673000   0.049323161   -0.33889898     0.036487552   -0.22843145    -0.00087198804
   9674000   0.050205332   -0.33929479     0.036493493   -0.22749816    -0.001359003  
   9675000   0.049656035   -0.33889694     0.036420521   -0.22799718     0.00040828359
   9676000   0.050056363   -0.33887738     0.035966343   -0.22783134    -0.0003755711 
   9677000   0.050412504   -0.33918749     0.036232579   -0.22734104    -0.00011643469
   9678000   0.050505736   -0.33872545     0.035786854   -0.22718488    -3.5988438e-05
   9679000   0.050259967   -0.33853312     0.036662984   -0.22648504    -0.00072592358
   9680000   0.050335695   -0.33898745     0.036169222   -0.22731955     0.001247971  
   9681000   0.050075313   -0.33943409     0.036580189   -0.22774578     3.2949036e-06
   9682000   0.05004834    -0.3390398      0.03610228    -0.22786986     5.9763842e-06
   9683000   0.050287615   -0.33896096     0.036076282   -0.22745812    -0.0010641254 
   9684000   0.049923706   -0.33878147     0.036177685   -0.22772306    -0.00061289498
   9685000   0.050211755   -0.33949974     0.036210645   -0.22797632     0.00011776294
   9686000   0.04980036    -0.33881104     0.036511913   -0.22760341    -0.00010092075
   9687000   0.04995348    -0.3389854      0.036342112   -0.22771791     0.00013702694
   9688000   0.049618501   -0.33868166     0.036512795   -0.22774591    -0.00019401661
   9689000   0.050281954   -0.33936047     0.036375975   -0.22756643    -1.5944798e-05
   9690000   0.050571044   -0.33901124     0.036450419   -0.22670915    -0.0012044805 
   9691000   0.05031485    -0.33909818     0.036335205   -0.22729557    -0.00070873038
   9692000   0.050427607   -0.33883894     0.036772439   -0.22642997    -0.00039966877
   9693000   0.050394335   -0.33936082     0.036146891   -0.2276273      0.0002452638 
   9694000   0.050002119   -0.33850039     0.036400861   -0.22710119     0.00071543959
   9695000   0.050453147   -0.33895114     0.036671506   -0.2266048     -0.00088062267
   9696000   0.050356093   -0.33930304     0.03624239    -0.22753139     4.7801847e-05
   9697000   0.049344006   -0.33902328     0.036334728   -0.22867731     0.00018634548
   9698000   0.049811969   -0.33916958     0.035902117   -0.22855433    -0.0010544033 
   9699000   0.049725475   -0.33873617     0.035569902   -0.22858287     0.0008134496 
   9700000   0.049595852   -0.33883464     0.03593889    -0.22850678    -0.00054496269
   9701000   0.050301247   -0.33877924     0.035324537   -0.2280077      0.00014984757
   9702000   0.049128436   -0.33914416     0.036550736   -0.22890552    -0.00099988709
   9703000   0.049732535   -0.33932635     0.03585841    -0.22887395     0.00040825846
   9704000   0.04955693    -0.33949513     0.036769972   -0.22839456    -0.00067741442
   9705000   0.050260166   -0.33904576     0.03619889    -0.22746148    -0.00035939642
   9706000   0.050723206   -0.33910765     0.035864205   -0.22716355     1.2511721e-05
   9707000   0.049999236   -0.33904957     0.036437548   -0.22761801     0.0007756221 
   9708000   0.049555773   -0.33954003     0.036863383   -0.22834778    -1.3614685e-05
   9709000   0.049643518   -0.33911583     0.036028172   -0.22862718    -0.0010489564 
   9710000   0.049847508   -0.33876313     0.035980037   -0.22801665     5.8807357e-05
   9711000   0.04988453    -0.33910202     0.035843616   -0.22843644     0.0001721444 
   9712000   0.050380434   -0.33883188     0.036540355   -0.22672575     0.00058835914
   9713000   0.049570634   -0.33883184     0.036953769   -0.22752692    -0.0006226511 
   9714000   0.05018148    -0.33903527     0.036848892   -0.22691901    -0.00047521515
   9715000   0.050242985   -0.33884094     0.03572887    -0.22775246     0.0010206446 
   9716000   0.049728587   -0.33923972     0.036801874   -0.22784978     0.00016382744
   9717000   0.049781948   -0.33898878     0.035889038   -0.22843164     0.00038783454
   9718000   0.050020951   -0.33965666     0.036306024   -0.22832405    -0.00094964364
   9719000   0.049844326   -0.33906789     0.036553025   -0.2277532      0.00064802818
   9720000   0.049991497   -0.33909455     0.036463022   -0.22764912    -0.00090448868
   9721000   0.05020328    -0.33891401     0.036196347   -0.2274176      0.00011828817
   9722000   0.049685021   -0.33894333     0.036078242   -0.22834236     9.1110778e-05
   9723000   0.049958093   -0.33938894     0.035811255   -0.22864538     0.00085129915
   9724000   0.049389024   -0.33933439     0.035957552   -0.22929809    -0.00081000586
   9725000   0.049764668   -0.33924155     0.036134847   -0.22846452    -0.00061432413
   9726000   0.04979888    -0.33934429     0.036465455   -0.22818533    -0.00054803035
   9727000   0.050248879   -0.33945801     0.03655209    -0.22753747    -0.00093074124
   9728000   0.049812911   -0.33883114     0.036247929   -0.22786866    -0.00038747633
   9729000   0.050058893   -0.33905034     0.0363934     -0.22757345    -0.001322626  
   9730000   0.050320449   -0.33923066     0.036737874   -0.22701698    -0.00067458763
   9731000   0.050172051   -0.33913482     0.036637332   -0.22724427     0.00037701937
   9732000   0.049472035   -0.3396151      0.036513536   -0.2288983     -0.00092631896
   9733000   0.049856645   -0.33911613     0.035587888   -0.2287481      0.00038577077
   9734000   0.049222336   -0.33947558     0.035968099   -0.22967874    -0.00055691472
   9735000   0.050178468   -0.33907219     0.035712887   -0.22809646     0.00053717418
   9736000   0.050276191   -0.33913541     0.03586894    -0.22785705     0.0011475993 
   9737000   0.04955475    -0.33934682     0.036580908   -0.22843858    -0.0010600466 
   9738000   0.050190804   -0.33900891     0.036739399   -0.22698816    -0.00047267313
   9739000   0.050489675   -0.33906016     0.036871101   -0.22645943    -0.0018434398 
   9740000   0.050142504   -0.33919837     0.036373582   -0.22761588     0.001218377  
   9741000   0.05010075    -0.33907269     0.036568929   -0.22735748     0.00018239459
   9742000   0.050703847   -0.33939386     0.03656484    -0.22677816    -0.00021767772
   9743000   0.050095005   -0.33917825     0.036053832   -0.22798675     0.0010694236 
   9744000   0.0506872     -0.3394024      0.035771695   -0.22760481     0.00065472785
   9745000   0.049969676   -0.33907107     0.036348102   -0.22777329    -0.00016351805
   9746000   0.049461605   -0.33940174     0.036144879   -0.22906924    -0.00020530847
   9747000   0.049972243   -0.33889023     0.035930032   -0.22800667     0.00035443937
   9748000   0.049895034   -0.33898785     0.036039539   -0.22811059     0.00023826055
   9749000   0.050108177   -0.3390374      0.035745105   -0.22813488     0.0003004787 
   9750000   0.050189925   -0.33889811     0.036178044   -0.22744004    -0.00014514279
   9751000   0.050127585   -0.33899441     0.036539627   -0.22726826    -0.00083446205
   9752000   0.049534259   -0.33913812     0.036487038   -0.22835448     0.0012721533 
   9753000   0.049376158   -0.33943899     0.036510586   -0.22886895    -0.0010549489 
   9754000   0.04936093    -0.33961122     0.035604149   -0.22997045     0.0010959951 
   9755000   0.04968261    -0.33934368     0.035321386   -0.22950318    -0.00012052572
   9756000   0.049653467   -0.33927957     0.036016757   -0.22878742     0.00098719142
   9757000   0.049897332   -0.33941106     0.036638468   -0.22793142     0.00089676573
   9758000   0.049910773   -0.33905754     0.036405374   -0.22779084     0.00047032233
   9759000   0.050042859   -0.33902793     0.036154502   -0.22781398    -0.00051196559
   9760000   0.049996513   -0.33936182     0.036330991   -0.22804089    -0.00032940197
   9761000   0.050090463   -0.33896428     0.036366443   -0.22746699    -0.00034757176
   9762000   0.050002416   -0.33900309     0.0355285     -0.2284758     -0.0001390991 
   9763000   0.04978402    -0.33929377     0.03681071    -0.22781184    -0.0016227965 
   9764000   0.050230534   -0.33870289     0.036203526   -0.22715842     0.00049485071
   9765000   0.050409788   -0.33894851     0.035980644   -0.22735806    -0.00023980655
   9766000   0.049988118   -0.33928728     0.037163873   -0.22714607     0.00048131791
   9767000   0.05046437    -0.33904097     0.035948729   -0.22740057     0.0011590295 
   9768000   0.04992369    -0.33883418     0.036109387   -0.22784409    -8.0383628e-05
   9769000   0.050169808   -0.33907052     0.03614378    -0.22767689     0.001270173  
   9770000   0.049968151   -0.33861597     0.036603148   -0.22706543     0.00045964946
   9771000   0.050304216   -0.33897811     0.036272813   -0.22725385    -0.00067777022
   9772000   0.049892031   -0.33949975     0.036730686   -0.22793584    -0.00084404457
   9773000   0.050393727   -0.33902524     0.036364176   -0.22707535     0.00018800346
   9774000   0.049831325   -0.3395059      0.036001234   -0.2287625     -0.00098770814
   9775000   0.049745925   -0.33904423     0.036245126   -0.22818503    -0.0011232069 
   9776000   0.050585326   -0.33926738     0.036229878   -0.22716441     3.4089468e-05
   9777000   0.049868111   -0.33907795     0.036658716   -0.22762189    -0.0014720193 
   9778000   0.049710215   -0.33856834     0.036190535   -0.22781729    -0.00041760056
   9779000   0.050140768   -0.33884126     0.036122204   -0.22751276     0.0013002214 
   9780000   0.049256841   -0.33912236     0.036870056   -0.22837181     8.402806e-05 
   9781000   0.050415631   -0.33859627     0.036056566   -0.22692114    -0.00073568398
   9782000   0.050194762   -0.33901639     0.03668972    -0.22703939    -0.00030219679
   9783000   0.050367113   -0.33915823     0.036070134   -0.2275423      0.0013389427 
   9784000   0.049878649   -0.33878745     0.03629471    -0.22767959     0.00021211353
   9785000   0.050254554   -0.3391872      0.036233449   -0.22757678     0.00083562279
   9786000   0.050363938   -0.33952042     0.036438781   -0.2275406     -0.00052925659
   9787000   0.05039491    -0.33880554     0.036289279   -0.22692878    -0.0010883081 
   9788000   0.050639309   -0.33882914     0.036409787   -0.22646529    -0.00046469798
   9789000   0.05010783    -0.33893942     0.036911342   -0.22687119     0.00044311218
   9790000   0.04956495    -0.33900275     0.036371183   -0.22828893    -0.0010694494 
   9791000   0.050083361   -0.33940388     0.036067957   -0.22821573    -0.00062445055
   9792000   0.049959266   -0.3387445      0.036316151   -0.22749429     0.00049708889
   9793000   0.050248094   -0.33936104     0.036117114   -0.22787665    -4.9125224e-05
   9794000   0.049970299   -0.33871876     0.036071649   -0.2276965     -0.00039003006
   9795000   0.050208277   -0.33914696     0.036420492   -0.22741892    -0.00041435068
   9796000   0.050095278   -0.33875673     0.035803945   -0.22781471    -0.00017568441
   9797000   0.05013007    -0.33914269     0.036441836   -0.2275106      0.00024689271
   9798000   0.049695643   -0.33920879     0.035980282   -0.22868986    -0.00097101542
   9799000   0.049948253   -0.33868857     0.036193142   -0.22757788    -0.00043374554
   9800000   0.0500688     -0.33881898     0.036269818   -0.2274508      0.00059012695
   9801000   0.050057954   -0.33890974     0.036948365   -0.22687929     0.00036142762
   9802000   0.050830859   -0.33890086     0.036787338   -0.22587215     0.00037535464
   9803000   0.050300085   -0.33950196     0.035938419   -0.22811828     0.00030804023
   9804000   0.049989347   -0.33954145     0.036273283   -0.22828898     0.00045351088
   9805000   0.049614664   -0.33925729     0.036639845   -0.22820025     0.00062302854
   9806000   0.049724106   -0.33925077     0.0362503     -0.22841912    -0.00018675861
   9807000   0.050362115   -0.33921844     0.035742749   -0.22793739     0.00014575693
   9808000   0.050114822   -0.33943288     0.036350383   -0.22791512    -0.00078800794
   9809000   0.049440184   -0.33938754     0.036340136   -0.22889192     0.00018013593
   9810000   0.049543511   -0.33907047     0.036453302   -0.22830669     0.0012346204 
   9811000   0.050131349   -0.33964116     0.036138754   -0.22831024    -0.0012021283 
   9812000   0.049675594   -0.33932064     0.03563678    -0.22917527     0.00028881272
   9813000   0.04962668    -0.33933344     0.036370818   -0.2285274     -0.0018519719 
   9814000   0.049913885   -0.33952217     0.036263991   -0.22839219    -9.3458028e-05
   9815000   0.049775984   -0.33904295     0.036360599   -0.22802319     0.00014040055
   9816000   0.0498358     -0.33930814     0.03617938    -0.22837988     0.00039920577
   9817000   0.050024704   -0.33899904     0.036193421   -0.2277734      3.3649207e-05
   9818000   0.04985636    -0.33927295     0.035906206   -0.22858702     0.00037875389
   9819000   0.050846309   -0.33967943     0.036434602   -0.22698029     0.00035766187
   9820000   0.049941193   -0.33941036     0.036731844   -0.22777156    -0.00094237446
   9821000   0.049958375   -0.33944392     0.036571295   -0.22793989    -0.0007748381 
   9822000   0.049972004   -0.33920378     0.03619671    -0.2280539      0.001160018  
   9823000   0.04978192    -0.33956459     0.035827107   -0.22906942     0.00012549159
   9824000   0.049904445   -0.33961369     0.036303973   -0.22845788    -0.00056332213
   9825000   0.049679782   -0.33921696     0.036024589   -0.22867751    -0.0007004146 
   9826000   0.049325634   -0.3393072      0.035690998   -0.22963252     0.00043143379
   9827000   0.050031941   -0.33874159     0.036069744   -0.22762878     0.00018427302
   9828000   0.050259705   -0.33924519     0.036614494   -0.227246       0.00060574238
   9829000   0.050473557   -0.33923149     0.036499411   -0.22702662     0.00094677213
   9830000   0.05055937    -0.33935784     0.035987824   -0.22753585     2.6763e-05   
   9831000   0.050651222   -0.33971857     0.036567949   -0.22717869    -0.0010478404 
   9832000   0.050771513   -0.33964338     0.036433644   -0.22705738    -0.00025224028
   9833000   0.050411296   -0.33956878     0.036864132   -0.22709259    -0.00048276039
   9834000   0.050267811   -0.33945787     0.036475315   -0.2275857     -0.00019348659
   9835000   0.05045035    -0.33939291     0.036920329   -0.22680194    -0.00080760868
   9836000   0.049986069   -0.33923678     0.036658916   -0.22760359    -0.00042920878
   9837000   0.049923341   -0.33914463     0.036443667   -0.22782079     0.00035759023
   9838000   0.049874614   -0.33933568     0.036660425   -0.22786816    -0.00049798405
   9839000   0.050301955   -0.33897313     0.036762002   -0.22676306     0.00020205541
   9840000   0.050879137   -0.33920712     0.035924217   -0.22696912     0.0006009713 
   9841000   0.050809925   -0.3393099      0.035949183   -0.22715075     0.0012184809 
   9842000   0.049581719   -0.33932913     0.036386562   -0.22857479     0.00022823418
   9843000   0.050018627   -0.33908552     0.035394697   -0.22866772     0.00086392505
   9844000   0.049873488   -0.33931679     0.036291266   -0.22822011    -0.00066561472
   9845000   0.050247889   -0.33926728     0.035648568   -0.22825175     0.00011561737
   9846000   0.050139718   -0.3390158      0.036745247   -0.22706582    -0.0016949077 
   9847000   0.050112922   -0.339394       0.036033831   -0.22819564     0.00029697362
   9848000   0.049684437   -0.33932385     0.036035528   -0.22876648     0.00077479072
   9849000   0.049538972   -0.33937471     0.035475084   -0.22959596     0.00074486414
   9850000   0.049745136   -0.33951031     0.036640469   -0.22825696    -0.0013267525 
   9851000   0.05073424    -0.3392917      0.03589197    -0.22730328    -0.00020054122
   9852000   0.05040384    -0.33960244     0.036485359   -0.2275162      0.00059300316
   9853000   0.050197083   -0.3394805      0.036392484   -0.22779725    -4.5979657e-05
   9854000   0.050302445   -0.3396627      0.036291277   -0.22792263    -0.00083301982
   9855000   0.05036575    -0.33890964     0.036974233   -0.22639166    -0.0003681183 
   9856000   0.050055245   -0.33920718     0.036593408   -0.22753575    -0.00052490744
   9857000   0.050035075   -0.33953925     0.036407641   -0.22808384    -8.2164258e-05
   9858000   0.050756122   -0.33929943     0.035855198   -0.22731496     0.0013730719 
   9859000   0.050067964   -0.33946676     0.03641314    -0.22795652     0.00050138345
   9860000   0.049724456   -0.33920653     0.035218867   -0.22940579     0.0014808486 
   9861000   0.049456763   -0.3394413      0.036174818   -0.22908613    -0.00045825728
   9862000   0.049443739   -0.33930477     0.035673313   -0.22947063     0.00095388921
   9863000   0.049412004   -0.33961283     0.036169759   -0.22932984     9.5564237e-05
   9864000   0.049883473   -0.33909438     0.036192623   -0.22808137     0.0007888507 
   9865000   0.050691822   -0.33965472     0.036022684   -0.22759921    -0.00073197059
   9866000   0.05014776    -0.33958975     0.036435167   -0.2279378     -0.00034161158
   9867000   0.049450743   -0.33960656     0.036070497   -0.22936473     0.0012707668 
   9868000   0.049584086   -0.33939465     0.035874649   -0.22914867    -0.00075883708
   9869000   0.04988423    -0.33888006     0.035840484   -0.22821806     0.00062847272
   9870000   0.049783313   -0.339275       0.036191247   -0.2284136      5.9110308e-05
   9871000   0.049933567   -0.33950082     0.036084153   -0.22852115    -0.00081429749
   9872000   0.049369462   -0.33932919     0.035786949   -0.22949283     4.1229895e-05
   9873000   0.050300175   -0.33963061     0.035672319   -0.2285129      0.00086199986
   9874000   0.049784132   -0.33929387     0.036080564   -0.22854193     0.00096466615
   9875000   0.050290706   -0.33947274     0.035878146   -0.2281634      0.001454327  
   9876000   0.049791633   -0.33954842     0.036078227   -0.22878757    -0.00099973161
   9877000   0.04990928    -0.33931871     0.036486347   -0.22797327     0.00081004952
   9878000   0.050135878   -0.33962401     0.036276003   -0.22814904    -0.0002377879 
   9879000   0.049979608   -0.33922787     0.036375031   -0.22788827     0.00067467359
   9880000   0.049937766   -0.33934325     0.035785649   -0.22865579     0.00054825459
   9881000   0.049711944   -0.339537       0.036005276   -0.22896862     0.0010955353 
   9882000   0.050417179   -0.33992975     0.035950047   -0.22835882     0.0001949753 
   9883000   0.049632904   -0.33994966     0.036158146   -0.22934696     0.00039726005
   9884000   0.049403545   -0.33989853     0.036146657   -0.22965134     0.00064692028
   9885000   0.049741916   -0.3393389      0.036128303   -0.22860254    -0.0007598445 
   9886000   0.050105191   -0.33956072     0.036391194   -0.22801659     0.00044178455
   9887000   0.049600393   -0.3395353      0.036054731   -0.22908478    -0.00050731633
   9888000   0.049849363   -0.3395794      0.035834666   -0.22897552    -2.9529786e-06
   9889000   0.049817616   -0.33958517     0.035773746   -0.22908982    -0.00064845993
   9890000   0.049653721   -0.33912774     0.036322018   -0.22832994    -0.00049110772
   9891000   0.050290769   -0.33959112     0.036219992   -0.22793984    -0.00050216643
   9892000   0.050206878   -0.33980637     0.03650703    -0.22799388     7.915749e-05 
   9893000   0.049941902   -0.33965703     0.03627769    -0.22847132    -6.3513916e-05
   9894000   0.049658231   -0.33985363     0.036808963   -0.22856213    -0.00071217247
   9895000   0.050020435   -0.33998095     0.036875268   -0.22807987    -0.00020150523
   9896000   0.04957178    -0.33961576     0.035788083   -0.2294748      0.0002412285 
   9897000   0.049140545   -0.33959226     0.036443256   -0.22944295    -0.00024534665
   9898000   0.050025016   -0.3399838      0.035724432   -0.22922669    -0.00033606808
   9899000   0.050131352   -0.33965923     0.036042529   -0.22842453     0.00079878166
   9900000   0.049474498   -0.33953645     0.035796875   -0.22953262     0.00031015502
   9901000   0.049581629   -0.33946601     0.036292046   -0.22880632     0.00089590733
   9902000   0.049987261   -0.33989653     0.035878531   -0.22904195     2.997785e-05 
   9903000   0.049651879   -0.33991565     0.035909137   -0.2295335      0.00059737399
   9904000   0.050226959   -0.3395039      0.036215955   -0.22795236    -0.0010815714 
   9905000   0.050177241   -0.33956209     0.036537063   -0.22776402    -0.00022922706
   9906000   0.051062057   -0.33982326     0.036426756   -0.22680836     6.2242875e-05
   9907000   0.049942525   -0.34003414     0.036126977   -0.22899821    -0.00012662874
   9908000   0.050217228   -0.33999821     0.036008709   -0.22866852    -0.00010975662
   9909000   0.050330287   -0.33980089     0.035953592   -0.22835674     0.0014486123 
   9910000   0.049797229   -0.33998112     0.036507641   -0.22878245     0.00024736836
   9911000   0.049914571   -0.33981766     0.03593947    -0.22901116    -0.00081243721
   9912000   0.049835635   -0.33961682     0.035859297   -0.22900889     8.1309564e-05
   9913000   0.049474175   -0.33975138     0.035902662   -0.22964225     3.9304271e-05
   9914000   0.049741518   -0.34009718     0.036277829   -0.22921189    -0.0017232681 
   9915000   0.049827864   -0.33940297     0.036475656   -0.22819034    -0.00078062746
   9916000   0.049857241   -0.3401442      0.036744847   -0.22861832     0.0003847718 
   9917000   0.050340371   -0.33928927     0.036085785   -0.2276978      0.00067243792
   9918000   0.05045111    -0.33981205     0.036183303   -0.22795697     0.00029844809
   9919000   0.050314739   -0.34007962     0.03672912    -0.22788326    -3.0093512e-05
   9920000   0.049672437   -0.33950638     0.036058696   -0.22894383     0.00039830376
   9921000   0.049944172   -0.33980855     0.036467739   -0.22842939    -7.7156372e-05
   9922000   0.050236905   -0.33964959     0.036205696   -0.2280934     -0.00053519313
   9923000   0.05012791    -0.33935069     0.036251028   -0.22791265     0.00082854472
   9924000   0.049839748   -0.33958482     0.036414995   -0.22841502    -0.00018325457
   9925000   0.050235911   -0.33951298     0.036243673   -0.2279203     -1.6198807e-05
   9926000   0.049955424   -0.3398162      0.036192655   -0.22869525     0.0012465982 
   9927000   0.050184711   -0.33996409     0.036401524   -0.22829036    -8.8845237e-05
   9928000   0.049381707   -0.33958033     0.036171796   -0.22934076    -0.00089117672
   9929000   0.050074852   -0.33965954     0.03571308    -0.22883903     3.216248e-05 
   9930000   0.050062501   -0.33987725     0.036138648   -0.2286497      0.00047299239
   9931000   0.049814279   -0.33923752     0.036580152   -0.22794077     0.00043429107
   9932000   0.049605616   -0.33929279     0.03648425    -0.22840492     0.00079839078
   9933000   0.0496189     -0.33986537     0.036501504   -0.22894031    -0.00032369942
   9934000   0.049488164   -0.3394441      0.03538199    -0.22983465     0.00068396838
   9935000   0.049694357   -0.33991854     0.036179466   -0.22920235    -0.0004532979 
   9936000   0.049586351   -0.33962347     0.036337889   -0.22891085    -8.1244109e-05
   9937000   0.049702373   -0.33992825     0.036065724   -0.22931378    -0.0018469095 
   9938000   0.049795361   -0.33939832     0.035891528   -0.22881857     0.001361302  
   9939000   0.049738278   -0.33987347     0.036339304   -0.22893156     1.8433081e-05
   9940000   0.04973515    -0.33944805     0.036265229   -0.2285849      4.0210814e-05
   9941000   0.050162256   -0.33995035     0.035895393   -0.22881643    -0.0011131432 
   9942000   0.049111076   -0.33956025     0.036335695   -0.2295627      0.00046009482
   9943000   0.050126787   -0.3400868      0.036404491   -0.22849698    -0.0013424295 
   9944000   0.049391588   -0.33953639     0.036354191   -0.2290996      0.00022427922
   9945000   0.049693325   -0.33958        0.036176235   -0.22886858    -0.00010657907
   9946000   0.05066014    -0.33983812     0.035754085   -0.22809873     0.0012325702 
   9947000   0.049971789   -0.33991079     0.036087128   -0.22887081    -0.0003798389 
   9948000   0.049808858   -0.33965379     0.035833583   -0.22911174     0.00020741194
   9949000   0.049965059   -0.34003566     0.036391705   -0.2287012      0.00095877209
   9950000   0.049638072   -0.34025305     0.036499372   -0.22930138     1.6417589e-05
   9951000   0.050151015   -0.33987375     0.036354108   -0.22829797     0.00038742395
   9952000   0.050264437   -0.33985817     0.03617522    -0.22829116    -0.00013239658
   9953000   0.050557978   -0.339979       0.036894612   -0.22725232    -0.00059385976
   9954000   0.050301683   -0.33943765     0.036075436   -0.22791456     3.4045966e-05
   9955000   0.050730826   -0.33960101     0.03674165    -0.22676803    -0.00068097897
   9956000   0.050644256   -0.33981164     0.036314439   -0.22753571     0.00023094866
   9957000   0.050310101   -0.33976232     0.036220959   -0.22808108    -0.00041993253
   9958000   0.049711419   -0.33949742     0.036482319   -0.22845278    -0.00029139024
   9959000   0.050295999   -0.33967053     0.036524059   -0.22770734    -0.0007922349 
   9960000   0.0503936     -0.33982233     0.036468432   -0.22776837     0.00093223531
   9961000   0.050109092   -0.33991764     0.036645594   -0.22811325    -0.00047657353
   9962000   0.049645111   -0.34009336     0.036466316   -0.22916418    -0.00066257339
   9963000   0.05026596    -0.34000472     0.035776843   -0.2288338      0.00019359112
   9964000   0.049734128   -0.33991079     0.035962208   -0.2293522     -0.00024561832
   9965000   0.049538479   -0.33960733     0.036116087   -0.22918832     0.0001861299 
   9966000   0.049817118   -0.33991086     0.036129749   -0.22906025    -0.00078179716
   9967000   0.050372809   -0.33993783     0.035980978   -0.22840251    -0.00060729483
   9968000   0.049846221   -0.33949246     0.036487373   -0.22824058     0.00044218757
   9969000   0.04959916    -0.33931914     0.036297289   -0.22862791     3.1477898e-05
   9970000   0.049558193   -0.33978895     0.036426641   -0.22902982    -0.0014813341 
   9971000   0.049534866   -0.33959794     0.035761523   -0.22953891     0.00026812365
   9972000   0.049736941   -0.33965663     0.035983806   -0.22907223    -1.3782681e-05
   9973000   0.049891165   -0.34002351     0.036362232   -0.22882936    -0.00073189267
   9974000   0.04908608    -0.33967903     0.036240177   -0.22981449     0.00077960993
   9975000   0.05027949    -0.33962098     0.03587945    -0.22832716    -0.0012098549 
   9976000   0.049558313   -0.33954494     0.036070051   -0.22914221    -0.00013370201
   9977000   0.049628698   -0.33985348     0.035954495   -0.22946074     0.00026911276
   9978000   0.049305641   -0.33975066     0.035974532   -0.22982244     0.00034676804
   9979000   0.049447809   -0.34008093     0.035717692   -0.2301963     -0.00028420208
   9980000   0.04959216    -0.33972707     0.035863203   -0.22948042     0.0012322492 
   9981000   0.04966034    -0.33968224     0.036510679   -0.22868586    -0.0015907954 
   9982000   0.049774114   -0.33949106     0.036321012   -0.22851369    -0.00077704619
   9983000   0.050248099   -0.34010592     0.036204      -0.22853463     0.00061461094
   9984000   0.050292741   -0.33941205     0.036357758   -0.22762004     0.00021835405
   9985000   0.050380506   -0.33955781     0.037071153   -0.22692077    -0.00045144786
   9986000   0.049757145   -0.3396343      0.036650653   -0.22835275     0.00043312979
   9987000   0.049932393   -0.33961236     0.036468707   -0.22824989    -6.3340006e-05
   9988000   0.049907092   -0.33994178     0.036239083   -0.22884689     0.00063062736
   9989000   0.049902008   -0.33970724     0.036431393   -0.22842767    -0.00012906883
   9990000   0.050480982   -0.33960163     0.037179037   -0.226706       0.00085361881
   9991000   0.050527899   -0.33964891     0.035480188   -0.22838177     0.00065656789
   9992000   0.050352804   -0.33980916     0.035948265   -0.22833656    -0.00058304119
   9993000   0.050493359   -0.34007647     0.035202406   -0.22913891     0.00010272255
   9994000   0.049716923   -0.33975434     0.035956332   -0.22922744    -9.2750658e-05
   9995000   0.049612828   -0.33961604     0.036428198   -0.2287734     -7.1642475e-05
   9996000   0.050086206   -0.33969161     0.036133708   -0.22843344    -0.00014258751
   9997000   0.049822409   -0.33946814     0.036282483   -0.22845687     0.00025985772
   9998000   0.050036936   -0.33992673     0.03618414    -0.22869202     9.1289488e-05
   9999000   0.049900601   -0.33961894     0.036737309   -0.22803556    -0.00017987578
  10000000   0.050653013   -0.33972812     0.035480472   -0.22827303     0.0010791319 
Loop time of 11684.8 on 8 procs for 9500000 steps with 15500 atoms

Performance: 70245.277 tau/day, 813.024 timesteps/s, 12.602 Matom-step/s
94.0% CPU use with 8 MPI tasks x 1 OpenMP threads

MPI task timing breakdown:
Section |  min time  |  avg time  |  max time  |%varavg| %total
---------------------------------------------------------------
Pair    | 2717.6     | 2928.3     | 3046.6     | 201.7 | 25.06
Bond    | 930.31     | 949.96     | 968.31     |  45.7 |  8.13
Neigh   | 18.457     | 18.521     | 18.563     |   0.8 |  0.16
Comm    | 881.02     | 993.44     | 1200       | 355.4 |  8.50
Output  | 328.33     | 330.65     | 332.85     |   8.3 |  2.83
Modify  | 6309.3     | 6323.4     | 6334.7     |   9.7 | 54.12
Other   |            | 140.5      |            |       |  1.20

Nlocal:         1937.5 ave        2091 max        1791 min
Histogram: 1 1 0 2 1 0 0 1 0 2
Nghost:        1479.38 ave        1548 max        1310 min
Histogram: 1 0 1 0 0 0 0 1 2 3
Neighs:              0 ave           0 max           0 min
Histogram: 8 0 0 0 0 0 0 0 0 0
FullNghs:      19440.8 ave       22264 max       17664 min
Histogram: 2 1 1 1 1 0 0 0 1 1

Total # of neighbors = 155526
Ave neighs/atom = 10.033935
Ave special neighs/atom = 2.1612903
Neighbor list builds = 10030
Dangerous builds = 0

# Write data for deformation

write_restart ${Dir}/${file4_name}
write_restart /home/franvt/GitRepos/molDynLammps/polymericGels/gel-batch-1/data/2026-04-09-051002_2/${file4_name}
write_restart /home/franvt/GitRepos/molDynLammps/polymericGels/gel-batch-1/data/2026-04-09-051002_2/data.hydrogel
System init for write_restart ...
WARNING: Using a manybody potential with bonds/angles/dihedrals and special_bond exclusions (src/pair.cpp:250)
Hybrid pair style last /omp style table/omp
Last active /omp style is angle_style harmonic/omp
Total wall time: 3:24:40
