LAMMPS (22 Jul 2025)
OMP_NUM_THREADS environment is not set. Defaulting to 1 thread.
  using 1 OpenMP thread(s) per MPI task
package omp 0
using multi-threaded neighbor list subroutines
# Input Script of lammps for assembly simulation of polimeric gel network.
# Patchy particle script by Felipe Benavides: https://github.com/PipeB62/Hydrogel-Simulation
# Assembly protocolo based on: https://doi.org/10.1021/acs.macromol.7b01600
# Last Main modification: March 5, 2026 | Threebody interaction

# Initialization
units lj
dimension 3
boundary p p p

# Styles of atoms and that stuff
atom_style full
bond_style harmonic
angle_style harmonic
pair_style hybrid/overlay zero 0.0 lj/cut/omp 1.12 table/omp linear 128 threebody/table

newton on

# Create simulaiton box
region simulation_box block -$L $L -$L $L -$L $L
region simulation_box block -25.622652 $L -$L $L -$L $L
region simulation_box block -25.622652 25.622652 -$L $L -$L $L
region simulation_box block -25.622652 25.622652 -25.622652 $L -$L $L
region simulation_box block -25.622652 25.622652 -25.622652 25.622652 -$L $L
region simulation_box block -25.622652 25.622652 -25.622652 25.622652 -25.622652 $L
region simulation_box block -25.622652 25.622652 -25.622652 25.622652 -25.622652 25.622652
# N-atom-types region-ID keyword value Is necesesary the extra/special/per/atom (# of special neighbors per atom)
create_box 4 simulation_box     bond/types 1     angle/types 2     extra/bond/per/atom 10     extra/angle/per/atom 6     extra/special/per/atom 10
Created orthogonal box = (-25.622652 -25.622652 -25.622652) to (25.622652 25.622652 25.622652)
  2 by 2 by 2 MPI processor grid

# Atom types
mass 1 1.0      # CL
mass 2 1.0      # MO
mass 3 1.0      # PA (CL)
mass 4 1.0      # PB (MO)

# Coefficients
include potential.in
# Script with the pair-wise interaction and bonds between particles

bond_coeff 1 100.0 0.4
angle_coeff 1 100.0 180
angle_coeff 2 100.0 109.4712
pair_coeff 1 3 zero 0.5
pair_coeff 1 4 zero 0.5
pair_coeff 2 3 zero 0.5
pair_coeff 2 4 zero 0.5
pair_coeff 3 3 zero 0.5
pair_coeff 1 1 lj/cut/omp 1.0 1.0 1.12
pair_coeff 2 2 lj/cut/omp 1.0 1.0 1.12
pair_coeff 1 2 lj/cut/omp 1.0 1.0 1.12
pair_coeff 3 4 table/omp sysFiles/pachTab.table POT 0.6 # sw/omp sysFiles/patchyPot.sw NULL NULL PA PB
Reading pair table potential file sysFiles/pachTab.table with DATE: 2025-02-09
WARNING: 1 of 128 force values in table POT are inconsistent with -dE/dr.
WARNING:  Should only be flagged at inflection points (src/pair_table.cpp:469)
pair_coeff 4 4 table/omp sysFiles/pachTab.table POT 0.6 # sw/omp sysFiles/patchyPot.sw NULL NULL PA PB
Reading pair table potential file sysFiles/pachTab.table with DATE: 2025-02-09
WARNING: 1 of 128 force values in table POT are inconsistent with -dE/dr.
WARNING:  Should only be flagged at inflection points (src/pair_table.cpp:469)
pair_coeff * * threebody/table swapMech.3b NULL NULL PA PB
pair_modify pair lj/cut/omp shift yes


# Molecules
include molecules.in
# Script with all molecule information and create groups for computes

# Read the molecule information
molecule CL sysFiles/molecule.patchy.CL
Read molecule template CL:
# Patchy Cross-Linker
  1 molecules
  0 fragments
  0 bodies
  5 atoms with max type 3
  4 bonds with max type 1
  6 angles with max type 2
  0 dihedrals with max type 0
  0 impropers with max type 0
molecule MO sysFiles/molecule.patchy.MO
Read molecule template MO:
# Patchy Monomer
  1 molecules
  0 fragments
  0 bodies
  3 atoms with max type 4
  2 bonds with max type 1
  1 angles with max type 1
  0 dihedrals with max type 0
  0 impropers with max type 0

# Introduce the molecules
# ID style args keyword arg
region spawn_box block -$L $L -$L $L -$L $L
region spawn_box block -25.622652 $L -$L $L -$L $L
region spawn_box block -25.622652 25.622652 -$L $L -$L $L
region spawn_box block -25.622652 25.622652 -25.622652 $L -$L $L
region spawn_box block -25.622652 25.622652 -25.622652 25.622652 -$L $L
region spawn_box block -25.622652 25.622652 -25.622652 25.622652 -25.622652 $L
region spawn_box block -25.622652 25.622652 -25.622652 25.622652 -25.622652 25.622652

# create_atoms type style args keyword values
# style_random: N seed region-ID
# keyword_mol: template-ID seed
# keyword_overlap: overlap value = only insert if at least this distance from all existing atoms
# keyword_maxtry: maxtry value = number of attempts to insert a particle before failure
create_atoms 0 random ${NCL} ${seed1} spawn_box mol CL ${seed1} overlap 1.0 maxtry 5000 #xls
create_atoms 0 random 250 ${seed1} spawn_box mol CL ${seed1} overlap 1.0 maxtry 5000 
create_atoms 0 random 250 75 spawn_box mol CL ${seed1} overlap 1.0 maxtry 5000 
create_atoms 0 random 250 75 spawn_box mol CL 75 overlap 1.0 maxtry 5000 
Created 1250 atoms
  using lattice units in orthogonal box = (-25.622652 -25.622652 -25.622652) to (25.622652 25.622652 25.622652)
  create_atoms CPU = 0.014 seconds
create_atoms 0 random ${NMO} ${seed2} spawn_box mol MO ${seed2} overlap 1.0 maxtry 5000 #mon
create_atoms 0 random 4750 ${seed2} spawn_box mol MO ${seed2} overlap 1.0 maxtry 5000 
create_atoms 0 random 4750 36 spawn_box mol MO ${seed2} overlap 1.0 maxtry 5000 
create_atoms 0 random 4750 36 spawn_box mol MO 36 overlap 1.0 maxtry 5000 
Created 14250 atoms
  using lattice units in orthogonal box = (-25.622652 -25.622652 -25.622652) to (25.622652 25.622652 25.622652)
  create_atoms CPU = 0.657 seconds

# Create patchy particles
group CrossLinker type 1 3
1250 atoms in group CrossLinker
group Monomer type 2 4
14250 atoms in group Monomer
group Patches type 3 4
10500 atoms in group Patches
group CL type 1
250 atoms in group CL
group MO type 2
4750 atoms in group MO
group PA type 3
1000 atoms in group PA
group PB type 4
9500 atoms in group PB
group CM type 1 2
5000 atoms in group CM

# Neighbor list
neighbor 1.2 bin # extra-distance style
#neigh_modify delay 0 every 1 check no
#neigh_modify exclude molecule/intra CrossLinker
#neigh_modify exclude molecule/intra Monomer

# COMPUTES

# Compute global kinetic and potential energy and temperature
compute t all temp
compute p all pressure t
compute ep all pe
compute ek all ke
variable eT equal etotal
variable eB equal ebond
variable eA equal eangle
variable eM equal emol
variable ec equal ecouple
variable eC equal econserve

# Potencial energy per pair-wise interaction
compute wcaPair all pair lj/cut/omp epair
compute patchPair all pair table/omp epair
compute swapPair all pair threebody/table epair

# Compute the pressure
compute press all pressure t ke virial
compute pressVirial all pressure t virial
compute pressVirialMod all pressure t pair bond angle

# Computes for the stress
compute cstress all stress/atom t ke pair bond angle
compute cstressVirial all stress/atom t virial
compute cstressVirialMod all stress/atom t pair bond angle
compute stress all reduce sum c_cstress[*]
compute stressVirial all reduce sum c_cstressVirial[*]
compute stressVirialMod all reduce sum c_cstressVirialMod[*]

# Get the number of central particles per cluster
compute clusters all aggregate/atom 0.6                             # Create the clusters

# DUMPS and FIXES

thermo ${Ndump}
thermo 1000

# Save global energies and temperature
fix Energy all ave/time 1 ${Nsave} ${Nsave} c_t c_wcaPair c_patchPair c_swapPair c_ep c_ek v_eT v_ec v_eC c_p v_eB v_eA v_eM file ${Dir}/${file1_name}
fix Energy all ave/time 1 100000 ${Nsave} c_t c_wcaPair c_patchPair c_swapPair c_ep c_ek v_eT v_ec v_eC c_p v_eB v_eA v_eM file ${Dir}/${file1_name}
fix Energy all ave/time 1 100000 100000 c_t c_wcaPair c_patchPair c_swapPair c_ep c_ek v_eT v_ec v_eC c_p v_eB v_eA v_eM file ${Dir}/${file1_name}
fix Energy all ave/time 1 100000 100000 c_t c_wcaPair c_patchPair c_swapPair c_ep c_ek v_eT v_ec v_eC c_p v_eB v_eA v_eM file /home/franvt/GitRepos/molDynLammps/polymericGels/gel-batch-1/data/2026-04-08-094029_6/${file1_name}
fix Energy all ave/time 1 100000 100000 c_t c_wcaPair c_patchPair c_swapPair c_ep c_ek v_eT v_ec v_eC c_p v_eB v_eA v_eM file /home/franvt/GitRepos/molDynLammps/polymericGels/gel-batch-1/data/2026-04-08-094029_6/system_assembly.fixf

# Save Pressure and Stress tensor
fix fixStress5 all ave/time 1 ${NsaveStress} ${NsaveStress} c_p c_press[*] c_pressVirial[*] c_pressVirialMod[*] c_stress[*] c_stressVirial[*] c_stressVirialMod[*] file ${Dir}/${file2_name}
fix fixStress5 all ave/time 1 100000 ${NsaveStress} c_p c_press[*] c_pressVirial[*] c_pressVirialMod[*] c_stress[*] c_stressVirial[*] c_stressVirialMod[*] file ${Dir}/${file2_name}
fix fixStress5 all ave/time 1 100000 100000 c_p c_press[*] c_pressVirial[*] c_pressVirialMod[*] c_stress[*] c_stressVirial[*] c_stressVirialMod[*] file ${Dir}/${file2_name}
fix fixStress5 all ave/time 1 100000 100000 c_p c_press[*] c_pressVirial[*] c_pressVirialMod[*] c_stress[*] c_stressVirial[*] c_stressVirialMod[*] file /home/franvt/GitRepos/molDynLammps/polymericGels/gel-batch-1/data/2026-04-08-094029_6/${file2_name}
fix fixStress5 all ave/time 1 100000 100000 c_p c_press[*] c_pressVirial[*] c_pressVirialMod[*] c_stress[*] c_stressVirial[*] c_stressVirialMod[*] file /home/franvt/GitRepos/molDynLammps/polymericGels/gel-batch-1/data/2026-04-08-094029_6/stress_assembly.fixf

# Save atom positions with cluster id
dump dumpID all custom ${Ndump} ${Dir}/traj/${file3_name} id mol c_clusters type x y z vx vy vz
dump dumpID all custom 1000 ${Dir}/traj/${file3_name} id mol c_clusters type x y z vx vy vz
dump dumpID all custom 1000 /home/franvt/GitRepos/molDynLammps/polymericGels/gel-batch-1/data/2026-04-08-094029_6/traj/${file3_name} id mol c_clusters type x y z vx vy vz
dump dumpID all custom 1000 /home/franvt/GitRepos/molDynLammps/polymericGels/gel-batch-1/data/2026-04-08-094029_6/traj/traj_assembly.*.dumpf id mol c_clusters type x y z vx vy vz
dump_modify dumpID pbc yes # remap atoms via periodic boundary conditions

# RUN SIMULATION

# Brownian Dynamics using Langevin Thermostat

timestep ${tstep}
timestep 0.001

fix VelVerlet all nve # Use Velocity Verlet integrator

# First elevate the temperature
fix ThermoLng all langevin 0.0 ${temp} ${damp} ${seed3} tally yes zero yes # Brownian Dynamics: langevin + nve
fix ThermoLng all langevin 0.0 0.05 ${damp} ${seed3} tally yes zero yes 
fix ThermoLng all langevin 0.0 0.05 1 ${seed3} tally yes zero yes 
fix ThermoLng all langevin 0.0 0.05 1 66 tally yes zero yes 
run ${stepsheat}
run 500000
WARNING: Using a manybody potential with bonds/angles/dihedrals and special_bond exclusions (src/pair.cpp:250)
Hybrid pair style last /omp style table/omp
Last active /omp style is angle_style harmonic/omp
Neighbor list info ...
  update: every = 1 steps, delay = 0 steps, check = yes
  max neighbors/atom: 2000, page size: 100000
  master list distance cutoff = 2.32
  ghost atom cutoff = 2.32
  binsize = 1.16, bins = 45 45 45
  7 neighbor lists, perpetual/occasional/extra = 6 1 0
  (1) pair zero, perpetual, skip from (7)
      attributes: half, newton on, omp
      pair build: skip/omp
      stencil: none
      bin: none
  (2) pair lj/cut/omp, perpetual, skip from (7)
      attributes: half, newton on, omp
      pair build: skip/omp
      stencil: none
      bin: none
  (3) pair table/omp, perpetual, skip from (7)
      attributes: half, newton on, omp
      pair build: skip/omp
      stencil: none
      bin: none
  (4) pair threebody/table, perpetual, skip from (6)
      attributes: full, newton on, omp
      pair build: skip/omp
      stencil: none
      bin: none
  (5) compute aggregate/atom, occasional, copy from (6)
      attributes: full, newton on, omp
      pair build: copy
      stencil: none
      bin: none
  (6) neighbor class addition, perpetual
      attributes: full, newton on, omp
      pair build: full/bin/omp
      stencil: full/bin/3d
      bin: standard
  (7) neighbor class addition, perpetual, half/full from (6)
      attributes: half, newton on, omp
      pair build: halffull/newton/omp
      stencil: none
      bin: none
Per MPI rank memory allocation (min/avg/max) = 19.2 | 19.21 | 19.22 Mbytes
   Step          Temp          E_pair         E_mol          TotEng         Press     
         0   0              9.4915349e-05  2.7795448      2.7796397      0.00025488617
      1000   0.48559518     0              0.37846552     1.1068113      0.033354841  
      2000   0.13168101     0              0.22494663     0.4224554     -0.0077430708 
      3000   0.058779248    0              0.070973227    0.15913641     0.00057359303
      4000   0.020039583    5.7739897e-09  0.029286514    0.059343955    0.0048743394 
      5000   0.0059063058   1.3021633e-08  0.013680966    0.022539866   -0.0014181125 
      6000   0.0025060791   4.0912379e-08  0.0054294363   0.0091883534  -0.0016658259 
      7000   0.0019273311   0              0.0014109926   0.0043018027   0.00055647128
      8000   0.0010907757   7.1366461e-08  0.0010194697   0.0026555991   0.00060980393
      9000   0.00097766003  0              0.00071052096  0.0021769164  -0.00016153425
     10000   0.00095778042  1.3586437e-07  0.00072499833  0.0021617121  -0.00013223174
     11000   0.0010473624   5.228717e-08   0.00071368774  0.0022846823   0.00016587408
     12000   0.0011362762   0              0.00077295474  0.0024772591   0.00013567857
     13000   0.0012283605   0              0.00082756121  0.0026699831  -7.3593481e-06
     14000   0.0013472929   4.1243803e-07  0.00090326891  0.0029244903  -5.3219126e-05
     15000   0.0014226978   6.5563896e-08  0.0009487502   0.0030827248   9.7053984e-05
     16000   0.00153546     7.2007169e-07  0.0010350782   0.0033388397   8.6021618e-05
     17000   0.0016194454   2.6012275e-07  0.0011189764   0.0035482479   2.2962244e-05
     18000   0.0017400197   7.8637172e-08  0.0011799161   0.0037898559   5.8218474e-05
     19000   0.0018206075   2.3641879e-07  0.0012316685   0.00396264     0.00010821783
     20000   0.0019286839   4.8932262e-08  0.0013101823   0.0042030704   6.268443e-05 
     21000   0.0020636434  -5.7126329e-05  0.0013916163   0.0044297554   5.9418647e-05
     22000   0.0021412364  -0.00011932699  0.0014592174   0.0045515378   3.4552369e-05
     23000   0.002225082   -0.0001264912   0.0015488634   0.0047597799   0.00019709172
     24000   0.0023382049  -0.00012685226  0.0015720592   0.0049522881   8.9373487e-05
     25000   0.0024146711  -0.00012473758  0.0016635333   0.0051605687   7.1555978e-05
     26000   0.0025384265  -0.00012746055  0.001730464    0.0054103976   9.3739366e-05
     27000   0.0026540264  -0.0001796329   0.0017858234   0.0055869732   3.4165489e-05
     28000   0.0027956408  -0.00036198841  0.0018426865   0.0056738888   0.00011030217
     29000   0.0028518888  -0.00043142917  0.001955447    0.0058015749   0.0003657277 
     30000   0.0029461705  -0.00044411944  0.0020068478   0.005981699    0.00016838798
     31000   0.0030567591  -0.00044514594  0.0020313812   0.0061710781   0.00010460973
     32000   0.0031306995  -0.00056852843  0.0021529711   0.006280189    0.0001400727 
     33000   0.0032570673  -0.00063556149  0.0022001129   0.0064498372   0.00015112821
     34000   0.0033916693  -0.00074788888  0.0022927042   0.0066319911   0.00023753818
     35000   0.0035492169  -0.00096769344  0.002450483    0.0068062715   0.00014047579
     36000   0.0035981089  -0.001017593    0.0024574894   0.0068367115  -1.0992557e-06
     37000   0.0036459484  -0.0010227874   0.0025129363   0.0069587188   0.00015549413
     38000   0.0037605293  -0.001124241    0.002600422    0.007116611    0.00016970352
     39000   0.0038398106  -0.0012157292   0.0026144374   0.0071580525   0.0001258552 
     40000   0.0039312119  -0.0012145596   0.0026660488   0.0073479265   0.00013052657
     41000   0.0041350896  -0.0013338298   0.0027298393   0.0075982436   0.00025236127
     42000   0.0041408541  -0.0015934861   0.0029365354   0.0075539297   0.00013992338
     43000   0.0042912421  -0.0017069194   0.0028823458   0.0076118742   0.0002539629 
     44000   0.0043506347  -0.0017881887   0.002891035    0.0076283772   0.00018146005
     45000   0.0044078291  -0.0019191044   0.00309485     0.0077870626   0.00016815895
     46000   0.0045984886  -0.0019796699   0.003119294    0.008036912    0.00029155346
     47000   0.0046727625  -0.0023232899   0.0033180855   0.0080034872   0.00032360292
     48000   0.004856138   -0.0025073941   0.003310322    0.0080866649   0.00019725712
     49000   0.0048992964  -0.0027674844   0.0033368046   0.0079177906   0.00013798145
     50000   0.0049959811  -0.0028906209   0.0033904657   0.007993333    0.00015215732
     51000   0.0050133548  -0.0029915862   0.0034412049   0.0079691657   0.0002565911 
     52000   0.0052409103  -0.0031665454   0.0035254958   0.0082198088   0.00019657483
     53000   0.0053308008  -0.0033900989   0.0036287816   0.008234368    0.00014203712
     54000   0.0053372523  -0.0035606627   0.0036568765   0.0081015758   0.00028428409
     55000   0.0054612095  -0.0037539048   0.0037631866   0.0082005675   0.00026688701
     56000   0.0056110811  -0.0039110263   0.0037943496   0.0082994019   0.00027303884
     57000   0.0057044421  -0.0041617455   0.0038824931   0.0082768586   0.00015372111
     58000   0.0057557135  -0.0044243726   0.0039803948   0.0081890354   0.00018864748
     59000   0.005823059   -0.0047607526   0.0040869759   0.0080602484   0.00021205999
     60000   0.0059859363  -0.0049820504   0.0041060984   0.0081023731   0.00018690362
     61000   0.0061520458  -0.0051158863   0.0041349691   0.0082465562   0.00030111207
     62000   0.0062251945  -0.0051959734   0.0042584069   0.0083996228   0.00010816495
     63000   0.0062351193  -0.0053134336   0.0042995744   0.0083382164   0.00036557144
     64000   0.0063245226  -0.0053750423   0.0043065296   0.0084176591   0.00036977155
     65000   0.0063910421  -0.0053958537   0.0044209223   0.0086110132   1.9601832e-05
     66000   0.0065922239  -0.0054505493   0.004491963    0.0089291117   0.00029692834
     67000   0.0068187907  -0.0057798596   0.0045917386   0.0090394051   0.0004140229 
     68000   0.0068525823  -0.00607781     0.0046253482   0.0088257485   0.00014277241
     69000   0.0068211024  -0.0062207223   0.0047342874   0.0087445585   0.00019260793
     70000   0.0070399116  -0.0064546047   0.0047329444   0.0088375258   0.00032540435
     71000   0.0070904249  -0.0067680913   0.0048628582   0.0087297181   0.00037062701
     72000   0.0072073837  -0.006951488    0.0048740678   0.0087329578   0.00019224047
     73000   0.0073421787  -0.0072143928   0.0050396888   0.0088378536   0.00020589679
     74000   0.0074038244  -0.0073775426   0.0049824245   0.008709902    0.00036496438
     75000   0.0076115939  -0.0077360725   0.0051772129   0.0088577946   0.00052955754
     76000   0.0075643408  -0.007831622    0.0052051598   0.008719317    0.00033251914
     77000   0.0077597035  -0.0082446808   0.0052876939   0.0086818174   0.00016675835
     78000   0.0078944058  -0.0086786688   0.0054422272   0.0086044031   0.00033359886
     79000   0.0079668059  -0.0087939065   0.0053186624   0.0084741939   0.00038305949
     80000   0.0079151791  -0.0088836197   0.0054906751   0.0084790581   0.00018511957
     81000   0.0080214663  -0.0091598618   0.0054715448   0.0083431062   0.00013368652
     82000   0.008184899   -0.009717876    0.0056441778   0.0082028583   0.00039683211
     83000   0.0083181083  -0.0099176029   0.0057200842   0.0082788388   0.00029554631
     84000   0.0084978509  -0.010026248    0.0056870038   0.0084067098   0.00045731698
     85000   0.0083913967  -0.010072337    0.0059003717   0.0084143178   0.00039737769
     86000   0.0086062583  -0.010362988    0.0058535825   0.0083991492   0.00020827681
     87000   0.0086073486  -0.010530714    0.0059464363   0.0083259122   0.0002520435 
     88000   0.0086512344  -0.010750369    0.0061274054   0.0083530507   0.00022797643
     89000   0.0089237378  -0.010994742    0.0060942947   0.0084842953   0.00027685107
     90000   0.0090859887  -0.011343176    0.0062641129   0.0085490403   0.00021147743
     91000   0.0091974145  -0.011647554    0.0061629016   0.0083105795   0.00034892422
     92000   0.0092309202  -0.012146562    0.0064804595   0.0081793848   0.00025221801
     93000   0.0093607148  -0.012720133    0.0064450874   0.0077651211   0.00015902852
     94000   0.0094022448  -0.013134028    0.0065477833   0.0075162126   0.00042553347
     95000   0.0096215485  -0.013403879    0.0064958586   0.0075233708   0.0004216004 
     96000   0.0097107423  -0.013721855    0.0066211532   0.0074644715   0.00041737984
     97000   0.0097604309  -0.013848549    0.0065365368   0.0073276899   9.2642619e-05
     98000   0.0097342141  -0.014005938    0.0066871117   0.0072815529   0.00031791519
     99000   0.0098889867  -0.014420883    0.0069015508   0.007313191    0.00043056531
    100000   0.01007732    -0.014769626    0.0068665401   0.0072119193   0.00029730315
    101000   0.01002186    -0.014841001    0.0068567495   0.0070475687   0.00032959419
    102000   0.010093616   -0.015052098    0.0069602062   0.0070475546   0.0003943233 
    103000   0.010331966   -0.015173018    0.0070678576   0.0073917885   0.00042121032
    104000   0.010195173   -0.01516391     0.0071643081   0.0072921716   0.00054405363
    105000   0.010534257   -0.015617452    0.0071831267   0.0073660412   0.00024070038
    106000   0.01056427    -0.015840799    0.0072036746   0.0072082584   1.1178569e-05
    107000   0.010710262   -0.015871253    0.0073674269   0.0075605314   0.00011462384
    108000   0.010932941   -0.016291756    0.0075819539   0.0076885514   0.00062783682
    109000   0.011006348   -0.016366141    0.0074991169   0.007641433    0.00039664855
    110000   0.011163423   -0.016658056    0.0075405562   0.0076265548   0.0002068876 
    111000   0.01102536    -0.016885306    0.0077370797   0.0073887469   0.0005372122 
    112000   0.011123021   -0.01704925     0.0078793017   0.0075135075   0.00052011104
    113000   0.011362174   -0.017525942    0.0078201357   0.0073363548   0.00056183772
    114000   0.011502998   -0.017811688    0.0078500099   0.0072917056   0.00059733999
    115000   0.011373699   -0.018055476    0.00796169     0.0069656616   0.00062201381
    116000   0.011559753   -0.018254626    0.0077743991   0.0068582843   0.00049347583
    117000   0.011809722   -0.018821107    0.0080638964   0.0069562301   0.00011045928
    118000   0.011943171   -0.019099774    0.0081312619   0.0069450881   0.00035988119
    119000   0.012033523   -0.019532047    0.0081045251   0.0066215986   0.00036987579
    120000   0.0119871     -0.019835787    0.0082039455   0.0063476485   0.00058682819
    121000   0.012191426   -0.020180282    0.0082085714   0.0063142485   0.00043651856
    122000   0.012261823   -0.020378656    0.0084904004   0.0065032925   0.00043609031
    123000   0.012261466   -0.020791305    0.0085879727   0.0061876801   0.00048697019
    124000   0.012426821   -0.021126741    0.0085285567   0.0060408449   0.00032489572
    125000   0.012473553   -0.021486265    0.0084962604   0.0057191173   0.00047974003
    126000   0.01263667    -0.021821897    0.0086455392   0.005777424    0.00053216727
    127000   0.012676589   -0.021959793    0.0087127654   0.0057666296   0.00051184586
    128000   0.012633735   -0.022114086    0.0087664861   0.0056017803   0.00051225302
    129000   0.012869204   -0.022539887    0.008880419    0.0056430921   0.00031383016
    130000   0.012977614   -0.022826829    0.0088930552   0.0055313909   0.00035089317
    131000   0.013063314   -0.023089387    0.0091108834   0.005615203    0.00052251697
    132000   0.013269492   -0.023369752    0.008992087    0.0055252897   0.00081124767
    133000   0.013406258   -0.023545599    0.0090787821   0.0056412733   0.00074826444
    134000   0.013443453   -0.023787847    0.0093219977   0.0056980297   0.0005856566 
    135000   0.013424648   -0.024050389    0.0093030447   0.0053883292   0.00036572615
    136000   0.013746667   -0.024705545    0.0093374428   0.005250568    0.00036987626
    137000   0.013627196   -0.024984492    0.0094826154   0.0049375984   0.00051638539
    138000   0.013784096   -0.02543047     0.0093000951   0.0045444347   0.00028786724
    139000   0.013837673   -0.025650449    0.0094986118   0.0046033332   0.00088706253
    140000   0.014129371   -0.025788998    0.0096768473   0.0050805386   0.00021685603
    141000   0.014092653   -0.026319938    0.0098457349   0.0046634138   0.00035695469
    142000   0.014260167   -0.026569877    0.0097950835   0.0046140769   0.00070226315
    143000   0.014269878   -0.026878427    0.010046843    0.0045718522   0.00036724495
    144000   0.014465615   -0.027206675    0.0098108694   0.0043012182   0.00051074122
    145000   0.014426605   -0.027650468    0.0099690383   0.0039570829   0.00053248349
    146000   0.014624767   -0.027927554    0.009841187    0.0038493687   0.00073747904
    147000   0.014617861   -0.028252305    0.010031046    0.0037041185   0.00047983828
    148000   0.014872666   -0.028713665    0.010086727    0.0036806222   0.00043562164
    149000   0.014975148   -0.029162391    0.010368438    0.0036673208   0.0005598837 
    150000   0.014964779   -0.029448298    0.010416872    0.0034142955   0.00049515949
    151000   0.015003973   -0.029764477    0.010431659    0.0031716899   0.00064830706
    152000   0.015166615   -0.029894348    0.010577304    0.003431411    0.00045663107
    153000   0.015324419   -0.03020643     0.010616707    0.0033954225   0.00035778872
    154000   0.015484674   -0.030589393    0.010559357    0.0031954769   0.00079286675
    155000   0.015742087   -0.031338841    0.010656693    0.0029294594   0.00086948378
    156000   0.015561249   -0.031888081    0.010744079    0.0021963656   0.00063940414
    157000   0.015783852   -0.032151102    0.010729226    0.0022523733   0.000715062  
    158000   0.0156816     -0.032828694    0.010974353    0.0016665422   0.00040436492
    159000   0.016176946   -0.033385594    0.010988038    0.0018662972   0.0007368391 
    160000   0.015999214   -0.03370782     0.011084965    0.0013744175   0.00077799963
    161000   0.01604712    -0.033904294    0.010849738    0.0010145715   0.00065443772
    162000   0.016151918   -0.034327622    0.01131077     0.0012094617   0.00024709868
    163000   0.01641083    -0.034771378    0.011519896    0.0013631755   0.00032674353
    164000   0.016293046   -0.035208836    0.01125151     0.00048066614  0.00063366728
    165000   0.016613116   -0.035504044    0.011276277    0.00069029992  0.00073694524
    166000   0.016740374   -0.035925131    0.011501337    0.00068514619  0.00028951872
    167000   0.016658698   -0.036123807    0.011464598    0.00032722609  0.00075689385
    168000   0.016784872   -0.036486823    0.011569596    0.00025845721  0.00046491953
    169000   0.017066658   -0.036763835    0.01163828     0.00047278018  0.00033211727
    170000   0.016931925   -0.037163271    0.0117359     -3.1122124e-05  0.0004955739 
    171000   0.017061654   -0.037496563    0.01169711    -0.00020862364  0.00056358136
    172000   0.017380713   -0.03783505     0.011868771    0.00010310838  0.0011241749 
    173000   0.017556284   -0.03836875     0.011839534   -0.00019648876  0.0006085501 
    174000   0.017494474   -0.038549619    0.012052348   -0.00025725334  0.00041054462
    175000   0.017755627   -0.038919262    0.011989443   -0.00029809587  0.00068612917
    176000   0.017720045   -0.039307576    0.012071771   -0.0006574529   0.00068938857
    177000   0.017851164   -0.039763983    0.012171104   -0.00081786029  0.00075422312
    178000   0.017848761   -0.040031092    0.012203373   -0.0010563049   0.00025342627
    179000   0.018075033   -0.040260261    0.012502331   -0.00064712932  0.00038111087
    180000   0.017957437   -0.040399988    0.012349943   -0.0011156276   0.00084133822
    181000   0.018316115   -0.040937877    0.012637601   -0.000827875    0.00035387248
    182000   0.01839344    -0.041240039    0.012579017   -0.0010726414   0.00054352831
    183000   0.018276936   -0.04149626     0.012813803   -0.0012688212   0.00053262091
    184000   0.018637063   -0.041631373    0.012676878   -0.0010007032   0.00070823901
    185000   0.018827858   -0.042178122    0.013130881   -0.00080727659  0.00033792808
    186000   0.018909515   -0.042308996    0.012713777   -0.0012327762   0.00073110374
    187000   0.018819765   -0.042675596    0.013013565   -0.001434205    0.0010061048 
    188000   0.018814277   -0.043229317    0.012940654   -0.0020690677   0.00051890324
    189000   0.018900864   -0.043639047    0.013002598   -0.002286981    0.00034138382
    190000   0.019135997   -0.043829232    0.012971439   -0.0021556484   0.00096991426
    191000   0.019180858   -0.044188036    0.013010358   -0.0024082483   0.00064819552
    192000   0.019471736   -0.045032165    0.013348708   -0.0024777372   0.0006289235 
    193000   0.019297418   -0.045266433    0.01321955    -0.0031026228   0.0010333259 
    194000   0.019250678   -0.045559004    0.013435326   -0.0032495242   0.00046688642
    195000   0.019569177   -0.045844353    0.013165567   -0.0033269135   0.00060304227
    196000   0.019514662   -0.046289679    0.013609155   -0.003410419    0.00080479575
    197000   0.019980811   -0.046592944    0.013294894   -0.0033287662   0.00055412257
    198000   0.019659303   -0.047022429    0.013572114   -0.003963264    0.0009155699 
    199000   0.019978309   -0.047559972    0.013600158   -0.0039942844   0.00062728257
    200000   0.019834259   -0.048036341    0.013558818   -0.0047280548   0.00047406831
    201000   0.020211837   -0.048379125    0.013661355   -0.0044019708   0.00091687176
    202000   0.020189365   -0.048847891    0.013900151   -0.0046656465   0.00065183087
    203000   0.020222893   -0.049038738    0.014012335   -0.00469402     0.00081870129
    204000   0.020613589   -0.049564086    0.013942363   -0.0047033349   0.00030337121
    205000   0.020325261   -0.049773654    0.013952706   -0.0053350233   0.0010549225 
    206000   0.020714716   -0.050022563    0.013991879   -0.0049606149   0.00060981703
    207000   0.02072059    -0.050521979    0.014398966   -0.0050441327   0.0005432734 
    208000   0.020787211   -0.050806934    0.014274092   -0.0053540377   0.00079255627
    209000   0.020753898   -0.051044375    0.01444643    -0.0054691069   0.00088973846
    210000   0.020790524   -0.05154721     0.014826927   -0.0055365095   0.00057185636
    211000   0.020965337   -0.051894565    0.014323459   -0.0061251297   0.00069872952
    212000   0.02125701    -0.052168864    0.014752874   -0.0055325331   0.00060428929
    213000   0.021232886   -0.052655689    0.015018681   -0.0057897339   0.00074374734
    214000   0.021093302   -0.052734642    0.014591674   -0.0065050555   0.000580203  
    215000   0.021390715   -0.053055632    0.014883677   -0.0060879525   0.00097983223
    216000   0.02153726    -0.053385698    0.014904464   -0.006177428    0.00091155921
    217000   0.021807907   -0.053586691    0.014827066   -0.0060498746   0.00030331304
    218000   0.021880422   -0.053982381    0.015097893   -0.0060659729   0.0011927232 
    219000   0.021833141   -0.054156844    0.014885948   -0.0065232983   0.0010928966 
    220000   0.022266664   -0.054567318    0.01503981    -0.0061296654   0.00063790487
    221000   0.022221625   -0.054997722    0.015364251   -0.0063031844   0.0009551866 
    222000   0.022167496   -0.055177533    0.015527059   -0.0064013753   0.00099708998
    223000   0.022179625   -0.055368432    0.015378163   -0.0067229783   0.0010868027 
    224000   0.022467456   -0.055708145    0.015464622   -0.006544514    0.00096956129
    225000   0.022639505   -0.055874272    0.015706537   -0.0062106689   0.00064195491
    226000   0.022955967   -0.0566857      0.015729968   -0.0065240035   0.00079356854
    227000   0.02301002    -0.056905839    0.015917361   -0.0064756754   0.00084653126
    228000   0.02266777    -0.057151161    0.015776297   -0.0073754021   0.00087939053
    229000   0.023017107   -0.057299525    0.015619297   -0.0071567943   0.0008142299 
    230000   0.023118257   -0.057819213    0.015949604   -0.007194462    0.00073819919
    231000   0.023120732   -0.058064966    0.015986905   -0.0073992009   0.00052573982
    232000   0.023175671   -0.058652955    0.016172365   -0.007719327    0.0007024565 
    233000   0.023539515   -0.058875477    0.016079877   -0.0074886053   0.00067064167
    234000   0.023452231   -0.059148201    0.016284555   -0.0076875698   0.00068337762
    235000   0.023975048   -0.059663378    0.016110993   -0.0075921326   0.0004861602 
    236000   0.023569093   -0.060446299    0.016423999   -0.0086709409   0.00087695567
    237000   0.023845088   -0.061007732    0.016241903   -0.0090005037   0.00094072709
    238000   0.023768159   -0.061283787    0.016290423   -0.0093434259   0.00073311126
    239000   0.024267395   -0.061766782    0.016440692   -0.0089273462   0.00089247839
    240000   0.024064592   -0.062286427    0.016807043   -0.0093848241   0.0005689574 
    241000   0.024173686   -0.062651979    0.016551451   -0.0098423392   0.0012627782 
    242000   0.024375514   -0.063297784    0.016640983   -0.010095889    0.0010495958 
    243000   0.024207224   -0.063631087    0.0167027     -0.010619893    0.00046282108
    244000   0.024719328   -0.063983272    0.016838975   -0.010067697    0.00061105568
    245000   0.0247451     -0.064430662    0.017039346   -0.010276061    0.0010393577 
    246000   0.024462767   -0.064770602    0.017288242   -0.010790577    0.00087412453
    247000   0.024883295   -0.06508181     0.016839559   -0.010919718    0.00093701407
    248000   0.02472305    -0.065408114    0.017205217   -0.011120715    0.0011018533 
    249000   0.025028936   -0.065788717    0.016840001   -0.011407734    0.00092896405
    250000   0.024879429   -0.065841678    0.017476817   -0.011048124    0.00087270049
    251000   0.025095745   -0.066385557    0.017163081   -0.011581286    0.00077220453
    252000   0.025296182   -0.066773634    0.017217763   -0.011614047    0.0002472303 
    253000   0.025339402   -0.067128344    0.017483908   -0.011637785    0.0011123419 
    254000   0.025545214   -0.067440939    0.017647151   -0.011478439    0.00042782188
    255000   0.025603204   -0.068028429    0.017249419   -0.012376682    0.00070746683
    256000   0.025503657   -0.068258419    0.017599181   -0.012406221    0.0011648088 
    257000   0.025682061   -0.06855923     0.017615039   -0.012423586    0.0010484028 
    258000   0.026191895   -0.069030211    0.018123492   -0.011621412    0.00024049951
    259000   0.02601723    -0.069187669    0.018028604   -0.012135738    0.001277618  
    260000   0.026005887   -0.069523407    0.017597758   -0.012919336    0.0010649767 
    261000   0.025999298   -0.069960592    0.018014945   -0.012949216    0.00033487149
    262000   0.026126214   -0.070341513    0.0178307     -0.013324021    0.00090904384
    263000   0.02611913    -0.070654471    0.017996638   -0.013481666    0.00081307083
    264000   0.026340853   -0.071080093    0.018114583   -0.01345678     0.00098584562
    265000   0.026416881   -0.071390434    0.01806093    -0.013706739    0.0007583999 
    266000   0.026818977   -0.071781268    0.01861181    -0.012943587    0.00054611082
    267000   0.026851451   -0.072060967    0.018850457   -0.012935932    0.00053465034
    268000   0.027199123   -0.072495521    0.018316368   -0.013383101    0.00087802777
    269000   0.027084752   -0.072576458    0.018570093   -0.013381858    0.00043942512
    270000   0.026941642   -0.072944566    0.018477004   -0.014057706    0.00053172864
    271000   0.027120295   -0.073392634    0.018546213   -0.014168603    0.00105599   
    272000   0.0271203     -0.073752382    0.01874815    -0.014326406    0.00074691867
    273000   0.027466736   -0.074086019    0.018588454   -0.014300119    0.0004181356 
    274000   0.027584052   -0.074341863    0.018704743   -0.014263711    0.0013719669 
    275000   0.027363098   -0.074634593    0.019153642   -0.014438951    0.00065336327
    276000   0.027622365   -0.075070488    0.019139941   -0.014499673    0.00083167485
    277000   0.027721866   -0.075557009    0.019088445   -0.014888448    0.00079473921
    278000   0.027485162   -0.075812883    0.019169002   -0.015418798    0.00099928894
    279000   0.027751615   -0.076130051    0.01918032    -0.015324995    0.00082055307
    280000   0.028253205   -0.076442091    0.019541344   -0.014523674    0.00064121724
    281000   0.027835614   -0.076876759    0.019609668   -0.015516363    0.00082962155
    282000   0.028127013   -0.076982833    0.019487137   -0.015307898    0.0010882248 
    283000   0.028313549   -0.077466036    0.019263763   -0.01573469     0.00066965722
    284000   0.02878714    -0.078078735    0.019596743   -0.015304067    0.0012133042 
    285000   0.028357718   -0.078420341    0.019667216   -0.016219292    0.00077433215
    286000   0.02860642    -0.07890885     0.019567685   -0.016434303    0.00052502418
    287000   0.028812781   -0.079545843    0.020082844   -0.016246615    0.0012066924 
    288000   0.028930535   -0.079839439    0.019869045   -0.016577392    0.00058159741
    289000   0.028945673   -0.080081227    0.019983629   -0.016681889    0.00086543937
    290000   0.02910621    -0.080779241    0.020292051   -0.016830692    0.00086536656
    291000   0.029248218   -0.081309226    0.020033038   -0.017406692    0.00097208612
    292000   0.029225942   -0.081739382    0.020245866   -0.017657432    0.0006068881 
    293000   0.029492175   -0.082364884    0.020611311   -0.017518164    0.0013830039 
    294000   0.029478209   -0.08301539     0.020542616   -0.018258313    0.00087901998
    295000   0.029739338   -0.083511783    0.020721499   -0.018184156    0.00044385614
    296000   0.029391326   -0.083846286    0.020796108   -0.018966033    0.00091514429
    297000   0.029781784   -0.084421623    0.020532641   -0.019219187    0.00080521542
    298000   0.030349648   -0.084940029    0.020631925   -0.018786568    0.0011870173 
    299000   0.030107236   -0.085222795    0.020872614   -0.019192241    0.0011869847 
    300000   0.030251439   -0.086035546    0.021112151   -0.019549165    0.0013153687 
    301000   0.030238734   -0.086134357    0.02079438    -0.019984803    0.00088309703
    302000   0.029895103   -0.08658553     0.020661393   -0.021084376    0.0010218285 
    303000   0.03037715    -0.087234489    0.020811029   -0.020860675    0.00081295911
    304000   0.030567737   -0.087328685    0.020995576   -0.020484461    0.00078959205
    305000   0.030823985   -0.088222231    0.020872729   -0.021116508    0.00055178388
    306000   0.030658156   -0.08869488     0.021525797   -0.021184816    0.0012130248 
    307000   0.030812809   -0.089027773    0.021091266   -0.021720275    0.00056924745
    308000   0.030618893   -0.089397133    0.021695253   -0.021776504    0.0008399225 
    309000   0.030998904   -0.09001893     0.021373052   -0.022150522    0.0015062921 
    310000   0.030897708   -0.090194185    0.021358884   -0.02249173     0.0012847342 
    311000   0.031092263   -0.090482053    0.021331577   -0.02251509     0.00094906003
    312000   0.031363651   -0.091048986    0.021686144   -0.022320401    0.001044086  
    313000   0.030862808   -0.091148588    0.021560898   -0.023296466    0.0010247377 
    314000   0.031073106   -0.091403906    0.021453406   -0.023343849    0.00086770435
    315000   0.031330751   -0.091444398    0.0221047     -0.022346603    0.0010268788 
    316000   0.03153804    -0.091788507    0.021866575   -0.022617924    0.0011689763 
    317000   0.032039058   -0.092238802    0.021865918   -0.022317398    0.0012037959 
    318000   0.031779504   -0.092661504    0.0223841     -0.022611223    0.00092333386
    319000   0.032029943   -0.093295498    0.022101182   -0.023152501    0.00077073238
    320000   0.032091215   -0.093684286    0.022166717   -0.023383853    0.0011106325 
    321000   0.032472134   -0.094117644    0.022362006   -0.023050579    0.00072318427
    322000   0.032557859   -0.094878698    0.022057198   -0.023987862    0.00085687519
    323000   0.032520488   -0.094977736    0.022669952   -0.023530199    0.00064784243
    324000   0.032288512   -0.095186608    0.021741755   -0.025015209    0.00088864976
    325000   0.032711471   -0.095625488    0.022458589   -0.024102858    0.00083512892
    326000   0.03266253    -0.095672184    0.022220864   -0.024460686    0.0010889872 
    327000   0.032847237   -0.096480435    0.022641855   -0.024570902    0.0016704835 
    328000   0.032640822   -0.096845587    0.022471078   -0.025416435    0.00035868995
    329000   0.032774824   -0.0972864      0.022776244   -0.025351092    0.0012477614 
    330000   0.032908397   -0.097675644    0.022805266   -0.025510968    0.00084851748
    331000   0.032876728   -0.097842738    0.022891531   -0.025639296    0.00058163857
    332000   0.032794743   -0.098093269    0.022703508   -0.02620082     0.0015946569 
    333000   0.033228303   -0.098410296    0.022921495   -0.025649562    0.001217873  
    334000   0.033545013   -0.098886071    0.023366446   -0.025205352    0.0013986073 
    335000   0.033227103   -0.099363525    0.023067534   -0.026458551    0.0010523105 
    336000   0.033840067   -0.099622393    0.022889635   -0.025975932    0.00075167112
    337000   0.033800978   -0.099787872    0.023375622   -0.025714055    0.00099341825
    338000   0.033904309   -0.10005805     0.0233352     -0.025869667    0.0011853176 
    339000   0.033694243   -0.10025659     0.02344201    -0.026276474    0.00088088896
    340000   0.03429798    -0.10062907     0.023365653   -0.025819767    0.0011448974 
    341000   0.034249166   -0.10106417     0.023655104   -0.026038633    0.0011634758 
    342000   0.034437727   -0.10145556     0.023919189   -0.025883116    0.00070583715
    343000   0.034432405   -0.10212245     0.023739897   -0.026737275    0.0014117726 
    344000   0.034715858   -0.1023569      0.023876094   -0.026410376    0.0014636061 
    345000   0.034255398   -0.10264874     0.024159603   -0.027109357    0.00067125937
    346000   0.034589416   -0.1031467      0.024036838   -0.027229085    0.0007912828 
    347000   0.034743809   -0.10330237     0.024080908   -0.027109114    0.0010287851 
    348000   0.034480789   -0.10358233     0.023802075   -0.028062408    0.00055513111
    349000   0.035105228   -0.10354671     0.023608913   -0.027283352    0.0011461444 
    350000   0.034884079   -0.10377014     0.024393273   -0.027054124    0.00089031565
    351000   0.035348345   -0.10427003     0.02414575    -0.02710518     0.0011555044 
    352000   0.035185947   -0.10460517     0.024076946   -0.027752712    0.0012588084 
    353000   0.035313433   -0.10517905     0.024675757   -0.027536563    0.000540929  
    354000   0.03564729    -0.1053709      0.024474474   -0.027428945    0.00072383385
    355000   0.035489074   -0.10581775     0.024448549   -0.028139024    0.0020197495 
    356000   0.035671392   -0.10602109     0.024071147   -0.028446308    0.00079726169
    357000   0.035619982   -0.10637312     0.024824337   -0.028122255    0.00096840463
    358000   0.035997966   -0.10655968     0.024249747   -0.028316465    0.00123844   
    359000   0.035942321   -0.10668375     0.025056181   -0.027717566    0.0012456011 
    360000   0.035920818   -0.10661107     0.024922652   -0.027810668    0.00095682543
    361000   0.036228644   -0.10759616     0.025047395   -0.028209303    0.0020067544 
    362000   0.03619199    -0.10789977     0.024977255   -0.028638036    0.00083303688
    363000   0.03626279    -0.1080676      0.025508568   -0.028168361    0.0013773276 
    364000   0.036384583   -0.10827345     0.025622015   -0.028078087    7.9035998e-05
    365000   0.036013498   -0.10877461     0.02503687    -0.029720978    0.00064991239
    366000   0.036544118   -0.10887574     0.025117184   -0.028945915    0.0015025699 
    367000   0.036924714   -0.10927016     0.025327173   -0.028559486    0.0013998256 
    368000   0.036811856   -0.10946676     0.025748569   -0.028503967    0.00042941344
    369000   0.037204323   -0.11004978     0.025674128   -0.028572772    0.000688921  
    370000   0.037392828   -0.11010866     0.02573507    -0.028287963    0.0011009253 
    371000   0.037044751   -0.11022376     0.025933915   -0.0287263      0.0010037126 
    372000   0.037330882   -0.11075117     0.026181678   -0.028576786   -7.3932521e-06
    373000   0.037197101   -0.11117792     0.02610644    -0.029279425    0.0005905829 
    374000   0.037301491   -0.11170295     0.026011695   -0.029742634    0.00090412404
    375000   0.037335714   -0.11211229     0.025811735   -0.030300598    0.00087428415
    376000   0.037578499   -0.11227993     0.025744432   -0.030171384    0.0006120479 
    377000   0.037511655   -0.11248817     0.025970598   -0.030253716    0.00097910079
    378000   0.037771465   -0.11282533     0.026508719   -0.029663069    0.0010687448 
    379000   0.037804321   -0.1128394      0.026283008   -0.02985357     0.00077830024
    380000   0.037844677   -0.11327765     0.026193616   -0.030320676    0.0005379041 
    381000   0.038069611   -0.11383345     0.026235731   -0.030496988    0.0013042417 
    382000   0.038201647   -0.11418424     0.026500998   -0.030384471    0.00068027485
    383000   0.037974122   -0.11432937     0.026242802   -0.031129056    0.0012316576 
    384000   0.038352868   -0.11467944     0.02646126    -0.030692586    0.00055792455
    385000   0.038608057   -0.11492141     0.026574231   -0.030438833    0.00094669719
    386000   0.038605973   -0.11498041     0.0265216     -0.030553584    0.0013536749 
    387000   0.038509238   -0.11547344     0.027350042   -0.030363264    0.00064298067
    388000   0.039042068   -0.11562888     0.026615421   -0.030454132    0.0011979216 
    389000   0.039249186   -0.11613698     0.026896846   -0.03037015     0.0016621968 
    390000   0.039090364   -0.11657677     0.027420239   -0.030524766    0.00037655383
    391000   0.039518703   -0.11677409     0.027597617   -0.029902243    0.00064568532
    392000   0.039095363   -0.11711958     0.027315756   -0.031164565    0.0010308674 
    393000   0.039693982   -0.11752101     0.027259353   -0.030724522    0.001339442  
    394000   0.039431009   -0.11777946     0.027524352   -0.031112413    0.00065535885
    395000   0.039587112   -0.11805714     0.027319677   -0.03136063     0.00094543872
    396000   0.039411814   -0.11880919     0.027721854   -0.031973427    0.00086586419
    397000   0.039935499   -0.11900798     0.027767451   -0.031341145    0.00098989841
    398000   0.040006572   -0.11925535     0.027949139   -0.031300223    0.00080577162
    399000   0.039884303   -0.11952603     0.027606822   -0.032096617    0.0010885726 
    400000   0.039767748   -0.11990674     0.027711406   -0.032547565    0.0013272982 
    401000   0.04011343    -0.12012207     0.027623511   -0.032332293    0.0014014615 
    402000   0.040237194   -0.1205839      0.027785771   -0.032446235    0.0011302499 
    403000   0.040134493   -0.12096205     0.027910304   -0.032853894    0.00067758858
    404000   0.040476435   -0.12139392     0.028038791   -0.032644397    0.0017439241 
    405000   0.04037343    -0.1218078      0.028658555   -0.032593009    0.00047593761
    406000   0.04083247    -0.12216392     0.028367231   -0.032551932    0.00057291921
    407000   0.040755731   -0.12247605     0.027970797   -0.033375601    0.0012847205 
    408000   0.0406141     -0.12276982     0.028486021   -0.03336658     0.00097476831
    409000   0.040937243   -0.12317955     0.028866553   -0.03291109     0.0007629615 
    410000   0.040791218   -0.12347336     0.028503226   -0.03378725     0.00052782575
    411000   0.040804221   -0.12386156     0.028584441   -0.034074735    0.0012468796 
    412000   0.041614923   -0.12420108     0.028794415   -0.032988307    0.00076524772
    413000   0.041499287   -0.12470608     0.029044321   -0.033416841    0.00041495446
    414000   0.04118082    -0.12524805     0.028795337   -0.034685471    0.00078911795
    415000   0.041356459   -0.12563283     0.028819883   -0.034782262    0.0017043535 
    416000   0.041750614   -0.1256033      0.028867174   -0.034114245    0.001044143  
    417000   0.041522004   -0.12593916     0.028691232   -0.034968941    0.0014507042 
    418000   0.041708611   -0.12601188     0.028879651   -0.03457335     0.00061945749
    419000   0.041814472   -0.12661258     0.028891686   -0.035003229    0.0010512925 
    420000   0.042239129   -0.12690273     0.02906781    -0.034480312    0.0012901991 
    421000   0.042064552   -0.12714501     0.029671252   -0.034380995    0.0007099831 
    422000   0.041757124   -0.12757114     0.029618205   -0.035321288    0.0011300737 
    423000   0.042471718   -0.1279054      0.029375599   -0.03482633     0.00096989887
    424000   0.04242592    -0.12855016     0.029994764   -0.034920619    0.00077189717
    425000   0.042400388   -0.12883021     0.029624415   -0.035609316    0.00086694948
    426000   0.042932612   -0.12931154     0.02913016    -0.035786621    0.0017294883 
    427000   0.042210677   -0.12954377     0.030025409   -0.036206434    0.00076374371
    428000   0.042948745   -0.1298006      0.030195732   -0.035185906    0.0014999583 
    429000   0.043038274   -0.12984531     0.030129143   -0.035162918    0.0013602794 
    430000   0.042955074   -0.13007983     0.029720629   -0.035930741    0.0010156954 
    431000   0.043011318   -0.13034185     0.029788395   -0.036040642    0.0014644181 
    432000   0.043426897   -0.13077916     0.029982939   -0.035660074    0.0011247105 
    433000   0.043284192   -0.13095649     0.030068548   -0.035965841    0.0012072297 
    434000   0.043788337   -0.13127128     0.029588656   -0.036004354    0.00087050888
    435000   0.043710941   -0.13158171     0.029789562   -0.036229967    0.0013214736 
    436000   0.044354997   -0.13213714     0.030325531   -0.035283402    0.0010318482 
    437000   0.043797624   -0.13224466     0.030370995   -0.036181467    0.0014090547 
    438000   0.043884709   -0.13274238     0.030540001   -0.036379565    0.0011126933 
    439000   0.044106641   -0.13294444     0.030685937   -0.036102805    0.0012947612 
    440000   0.043909134   -0.13312966     0.030355319   -0.036914889    0.0010949341 
    441000   0.043933692   -0.13332717     0.030841315   -0.036589569    0.00099696605
    442000   0.044242933   -0.13356186     0.030509944   -0.036691802    0.0013189347 
    443000   0.04419076    -0.13365513     0.030808645   -0.036564619    0.0010572366 
    444000   0.044402615   -0.13414698     0.030969265   -0.03657809     0.00061975932
    445000   0.044383241   -0.13443645     0.030967047   -0.036898837    0.00099351802
    446000   0.044029465   -0.13429438     0.030629106   -0.037625332    0.00091460303
    447000   0.044326291   -0.13456236     0.031051601   -0.037025611    0.0011930154 
    448000   0.044424195   -0.13503825     0.030463409   -0.037942851    0.00050330771
    449000   0.044596505   -0.13513552     0.030752998   -0.037492083    0.0014604228 
    450000   0.044982127   -0.13514783     0.030671031   -0.037007963    0.0012124227 
    451000   0.045101372   -0.13559786     0.031341646   -0.036608516    0.0012773502 
    452000   0.044978385   -0.13590803     0.031609434   -0.036835373    0.0009360582 
    453000   0.045043905   -0.13610169     0.031665298   -0.036874891    0.0010907366 
    454000   0.045429917   -0.13620157     0.031687515   -0.036373578    0.0015688651 
    455000   0.045758866   -0.13695804     0.031312007   -0.037012166    0.0010291926 
    456000   0.046015792   -0.13725778     0.0318216     -0.036416949    0.0013625685 
    457000   0.045880318   -0.13778831     0.031299761   -0.037672515    0.0014654693 
    458000   0.045809551   -0.13794452     0.031886133   -0.037348496    0.0010122755 
    459000   0.045567528   -0.13799659     0.03197022    -0.037679483    0.0011995729 
    460000   0.046395052   -0.13838237     0.031860456   -0.036933824    0.00077130364
    461000   0.046416169   -0.13838558     0.031968203   -0.036797619    0.00084158055
    462000   0.046370002   -0.13858523     0.032193411   -0.0368413      0.0014672947 
    463000   0.045770973   -0.13889163     0.031817555   -0.038422042    0.0010838955 
    464000   0.046896749   -0.13947066     0.031812471   -0.037317607    0.00065855506
    465000   0.046099144   -0.13970061     0.032677428   -0.037878931    0.00036177406
    466000   0.04670879    -0.14019739     0.032579282   -0.03755944     0.0014296378 
    467000   0.046588512   -0.14054896     0.032593203   -0.038077496    0.0011016828 
    468000   0.046410768   -0.14066499     0.032783702   -0.038269626    0.0012001911 
    469000   0.047100482   -0.14119306     0.032957613   -0.037589282    0.0013746793 
    470000   0.047306518   -0.14161495     0.032932131   -0.037727622    0.00081539843
    471000   0.047537993   -0.14164443     0.033157006   -0.037185035    0.0010709437 
    472000   0.047560959   -0.1422816      0.032640591   -0.038304177    0.0012816411 
    473000   0.047362442   -0.14246957     0.033036269   -0.038394223    0.0012935752 
    474000   0.047301565   -0.14278148     0.033216886   -0.038616819    0.001164984  
    475000   0.047566879   -0.14272765     0.032973425   -0.03840851     0.0015279552 
    476000   0.047372892   -0.14327379     0.032949902   -0.039269131    0.0015780797 
    477000   0.047524397   -0.14336746     0.03279135    -0.039294114    0.00081542308
    478000   0.047539709   -0.14367535     0.033018754   -0.039351635    0.00076737267
    479000   0.047383432   -0.14423413     0.032908448   -0.040255124    0.0017149979 
    480000   0.0471312     -0.14465166     0.033724771   -0.040234655    0.00053476285
    481000   0.047440287   -0.14464774     0.033398322   -0.040093582    0.00076504401
    482000   0.047287129   -0.14477833     0.033467726   -0.040384488    0.0015403259 
    483000   0.048568743   -0.14516929     0.033409215   -0.038911656    0.0015512117 
    484000   0.048424206   -0.14540529     0.033367353   -0.03940631     0.0011128044 
    485000   0.048866892   -0.14564754     0.033299783   -0.039052153    0.001787378  
    486000   0.048875637   -0.14617367     0.034063628   -0.038801314    0.0013744808 
    487000   0.048983433   -0.14626447     0.033979705   -0.038814355    0.00050632773
    488000   0.04867803    -0.14617229     0.033431461   -0.039728492    0.0014578459 
    489000   0.048315494   -0.14653477     0.033641643   -0.040424558    0.0011804568 
    490000   0.048921259   -0.14651978     0.034136242   -0.039006385    0.00086328859
    491000   0.048894434   -0.14675184     0.034452512   -0.038962408    0.0011795717 
    492000   0.048827634   -0.14703366     0.034612965   -0.039183972    0.0012398046 
    493000   0.049601617   -0.14707775     0.03422945    -0.038450672    0.0014832359 
    494000   0.049571331   -0.14729444     0.034629302   -0.03831294     0.0012447773 
    495000   0.049916571   -0.14760068     0.034460608   -0.038270051    0.0010055137 
    496000   0.050067061   -0.14805869     0.035058305   -0.037904642    0.0012014615 
    497000   0.049823967   -0.14822323     0.034961855   -0.03853025     0.00049393164
    498000   0.049240553   -0.14867218     0.034770708   -0.040045407    0.00044618258
    499000   0.049977118   -0.14901213     0.034180525   -0.039870765    0.0012848518 
    500000   0.050112589   -0.14975021     0.034584587   -0.040001587    0.0010488011 
Loop time of 517.695 on 8 procs for 500000 steps with 15500 atoms

Performance: 83446.844 tau/day, 965.820 timesteps/s, 14.970 Matom-step/s
93.1% CPU use with 8 MPI tasks x 1 OpenMP threads

MPI task timing breakdown:
Section |  min time  |  avg time  |  max time  |%varavg| %total
---------------------------------------------------------------
Pair    | 92.437     | 97.765     | 100.54     |  25.4 | 18.88
Bond    | 47.985     | 48.844     | 50.75      |  12.0 |  9.43
Neigh   | 0.53908    | 0.5404     | 0.54222    |   0.1 |  0.10
Comm    | 39.438     | 44.116     | 49.691     |  43.3 |  8.52
Output  | 2.3644     | 2.4804     | 2.5904     |   4.8 |  0.48
Modify  | 316.29     | 317.06     | 318.01     |   2.5 | 61.24
Other   |            | 6.892      |            |       |  1.33

Nlocal:         1937.5 ave        2076 max        1855 min
Histogram: 1 2 2 0 1 0 0 1 0 1
Nghost:        1241.62 ave        1296 max        1159 min
Histogram: 1 1 0 1 0 0 1 1 1 2
Neighs:              0 ave           0 max           0 min
Histogram: 8 0 0 0 0 0 0 0 0 0
FullNghs:         9136 ave       10364 max        8276 min
Histogram: 1 0 2 2 1 0 1 0 0 1

Total # of neighbors = 73088
Ave neighs/atom = 4.7153548
Ave special neighs/atom = 2.1612903
Neighbor list builds = 401
Dangerous builds = 0

unfix ThermoLng

# Now we let the system to create the polymeric network
fix ThermoLng all langevin ${temp} ${temp} ${damp} ${seed3} tally yes zero yes # Brownian Dynamics: langevin + nve
fix ThermoLng all langevin 0.05 ${temp} ${damp} ${seed3} tally yes zero yes 
fix ThermoLng all langevin 0.05 0.05 ${damp} ${seed3} tally yes zero yes 
fix ThermoLng all langevin 0.05 0.05 1 ${seed3} tally yes zero yes 
fix ThermoLng all langevin 0.05 0.05 1 66 tally yes zero yes 
run ${steps}
run 9500000
WARNING: Using a manybody potential with bonds/angles/dihedrals and special_bond exclusions (src/pair.cpp:250)
Hybrid pair style last /omp style table/omp
Last active /omp style is angle_style harmonic/omp
Per MPI rank memory allocation (min/avg/max) = 23.38 | 23.39 | 23.4 Mbytes
   Step          Temp          E_pair         E_mol          TotEng         Press     
    500000   0.050112589   -0.14975021     0.034584587   -0.040001587    0.0010488011 
    501000   0.049834265   -0.1498173      0.034777989   -0.040292734    0.00037660769
    502000   0.049533802   -0.1501146      0.034820465   -0.040998226    0.0010131025 
    503000   0.050035111   -0.15007378     0.034697788   -0.040328168    0.0018834613 
    504000   0.050184231   -0.1505733      0.034559385   -0.040742429    0.0010081986 
    505000   0.050104071   -0.15045867     0.03546077    -0.039846638    0.00063528748
    506000   0.050147393   -0.15072034     0.034656641   -0.04084746     0.00019285237
    507000   0.049821222   -0.15122665     0.034556435   -0.041943199    0.0020042462 
    508000   0.049846243   -0.15126705     0.034980088   -0.041522419    0.0016436741 
    509000   0.049987189   -0.15159384     0.034946825   -0.041671071   -0.00062125862
    510000   0.050253911   -0.15190003     0.035433564   -0.041090467    0.0017783829 
    511000   0.049839467   -0.15228994     0.035033646   -0.042501919    0.0015750562 
    512000   0.049800763   -0.15248577     0.035419685   -0.042369766    0.0013604955 
    513000   0.050492057   -0.15252683     0.035427227   -0.041366404    0.0017351068 
    514000   0.050196357   -0.15296816     0.034823666   -0.042854813    0.00082223316
    515000   0.050119842   -0.15301733     0.035441619   -0.042400797    0.0011611244 
    516000   0.050247776   -0.15370598     0.034780601   -0.043558583    0.00071318748
    517000   0.050042873   -0.15363511     0.035743335   -0.042832311   -0.00019754528
    518000   0.050319405   -0.15354115     0.034844018   -0.043222899    0.0015079513 
    519000   0.050585598   -0.15417061     0.035464355   -0.042832753    0.00086143984
    520000   0.050354533   -0.15419478     0.035318057   -0.043349796    0.0004068399 
    521000   0.050409758   -0.15435702     0.034965538   -0.043781727    0.001668313  
    522000   0.050380824   -0.15452336     0.035422873   -0.043534123    0.00052872047
    523000   0.049994963   -0.1544803      0.035209355   -0.044283342    0.0013490241 
    524000   0.050310727   -0.15497293     0.034838363   -0.044673347    0.0017632041 
    525000   0.050579634   -0.15494437     0.034426852   -0.044652963    0.0013859561 
    526000   0.049911405   -0.15546021     0.035307047   -0.045290884    0.0012811789 
    527000   0.049849019   -0.15546249     0.034968195   -0.045725589    0.00032764713
    528000   0.050455044   -0.15584137     0.035470338   -0.044693348    0.00090085376
    529000   0.050001325   -0.15588588     0.035058408   -0.045830319    0.00090741302
    530000   0.050409437   -0.15598156     0.035624683   -0.044747595    0.0011209102 
    531000   0.050620485   -0.15651267     0.034901806   -0.045685039    0.00083058803
    532000   0.050574582   -0.15653464     0.035471837   -0.045205825    0.00033907172
    533000   0.050547831   -0.15695746     0.035261446   -0.045879159    0.0017333168 
    534000   0.049830296   -0.15689577     0.035203923   -0.046951228    0.0015011794 
    535000   0.050029741   -0.1573333      0.035481329   -0.046812198    0.0010994258 
    536000   0.050039467   -0.15766595     0.034996894   -0.047614703    0.0012801776 
    537000   0.049740806   -0.15803032     0.03488391    -0.048540011    0.00054691327
    538000   0.050510304   -0.15768861     0.034184665   -0.047743374    0.0010326894 
    539000   0.049874398   -0.15846465     0.034929243   -0.048728632    0.00093490819
    540000   0.050195817   -0.15855146     0.034743069   -0.04851952     0.0013892435 
    541000   0.049960657   -0.15865472     0.034865384   -0.048853181    0.0012419991 
    542000   0.05024301    -0.15891888     0.035467528   -0.048091697    0.0011264895 
    543000   0.049669748   -0.15912797     0.034810238   -0.049817916    0.0023625605 
    544000   0.050043548   -0.15963767     0.034980557   -0.049596635    0.0014528582 
    545000   0.050213392   -0.15962259     0.035368528   -0.048938837    0.00052392097
    546000   0.050187126   -0.16041464     0.035419493   -0.049719313    0.0011782688 
    547000   0.04976871    -0.1602792      0.034874948   -0.050756       0.0012183784 
    548000   0.050387811   -0.16056181     0.034952128   -0.050032841    0.00094972676
    549000   0.049289923   -0.16112851     0.035420734   -0.05177766    -7.4945984e-05
    550000   0.049779607   -0.1610342      0.035242708   -0.051126897    0.0013711743 
    551000   0.050495126   -0.16072452     0.034546103   -0.050440619    0.0016934552 
    552000   0.050238141   -0.16118956     0.034121691   -0.05171552     0.0018014227 
    553000   0.049754982   -0.1614565      0.035518371   -0.051310472    0.0010653042 
    554000   0.049430304   -0.16193414     0.034867855   -0.052925613    0.00091202093
    555000   0.049261232   -0.16191891     0.03524163    -0.052790201    0.00042662175
    556000   0.050648525   -0.16200306     0.034720501   -0.05131467     0.0010521947 
    557000   0.050610949   -0.16220136     0.034993771   -0.051296064    0.0017784173 
    558000   0.05092787    -0.16256679     0.034874755   -0.051305158    0.000959714  
    559000   0.049914422   -0.16314044     0.035670919   -0.052602714    0.00037806944
    560000   0.05010162    -0.16307885     0.034542589   -0.053388681    0.0016380595 
    561000   0.050102937   -0.1633838      0.035217482   -0.053016764    0.00012488664
    562000   0.050061239   -0.16342312     0.034922844   -0.053413259    0.00086096325
    563000   0.049804954   -0.16375624     0.035328906   -0.053724726    0.00097665693
    564000   0.050272114   -0.16422078     0.034957609   -0.053859868    0.00089414476
    565000   0.050654673   -0.16458583     0.034787218   -0.053821501    0.0010536885 
    566000   0.050639086   -0.1646364      0.034993482   -0.053689192    0.0009550595 
    567000   0.049980183   -0.16491932     0.035325742   -0.054628137    0.00032973621
    568000   0.049449218   -0.16497762     0.034515876   -0.056292703    0.0017509539 
    569000   0.049913453   -0.1651983      0.034899688   -0.05543326     0.00055840573
    570000   0.049690009   -0.16500084     0.035404193   -0.055066442    0.00024177814
    571000   0.049616417   -0.16520413     0.035069701   -0.055714605    0.00032673742
    572000   0.05018658    -0.16554306     0.034886066   -0.055381984    0.0010804359 
    573000   0.050178249   -0.16548372     0.034873421   -0.055347778    0.001260382  
    574000   0.050049245   -0.16539169     0.035214493   -0.055108177    0.00047005799
    575000   0.050592868   -0.16589786     0.035363142   -0.054650316    0.0010444328 
    576000   0.050651069   -0.1662091      0.034774761   -0.055462636    0.0010836606 
    577000   0.050532728   -0.16640823     0.035254954   -0.055359074    0.0013202069 
    578000   0.050583644   -0.16669947     0.035146562   -0.055682334    0.0010321278 
    579000   0.050197763   -0.16669379     0.034707349   -0.056694656    0.0012381459 
    580000   0.050079032   -0.16736031     0.034662192   -0.057584415    0.00052157459
    581000   0.050377252   -0.1673491      0.034732159   -0.057055934    0.00090826835
    582000   0.050186323   -0.16753212     0.03439756    -0.057859932    0.00081347195
    583000   0.050245791   -0.16790313     0.035106692   -0.057432609    0.0016671964 
    584000   0.050025313   -0.16788793     0.035145812   -0.057708984    0.00072900842
    585000   0.050347934   -0.16769806     0.035046067   -0.057134967    0.0016082872 
    586000   0.050144063   -0.16809944     0.035034223   -0.057853978   -7.0406533e-05
    587000   0.050084633   -0.16855104     0.035245424   -0.058183513    0.00069044837
    588000   0.050083402   -0.16857604     0.03479285    -0.058662934    0.00091721873
    589000   0.050097453   -0.16865071     0.035294724   -0.058214657    0.0013895452 
    590000   0.050510998   -0.1691099      0.035197341   -0.058150955   -1.7547775e-05
    591000   0.050394824   -0.1693364      0.034945787   -0.058803256    0.0014520183 
    592000   0.050144767   -0.16948459     0.03508688    -0.059185415    0.001010747  
    593000   0.049915089   -0.17003835     0.034967167   -0.06020338    -0.00010645577
    594000   0.050126498   -0.16980837     0.033886237   -0.060737242    0.0019177771 
    595000   0.049457547   -0.17025163     0.035265008   -0.060805089    0.0011843726 
    596000   0.050076531   -0.17008301     0.035149057   -0.059823999    0.00042374844
    597000   0.049342623   -0.17061178     0.035198445   -0.061404177    0.0015077601 
    598000   0.049984668   -0.17049195     0.034914145   -0.060605644    0.0013563758 
    599000   0.050325783   -0.17081327     0.034684637   -0.06064483     0.0005894268 
    600000   0.050128607   -0.17085182     0.034587889   -0.061075875    0.0015609308 
    601000   0.049275264   -0.17094001     0.034386181   -0.062645702    0.0010467542 
    602000   0.050006791   -0.17156619     0.034942009   -0.061618833    0.0011219395 
    603000   0.049807927   -0.17181086     0.035154047   -0.061949742    0.00035778517
    604000   0.050085594   -0.17176406     0.034731278   -0.061909238    0.00046020434
    605000   0.049704222   -0.17213048     0.034631606   -0.062947348    0.0007672891 
    606000   0.050233643   -0.1725111      0.034894275   -0.062271223    0.0010834771 
    607000   0.049903766   -0.17228043     0.034819009   -0.062610597    0.0010068337 
    608000   0.04991106    -0.17248561     0.034489645   -0.063134208    0.00073272034
    609000   0.048811108   -0.17239311     0.03507261    -0.064108559    0.00091280471
    610000   0.04990408    -0.17293673     0.034493669   -0.063591773    0.0010925855 
    611000   0.05053596    -0.17279379     0.034746336   -0.0622484      0.00032842617
    612000   0.05007878    -0.17322814     0.03482904    -0.063285777    0.001147053  
    613000   0.050284714   -0.17354918     0.035402316   -0.062724662    0.00045030559
    614000   0.050171476   -0.17370889     0.035134552   -0.063321975    0.00090421336
    615000   0.050197814   -0.17397574     0.035115928   -0.063567952    0.00092872609
    616000   0.050482319   -0.1738582      0.034485068   -0.063654537    0.0013453347 
    617000   0.050835651   -0.17400708     0.034892789   -0.06286573     0.0011674653 
    618000   0.050501974   -0.17455726     0.035042555   -0.063766626    0.0010680241 
    619000   0.050518391   -0.17443047     0.034969063   -0.063688708    0.00098588306
    620000   0.050265672   -0.1746043      0.035519165   -0.063691488    0.0003509048 
    621000   0.050453811   -0.17527075     0.034893359   -0.06470156     0.00098917738
    622000   0.0502117     -0.1755327      0.035553761   -0.064666251    0.00049283708
    623000   0.050003143   -0.17539963     0.034853872   -0.065545887    0.0011564347 
    624000   0.04990789    -0.17552944     0.035349198   -0.065323241    0.00061052654
    625000   0.050356901   -0.17549618     0.034666675   -0.065299027    0.00066695937
    626000   0.049809719   -0.1758672      0.034707457   -0.066449981    0.00087105038
    627000   0.050348596   -0.17571165     0.034368398   -0.065825228    0.0014168486 
    628000   0.049304737   -0.17577162     0.035298348   -0.066520935    0.0013728473 
    629000   0.050132786   -0.17619822     0.034684542   -0.066319346    0.0014570197 
    630000   0.05005093    -0.17635567     0.035205865   -0.066078249    0.001156613  
    631000   0.049734913   -0.17641655     0.035154398   -0.066664595    0.0009328159 
    632000   0.050180595   -0.17669338     0.034661033   -0.066766316    0.001238227  
    633000   0.050079686   -0.17693336     0.034606069   -0.067212608    0.0013330874 
    634000   0.049685943   -0.17678997     0.034008417   -0.068257451    0.00066299718
    635000   0.049775447   -0.17682522     0.035200608   -0.066966261    0.00012142383
    636000   0.050167097   -0.17704757     0.03492793    -0.066873848    0.001338789  
    637000   0.050158902   -0.17765568     0.035043913   -0.06737827     0.00072943074
    638000   0.049729748   -0.17758069     0.035494204   -0.067496677    0.00079407629
    639000   0.050324909   -0.17776365     0.035018563   -0.06726259     0.00057627839
    640000   0.050184699   -0.17812769     0.035064826   -0.067790677    0.00084887143
    641000   0.049405542   -0.17817307     0.034755117   -0.069314417    0.00061006375
    642000   0.048980901   -0.17848389     0.035413488   -0.069603793    0.00052111921
    643000   0.05016268    -0.1790004      0.03507858    -0.068682654    0.00087206153
    644000   0.049810295   -0.17879526     0.035264402   -0.068820236    0.00069840258
    645000   0.050198357   -0.17916552     0.034398258   -0.069474581    0.00027945484
    646000   0.050209966   -0.17930855     0.034895691   -0.069102774    0.0007194934 
    647000   0.050383343   -0.17949059     0.036010701   -0.067909753    0.00041768468
    648000   0.049984055   -0.179514       0.034921142   -0.069621618    0.0016842204 
    649000   0.049658596   -0.17958324     0.035357436   -0.069742716    0.00081445277
    650000   0.050298733   -0.18006073     0.035573964   -0.06904354     0.00038205317
    651000   0.049968496   -0.18032242     0.034978028   -0.070396487    0.0012451897 
    652000   0.05088186    -0.1803848      0.035481537   -0.0685854      0.00037666021
    653000   0.05062878    -0.18048159     0.035928788   -0.06861453     0.00078779013
    654000   0.050073064   -0.18044915     0.034720974   -0.07062343     0.00075336899
    655000   0.049635725   -0.18101912     0.035078167   -0.071492166    0.0012069923 
    656000   0.049731338   -0.18119652     0.03565183    -0.070952493    0.0010947923 
    657000   0.050122298   -0.18123254     0.035059332   -0.070994607    0.0015946071 
    658000   0.050504452   -0.18125877     0.034648478   -0.0708585      0.00092287979
    659000   0.050317225   -0.18134769     0.03450605    -0.071370673    0.001073067  
    660000   0.05059874    -0.18150369     0.035262229   -0.07034825     0.0014286663 
    661000   0.050157194   -0.18200239     0.03492945    -0.071842006    0.00034411821
    662000   0.050033201   -0.18219254     0.035240404   -0.071907175    0.00057969293
    663000   0.049686151   -0.18204076     0.034793629   -0.072722715    0.00036577949
    664000   0.050573337   -0.18220887     0.034658701   -0.071695056    0.0010874086 
    665000   0.049874757   -0.18268094     0.03491406    -0.072959569    0.00022964967
    666000   0.050214379   -0.18256691     0.035514254   -0.071735949    0.0013727479 
    667000   0.049922609   -0.18327063     0.034896848   -0.073494701    0.00096547926
    668000   0.049157167   -0.1832046      0.034955593   -0.074518017    6.8687731e-05
    669000   0.049765616   -0.18330775     0.033982643   -0.074681504    0.00072157265
    670000   0.05020827    -0.18357422     0.034810306   -0.073456369    0.0012657665 
    671000   0.050518142   -0.18402707     0.034983329   -0.073271418    0.00040928315
    672000   0.05005987    -0.18467129     0.034512358   -0.075073971    0.00052109083
    673000   0.049951614   -0.18407895     0.03490816    -0.074248204    0.0011612063 
    674000   0.050972518   -0.18472177     0.035322737   -0.072945192    0.0012254116 
    675000   0.050373655   -0.18477871     0.034765596   -0.07445751     0.00088924414
    676000   0.050332841   -0.1850172      0.035806297   -0.073716514    0.0002091469 
    677000   0.04970078    -0.18509521     0.034535645   -0.076013206    0.001007219  
    678000   0.050349966   -0.18533694     0.035121361   -0.074695506    0.000812051  
    679000   0.050450382   -0.1858424      0.035221467   -0.074950238    0.00031521396
    680000   0.050234754   -0.1861439      0.03535765    -0.075438979    0.0010314333 
    681000   0.05012427    -0.18638982     0.034605552   -0.07660271     0.0012286439 
    682000   0.050274143   -0.18657231     0.034924698   -0.076241261    0.00093805765
    683000   0.05016383    -0.18682903     0.03468479    -0.076903352    0.00085207344
    684000   0.049830422   -0.1867685      0.034738275   -0.077289413    0.00032454477
    685000   0.050107791   -0.18676494     0.034684045   -0.076924058    0.0014399558 
    686000   0.049314868   -0.18717896     0.035183978   -0.078027451    0.00042794136
    687000   0.049779549   -0.18750522     0.035181226   -0.077659485    0.00084729656
    688000   0.050389995   -0.18771006     0.035423445   -0.076706498    0.00027808946
    689000   0.049761063   -0.18743589     0.035050357   -0.077748756    0.00085566743
    690000   0.04966662    -0.18776466     0.035470226   -0.077799306    0.00042514943
    691000   0.050001826   -0.18796952     0.034777241   -0.078194383    0.00017524209
    692000   0.049896931   -0.18795909     0.035523832   -0.077594695    0.00090493037
    693000   0.050413265   -0.18784829     0.035530581   -0.076702689    0.0015676893 
    694000   0.049687261   -0.18845708     0.035374797   -0.078556197    0.0010875811 
    695000   0.049541339   -0.1887519      0.03510589    -0.079338794    0.00088702213
    696000   0.049682641   -0.18847097     0.034907482   -0.079044336    0.0010480042 
    697000   0.049686884   -0.18888983     0.034623178   -0.079741134    0.0010276639 
    698000   0.050191307   -0.18912842     0.034853969   -0.078992352    0.0004763747 
    699000   0.049924145   -0.18926304     0.035559503   -0.07882215     0.0011444612 
    700000   0.05016002    -0.18968338     0.03489657    -0.079551634    0.0010930646 
    701000   0.050129897   -0.18954208     0.03562974    -0.078722342    0.00099694383
    702000   0.050141475   -0.19000098     0.034990459   -0.079803164    0.0015359631 
    703000   0.050118851   -0.18943726     0.0354701     -0.07879373     0.00038686522
    704000   0.050876851   -0.19019411     0.035270711   -0.078613045    0.00065093404
    705000   0.049990351   -0.19018749     0.035260253   -0.079946545    0.0020057129 
    706000   0.050093386   -0.1907421      0.035544838   -0.080062026    0.001476638  
    707000   0.049692918   -0.19084971     0.034603439   -0.081711707    0.00011831326
    708000   0.050257033   -0.19122414     0.034421087   -0.081422372    0.00021103917
    709000   0.049873728   -0.19162403     0.035795411   -0.081022852    0.00073706671
    710000   0.050444669   -0.1913923      0.034547554   -0.081182624   -6.553602e-05 
    711000   0.050552175   -0.1917802      0.035527046   -0.080429789    0.001346786  
    712000   0.050646468   -0.19196737     0.035328526   -0.080674038    0.0011932885 
    713000   0.050476659   -0.19218675     0.035036857   -0.081439786    0.00040113156
    714000   0.049724493   -0.19220744     0.03595576    -0.081669747    0.0014847565 
    715000   0.05004357    -0.19265262     0.036057912   -0.081534195    0.00018548618
    716000   0.050079972   -0.19289934     0.035147024   -0.082637202    0.0012402182 
    717000   0.049943549   -0.19284021     0.035037866   -0.082891858    0.00076958121
    718000   0.049956421   -0.19286099     0.035581049   -0.082350146    0.00040349623
    719000   0.050149319   -0.19294089     0.035433001   -0.082288766    0.0013679776 
    720000   0.050395381   -0.19334739     0.035416976   -0.082342217    0.00075969239
    721000   0.049324712   -0.19339652     0.035705347   -0.083708875    0.00067801385
    722000   0.049232584   -0.19348539     0.034510975   -0.085130299    0.00014514353
    723000   0.049318831   -0.19361189     0.034116845   -0.085521567    0.00099991796
    724000   0.04986366    -0.19367708     0.034999921   -0.083886495    0.00057888654
    725000   0.050263931   -0.19391666     0.034875682   -0.08364995     0.00095506786
    726000   0.050108678   -0.19416302     0.035144036   -0.08386082     0.00030261691
    727000   0.050311809   -0.19414058     0.035197316   -0.083480416    0.00045256453
    728000   0.050172864   -0.19404039     0.034628935   -0.084157011    0.0011614504 
    729000   0.049727083   -0.1945144      0.03498696    -0.084941623   -7.1495788e-05
    730000   0.050714356   -0.19448769     0.034975575   -0.083445491    0.0012701045 
    731000   0.050610512   -0.19455103     0.034575264   -0.084064899    0.00096568207
    732000   0.050249709   -0.19457145     0.034384305   -0.08481744     0.00099680751
    733000   0.049203229   -0.19455217     0.034784254   -0.08596783     0.00088667501
    734000   0.050300542   -0.1949165      0.035125308   -0.084345248    0.00059396958
    735000   0.050061363   -0.19518321     0.034833565   -0.085262449    0.00093765385
    736000   0.049782953   -0.19539463     0.03499321    -0.085731803    0.00021235682
    737000   0.049725181   -0.19528299     0.0354219     -0.085278129    0.00040849977
    738000   0.049831308   -0.19588564     0.035011638   -0.086131867    0.00053886576
    739000   0.050402978   -0.19613699     0.035046406   -0.085490999    0.00030929898
    740000   0.049812743   -0.19591941     0.034575671   -0.08662944     0.00094794664
    741000   0.049769897   -0.19580206     0.034910497   -0.086241538    0.0015696052 
    742000   0.050002018   -0.19628885     0.035312574   -0.085978087   -0.0001826565 
    743000   0.050205816   -0.19656862     0.035242218   -0.086022539    0.001748703  
    744000   0.0495989     -0.19639069     0.035149912   -0.086847231    0.00093858093
    745000   0.050231448   -0.19647167     0.035211209   -0.085918152    0.00078787983
    746000   0.049493439   -0.19656434     0.035584395   -0.086744575    0.00096371569
    747000   0.049669417   -0.19706491     0.035436423   -0.087129172    0.00078407049
    748000   0.049554888   -0.19696012     0.034970833   -0.087661747    0.00050273422
    749000   0.04945603    -0.19712264     0.034292084   -0.088651297    0.00060413173
    750000   0.049729583   -0.19723446     0.035067314   -0.087577584    0.00090779088
    751000   0.049902947   -0.19729532     0.034751079   -0.087694655    0.00049758939
    752000   0.05004725    -0.19743806     0.035221002   -0.087151028    0.0015897586 
    753000   0.050227562   -0.1977462      0.03530618    -0.087103535    0.001293925  
    754000   0.050396937   -0.19774363     0.035140405   -0.0870127      0.0001746071 
    755000   0.050359477   -0.19774089     0.034948203   -0.087258341    0.0016674346 
    756000   0.050585765   -0.19799429     0.035217813   -0.086902727    0.00059499019
    757000   0.049922574   -0.19869697     0.034458281   -0.089359656    0.00058927679
    758000   0.050408112   -0.19892811     0.035631842   -0.08768898     0.00022513388
    759000   0.050048903   -0.19860671     0.035104762   -0.088433437   -3.8077345e-05
    760000   0.049894231   -0.19896443     0.035019169   -0.089108739    0.00091540234
    761000   0.050361447   -0.19881991     0.035385301   -0.087897312    0.00024559135
    762000   0.049685125   -0.19935623     0.035353871   -0.089479483    7.0268413e-05
    763000   0.049575558   -0.1994219      0.03514347    -0.089919887    0.0015359826 
    764000   0.050357131   -0.19948197     0.035094333   -0.088856813   -0.00013090643
    765000   0.049976818   -0.19954532     0.034703272   -0.089881653    0.001597924  
    766000   0.049797018   -0.19982856     0.035020476   -0.090117379    0.0010932411 
    767000   0.049759385   -0.19989537     0.034992369   -0.090268736    0.00053081296
    768000   0.050295784   -0.20032734     0.035083888   -0.089804641   -0.00013235099
    769000   0.050228496   -0.2006984      0.034955955   -0.090404563    0.0011283144 
    770000   0.050760287   -0.20093878     0.03524378    -0.089559478    0.0010372185 
    771000   0.050556336   -0.20066461     0.035025321   -0.089809675    0.00056698951
    772000   0.050007245   -0.20063753     0.035028822   -0.090602677    0.00069151397
    773000   0.050860486   -0.20085283     0.03478548    -0.089781539    0.00079699099
    774000   0.050305871   -0.2009861      0.0345822     -0.090949959    0.00086331923
    775000   0.04971728    -0.20103472     0.034537931   -0.091925683    0.00015296118
    776000   0.049733385   -0.2014457      0.034681875   -0.092168561    0.00023704495
    777000   0.049944314   -0.20126446     0.035211229   -0.091141592    0.00062303334
    778000   0.050072273   -0.20147338     0.035096825   -0.091272989    0.00058579764
    779000   0.049405529   -0.20169516     0.03512323    -0.092468417    0.00078219194
    780000   0.050073424   -0.20200194     0.035112349   -0.0917843      0.00050077257
    781000   0.050137881   -0.20229719     0.034862371   -0.092232851   -0.00012898076
    782000   0.050053928   -0.20263427     0.035564267   -0.091993955    0.0003620874 
    783000   0.050056669   -0.20211343     0.034985721   -0.092047553    0.00026353749
    784000   0.049692375   -0.20320853     0.035156364   -0.093518418    0.00016951615
    785000   0.050141484   -0.20324056     0.035364037   -0.092669151    0.00094178303
    786000   0.049975189   -0.20315526     0.034682616   -0.093514695    0.00030053515
    787000   0.04992971    -0.20316896     0.035179219   -0.093100008    0.00024330321
    788000   0.050234738   -0.20342956     0.035202413   -0.092879898    0.00066229155
    789000   0.049924457   -0.20328016     0.035115323   -0.093282982    0.0017888179 
    790000   0.05013633    -0.20367749     0.03525329    -0.093224558    0.0010636871 
    791000   0.050295146   -0.20370123     0.035134789   -0.093128595    0.0010024872 
    792000   0.050125655   -0.20431708     0.035466171   -0.093667276   -2.315215e-05 
    793000   0.050266276   -0.20436475     0.035550995   -0.093419205    0.00056881862
    794000   0.050242862   -0.20466617     0.035156971   -0.094149769    0.0003661713 
    795000   0.049677469   -0.20466636     0.034865513   -0.09528945     0.0016642731 
    796000   0.049746093   -0.20480486     0.03458845    -0.09560208     0.0010927204 
    797000   0.050042209   -0.20478404     0.034867758   -0.094857809    0.00070817351
    798000   0.04944126    -0.20465479     0.03540544    -0.095092246    0.00038384791
    799000   0.050095097   -0.20483353     0.035315846   -0.094379892    0.00077984456
    800000   0.049810655   -0.20523362     0.035230124   -0.095292331    0.00071590262
    801000   0.050326188   -0.20514163     0.035492464   -0.094164759    0.00047409063
    802000   0.050156475   -0.20526305     0.035620257   -0.094412931    0.00093106287
    803000   0.050323609   -0.20506034     0.035536739   -0.094043057    0.0011868666 
    804000   0.049705282   -0.20536228     0.034771759   -0.09603741     0.00077834566
    805000   0.049884192   -0.20579651     0.034854598   -0.09612045     0.00124679   
    806000   0.049726137   -0.20562507     0.03487465    -0.096166031    0.0013418211 
    807000   0.05034043    -0.20554548     0.035064075   -0.094975629    0.00092216186
    808000   0.049748331   -0.20590282     0.035082417   -0.096202719    0.00039478686
    809000   0.050302995   -0.205761       0.035072237   -0.095239139    0.0014055781 
    810000   0.050392814   -0.20583414     0.03513548    -0.095114318    0.00038350406
    811000   0.049946415   -0.20598374     0.035129368   -0.095939586    0.00071240211
    812000   0.049812441   -0.20617428     0.035378306   -0.09608213    -0.00039259882
    813000   0.05040505    -0.20646284     0.035311601   -0.095548543    0.00066906719
    814000   0.050636052   -0.20655207     0.035122022   -0.095480872    0.00040264561
    815000   0.049341865   -0.20642665     0.035563505   -0.096855124    0.0014621628 
    816000   0.050023082   -0.20632059     0.035332734   -0.09595808     0.00053468504
    817000   0.049839631   -0.2067649      0.035237795   -0.096772482    0.00013382259
    818000   0.050390075   -0.20667007     0.034992639   -0.096097191    0.0012114667 
    819000   0.050549924   -0.20664785     0.034768101   -0.096059755    0.0010856568 
    820000   0.050348477   -0.20668442     0.035004394   -0.096162184    0.00058812897
    821000   0.049833253   -0.20698331     0.035257509   -0.096980745    0.0013923569 
    822000   0.050132816   -0.20720477     0.035238457   -0.096771942    0.00032951044
    823000   0.049784423   -0.20745637     0.035460696   -0.097323862    1.2536173e-05
    824000   0.050229517   -0.20716843     0.035017697   -0.096811315    0.0016233237 
    825000   0.050497542   -0.20765053     0.034879732   -0.097029371    0.0013337999 
    826000   0.049964689   -0.20751201     0.03495381    -0.097616001    0.00058977782
    827000   0.049815286   -0.20772007     0.035463188   -0.097538775    0.00013008279
    828000   0.05036054    -0.20807784     0.035074788   -0.097467113    0.00094338938
    829000   0.049941691   -0.2080223      0.034992829   -0.098121772    0.00066007994
    830000   0.049430236   -0.2082233      0.03509538    -0.098987349    0.00038057451
    831000   0.050094079   -0.20865296     0.035089374   -0.098427314    0.00086738316
    832000   0.049587085   -0.20852123     0.035581424   -0.09856398     0.00050978304
    833000   0.050146581   -0.20875718     0.035431296   -0.098110868    0.00076758445
    834000   0.050115293   -0.20870416     0.034395253   -0.099140813    0.00014545185
    835000   0.049623153   -0.20890272     0.03524714    -0.099225654    0.0002024873 
    836000   0.050014599   -0.20893826     0.035847903   -0.098073295    0.0011759921 
    837000   0.05084144    -0.20909948     0.034730394   -0.098111843    0.00053146454
    838000   0.050311961   -0.20926793     0.034612802   -0.099192051    0.0017260666 
    839000   0.050036092   -0.20933396     0.035237549   -0.09904712     0.00032298558
    840000   0.050799971   -0.20958328     0.035492595   -0.097895649    0.00048274479
    841000   0.05083253    -0.20975536     0.035014627   -0.098496857    0.00066395181
    842000   0.050112542   -0.20999821     0.035247619   -0.099586631   -6.9721248e-05
    843000   0.049734871   -0.20996607     0.035082787   -0.10028579     0.0002584782 
    844000   0.050228887   -0.2100582      0.035181601   -0.099538128    0.0015061706 
    845000   0.049378351   -0.21026368     0.035316222   -0.10088471     0.00017116524
    846000   0.049915619   -0.21036431     0.034643896   -0.10085181     0.00088116996
    847000   0.049459751   -0.21027406     0.035229824   -0.10085939     0.0011315313 
    848000   0.0503616     -0.21035399     0.035191014   -0.099625453    0.00032384457
    849000   0.050058466   -0.2105818      0.035625587   -0.099873358    0.00091422469
    850000   0.050527337   -0.21057814     0.035849477   -0.098942543   -0.00016092973
    851000   0.0502967     -0.21064127     0.035606639   -0.099594446    0.00094779761
    852000   0.049654822   -0.21058488     0.035034795   -0.10107265     0.00063109316
    853000   0.04986277    -0.21062853     0.034749191   -0.10109        0.00035064463
    854000   0.049576894   -0.21062791     0.034790361   -0.10147701     0.00063398934
    855000   0.049760668   -0.21072148     0.035138644   -0.10094665     0.00014230265
    856000   0.050571095   -0.21083673     0.034833764   -0.10015122     0.00059248794
    857000   0.049838833   -0.21119066     0.035628064   -0.10080917    -9.4112604e-06
    858000   0.049861833   -0.2111579      0.03520899    -0.10116098     0.00028263672
    859000   0.049748292   -0.21117423     0.035224806   -0.1013318      0.00087807357
    860000   0.049860438   -0.21114525     0.035163581   -0.10119584     0.00094406431
    861000   0.050158637   -0.21119218     0.035393157   -0.10056592     0.0013985639 
    862000   0.04989967    -0.21162444     0.035095327   -0.10168443     0.00055414457
    863000   0.050365579   -0.21148861     0.035067657   -0.10087746     0.00056148539
    864000   0.050195776   -0.21149875     0.03523312    -0.10097682     0.00098354485
    865000   0.050300208   -0.21159191     0.034646449   -0.10150002     0.00045216608
    866000   0.049743502   -0.21212742     0.034838572   -0.10267841     0.00025411258
    867000   0.050051609   -0.21193358     0.034858903   -0.10200211     0.0016128173 
    868000   0.04997562    -0.21263648     0.035255394   -0.10242249     0.00059129479
    869000   0.04949355    -0.21242494     0.03534075    -0.10284866     0.0010278675 
    870000   0.050370963   -0.21240764     0.035179825   -0.10167624     0.00038046729
    871000   0.049279118   -0.21251303     0.034982661   -0.10361646     0.00074540904
    872000   0.04936739    -0.21247071     0.035267924   -0.10315648     0.00023652327
    873000   0.049882207   -0.21286652     0.036091395   -0.10195664     0.00030692892
    874000   0.049850735   -0.2130285      0.035195807   -0.10306142     6.425985e-05 
    875000   0.050348774   -0.21280022     0.035419796   -0.10186214     0.0003036353 
    876000   0.050323003   -0.21300703     0.035506081   -0.10202132     0.00079367903
    877000   0.050519657   -0.2129936      0.035041993   -0.10217701     0.0005649214 
    878000   0.049940436   -0.21320421     0.034999118   -0.10329927     0.001092122  
    879000   0.049245292   -0.21360519     0.035051136   -0.10469088     0.00083261546
    880000   0.050180138   -0.21343377     0.035076085   -0.10309234     0.00056955959
    881000   0.049835444   -0.2136268      0.03504884    -0.10382961     0.0004270995 
    882000   0.049661038   -0.21361396     0.034313104   -0.1048141      0.001176583  
    883000   0.049823551   -0.21360532     0.034611063   -0.10426375    -5.1388151e-07
    884000   0.049479809   -0.21348632     0.034571361   -0.10470004     0.00060862667
    885000   0.049762327   -0.21376701     0.035262346   -0.10386599     0.00089401893
    886000   0.050214908   -0.21402624     0.034821717   -0.10388702     0.0020738995 
    887000   0.04937583    -0.21384899     0.035397548   -0.10439247     0.00021956845
    888000   0.049470516   -0.2141849      0.035191286   -0.10479262     0.00064345462
    889000   0.049826132   -0.21426639     0.0353925     -0.10413951     0.0012751572 
    890000   0.05013445    -0.21413333     0.034491072   -0.10444544     0.0011162981 
    891000   0.049475736   -0.21452635     0.034986981   -0.10533056     0.00055638338
    892000   0.050127015   -0.21482122     0.035312966   -0.10432259     0.00080031483
    893000   0.050096531   -0.21472815     0.034815783   -0.10477242    -5.0815859e-05
    894000   0.049534888   -0.21473722     0.035321918   -0.10511776     0.00037441677
    895000   0.049880253   -0.21504677     0.034743456   -0.10548776     0.00049283607
    896000   0.049356455   -0.21485143     0.034510287   -0.10631124     0.0010446494 
    897000   0.050402828   -0.21518684     0.034786413   -0.10480106     9.2630694e-05
    898000   0.049817782   -0.21522503     0.035421173   -0.105082      -7.752634e-05 
    899000   0.050446886   -0.21552572     0.035335386   -0.10452489     0.00044115496
    900000   0.050471091   -0.21556254     0.035315792   -0.104545       0.00082562695
    901000   0.050019467   -0.215565       0.035748268   -0.10479237     0.00088541639
    902000   0.050103671   -0.21572358     0.035083021   -0.1054899      0.00084629771
    903000   0.050326137   -0.21570197     0.035494919   -0.10472271     0.00027232794
    904000   0.049871924   -0.21579049     0.035060916   -0.10592651     0.00063117928
    905000   0.049725763   -0.21626959     0.034779964   -0.1069058     -0.00022389616
    906000   0.050151851   -0.21628246     0.035078865   -0.10598067     0.0013640063 
    907000   0.049891609   -0.21667057     0.035449755   -0.10638823     0.00056293748
    908000   0.050190599   -0.21656625     0.035906919   -0.10537829     0.00095143279
    909000   0.050076007   -0.21652629     0.035137568   -0.10627956     0.0010620882 
    910000   0.050107711   -0.21645762     0.035014518   -0.10628639     0.00083174612
    911000   0.050199062   -0.21680284     0.035007233   -0.10650187     0.00079414141
    912000   0.050067845   -0.21696747     0.035253951   -0.1066166      6.088846e-05 
    913000   0.049521399   -0.21694622     0.034877448   -0.10779146     0.00010228118
    914000   0.049857701   -0.21716408     0.034589227   -0.10779312     0.0014579422 
    915000   0.049812857   -0.21741216     0.034877573   -0.10782013     0.00031310956
    916000   0.049702523   -0.21737794     0.035255591   -0.10757337     7.715393e-05 
    917000   0.050220369   -0.21725257     0.034066409   -0.10786047     0.0012996433 
    918000   0.049936674   -0.2170874      0.034627477   -0.10755975     0.00086117559
    919000   0.049495229   -0.21739837     0.03514009    -0.10802023     0.00065413289
    920000   0.049637947   -0.21766813     0.035105185   -0.10811083     0.00090031204
    921000   0.050103227   -0.2174432      0.035405387   -0.10688782     0.00097612438
    922000   0.049980281   -0.21766094     0.035185248   -0.10751011     0.00083510537
    923000   0.049699375   -0.21805718     0.03570904    -0.10780389    -0.00012532129
    924000   0.050424806   -0.21786436     0.034486633   -0.1077454      0.00045854252
    925000   0.049976364   -0.21781909     0.035176287   -0.10768309     0.00035748656
    926000   0.050151599   -0.2180091      0.034546788   -0.10823977     0.0013266667 
    927000   0.050050257   -0.21863884     0.03543016    -0.10813814     0.00087574329
    928000   0.050047537   -0.21823786     0.034565481   -0.10860592     0.00041667362
    929000   0.049556198   -0.21852031     0.035319356   -0.10887146     0.00078577151
    930000   0.04995381    -0.2187553      0.034916846   -0.10891257     0.00064031505
    931000   0.049533927   -0.21917513     0.035082478   -0.10979655     0.00058910727
    932000   0.049735677   -0.21895631     0.035165217   -0.10919239     0.0011978038 
    933000   0.0498649     -0.21943757     0.035584436   -0.10906061     0.00014526164
    934000   0.049460619   -0.21998943     0.035660878   -0.11014241     0.00075471271
    935000   0.049921118   -0.21947109     0.035203653   -0.10939059     0.00063859512
    936000   0.049561777   -0.22001312     0.035157337   -0.11051791    -5.403469e-05 
    937000   0.050745839   -0.21985546     0.03460156    -0.10914006     0.00019836459
    938000   0.049898004   -0.22017683     0.035121831   -0.11021282     0.0010198922 
    939000   0.050267399   -0.22014036     0.03477975    -0.10996437     0.0017984619 
    940000   0.049674019   -0.22077834     0.035067382   -0.11120474     0.00099240755
    941000   0.050093892   -0.22029476     0.035550179   -0.10960859     9.2652887e-05
    942000   0.050122572   -0.22027602     0.035025613   -0.1100714      0.00033533274
    943000   0.050479109   -0.22063216     0.035651652   -0.10926673     0.00056035687
    944000   0.050515184   -0.22070573     0.03555492    -0.10938292     0.00073206398
    945000   0.050400164   -0.22063426     0.035065392   -0.1099735      0.0004857695 
    946000   0.050114992   -0.2211234      0.034905411   -0.11105036     0.0006432932 
    947000   0.050161048   -0.22101061     0.035263948   -0.11050994     0.00071765135
    948000   0.04986736    -0.22122807     0.03550224    -0.11092962     0.00047633651
    949000   0.049620221   -0.22122108     0.034799894   -0.11199566     0.00093815539
    950000   0.04980863    -0.22125876     0.034905953   -0.11164469     0.00078180693
    951000   0.050620296   -0.22155295     0.034409502   -0.11121791     0.0010377613 
    952000   0.04986374    -0.22158078     0.035567595   -0.1112224      0.0010037433 
    953000   0.049798512   -0.22163579     0.035079594   -0.11186325     5.2410132e-05
    954000   0.050670354   -0.22139956     0.035369462   -0.11002947     0.00079780804
    955000   0.050398767   -0.22178322     0.03508667    -0.11110328     0.00011230204
    956000   0.050220677   -0.22157018     0.035274383   -0.11096965     0.00020691222
    957000   0.050282766   -0.22159414     0.035481125   -0.11069373     0.0017570188 
    958000   0.049946093   -0.22239913     0.035646815   -0.111838       0.00087953554
    959000   0.050514783   -0.22230289     0.034926522   -0.11160909     0.0010306847 
    960000   0.05014002    -0.22196324     0.035325136   -0.11143292     0.00098929678
    961000   0.050108312   -0.22238466     0.03517862    -0.11204843     0.00072096377
    962000   0.049846083   -0.22254467     0.03528623    -0.11249414     0.00015658638
    963000   0.049921326   -0.22258679     0.035209231   -0.11250041     0.00064791599
    964000   0.050094597   -0.22261027     0.035422312   -0.11205091     0.0012813666 
    965000   0.049787218   -0.22247426     0.035191174   -0.11260708     0.0003250258 
    966000   0.049982548   -0.22287596     0.035912619   -0.11199435     0.00090925558
    967000   0.051070448   -0.22285517     0.03454782    -0.11170662     0.00084680937
    968000   0.05049272    -0.22289198     0.035598439   -0.11155934     0.00013905435
    969000   0.050262786   -0.22298506     0.034941929   -0.11265381     0.00015405866
    970000   0.049876814   -0.22296839     0.03492802    -0.11322998     0.00073645318
    971000   0.050064132   -0.22311505     0.035036326   -0.11298737     2.2031881e-05
    972000   0.050525425   -0.22310276     0.035384852   -0.11193466     0.00074573636
    973000   0.049990237   -0.22308837     0.035620782   -0.11248707     0.00030150401
    974000   0.050428985   -0.22351144     0.035277889   -0.11259495     8.7027958e-05
    975000   0.050207259   -0.2235788      0.034991429   -0.11328134     0.00085893731
    976000   0.049802971   -0.22353092     0.035421977   -0.11340931    -1.8889321e-05
    977000   0.049998405   -0.22355275     0.03508367    -0.11347631     0.00045004976
    978000   0.050178152   -0.22353035     0.034871127   -0.11339686     0.0002174257 
    979000   0.05015934    -0.22374287     0.035086752   -0.11342196     0.00018451782
    980000   0.050645123   -0.22395991     0.035373758   -0.11262337     0.0014572797 
    981000   0.050644575   -0.22406184     0.034800154   -0.11329972     0.00077528139
    982000   0.050174613   -0.2240298      0.035024766   -0.11374797     0.0001169288 
    983000   0.049925466   -0.22409597     0.035040047   -0.11417255     0.0012178994 
    984000   0.050319694   -0.22466549     0.035089315   -0.1141015      0.00082071078
    985000   0.050064936   -0.22434395     0.034812191   -0.1144392      0.0016229624 
    986000   0.04967595    -0.22460883     0.035019434   -0.11508028    -0.0005447815 
    987000   0.049662919   -0.22472397     0.034949109   -0.11528529     0.0006390543 
    988000   0.050004464   -0.22435844     0.035678903   -0.11367768     0.00086410443
    989000   0.050132241   -0.22463722     0.034976752   -0.11446696     0.0013110252 
    990000   0.049888964   -0.22518131     0.035694177   -0.11465852     0.00038896766
    991000   0.050160436   -0.22502308     0.035219102   -0.11456818     0.00043011537
    992000   0.050533741   -0.22504743     0.035483289   -0.11376842     0.0010738979 
    993000   0.050374602   -0.22529662     0.035397269   -0.11434233     0.00083491669
    994000   0.050268364   -0.22580319     0.035560351   -0.11484516     0.00019214863
    995000   0.050192991   -0.22566068     0.034798438   -0.11557761     0.0016202731 
    996000   0.049724692   -0.22586545     0.035345358   -0.11593786    -9.8345091e-05
    997000   0.050294411   -0.2258155      0.03465065    -0.1157281      0.00086268174
    998000   0.050036938   -0.22637397     0.035111195   -0.11621221     0.00084215511
    999000   0.050610443   -0.2262272      0.034992174   -0.11532426     0.00081528801
   1000000   0.049740307   -0.226399       0.035367589   -0.11642576     0.00084061271
   1001000   0.049696328   -0.22638634     0.03479684    -0.11704982     0.0010663336 
   1002000   0.050276316   -0.22679052     0.034972877   -0.11640803     0.00055505606
   1003000   0.049815249   -0.22662738     0.034641422   -0.11726791    -0.00032382919
   1004000   0.049810212   -0.22690974     0.035311042   -0.1168882      0.0012181806 
   1005000   0.050008299   -0.22702405     0.034992798   -0.11702365     0.00074764063
   1006000   0.049612478   -0.22682828     0.035130047   -0.11728432     0.0013247788 
   1007000   0.049851216   -0.22691993     0.035472167   -0.11667576    -0.00029280568
   1008000   0.049863015   -0.22676615     0.035274749   -0.1167017      0.00025196262
   1009000   0.049534343   -0.2271056      0.034777051   -0.11803183    -5.1677143e-05
   1010000   0.049882096   -0.22704238     0.035458583   -0.11676548     0.0008028468 
   1011000   0.049944241   -0.22700265     0.03486539    -0.11722573     0.0011655424 
   1012000   0.049970154   -0.22690555     0.035025053   -0.1169301     -0.00021314193
   1013000   0.050131511   -0.22742263     0.035492545   -0.11673767     0.00037151949
   1014000   0.050204514   -0.22740201     0.0352566     -0.1168435      0.00054491983
   1015000   0.050535513   -0.22738606     0.034326684   -0.117261       0.00055293988
   1016000   0.049442285   -0.22742316     0.035507665   -0.11775685    -6.54069e-05  
   1017000   0.050060221   -0.22771816     0.035125919   -0.11750675     0.0010464871 
   1018000   0.049933595   -0.2275035      0.035221809   -0.11738613     0.0014710883 
   1019000   0.049782786   -0.22747723     0.035635906   -0.11717197     0.00045206114
   1020000   0.050276486   -0.22785698     0.035046327   -0.11740079     0.00044103715
   1021000   0.050311655   -0.22825226     0.035374352   -0.11741529     0.00073284416
   1022000   0.049829091   -0.2279703      0.035043802   -0.11818769    -2.2433274e-05
   1023000   0.050439759   -0.22804275     0.035030119   -0.11735787     0.00046466988
   1024000   0.050164533   -0.22830384     0.035256969   -0.11780493     0.00031486431
   1025000   0.050273831   -0.22834157     0.036424315   -0.11651138    -0.00032250148
   1026000   0.050169094   -0.22846599     0.035069459   -0.11814774     0.00052197667
   1027000   0.050539396   -0.22874396     0.035519777   -0.11741998     0.0008632199 
   1028000   0.049483087   -0.22894061     0.035464537   -0.11925623     0.00070328392
   1029000   0.049846671   -0.22904618     0.034901092   -0.1193799     -0.00011305569
   1030000   0.050169879   -0.22898399     0.03512613    -0.1186079      0.00058581337
   1031000   0.050251233   -0.22890731     0.035196889   -0.11833844     0.0009049194 
   1032000   0.050404766   -0.22925968     0.035593332   -0.11806408     0.00081495139
   1033000   0.050379894   -0.22967094     0.035331163   -0.11877481     0.00029614407
   1034000   0.049724093   -0.22950869     0.035345987   -0.11958138     0.00029286628
   1035000   0.050349256   -0.22950837     0.034648282   -0.11934108     0.001311982  
   1036000   0.049289016   -0.22963365     0.035282169   -0.12042273     0.00030580316
   1037000   0.049659317   -0.23006618     0.035682451   -0.11989956     0.00036846935
   1038000   0.050106209   -0.22998636     0.034590654   -0.12024124     0.0014125739 
   1039000   0.050404911   -0.23011909     0.035137499   -0.1193791      0.0012484537 
   1040000   0.05031977    -0.23004954     0.034921519   -0.11965324     6.2977809e-06
   1041000   0.049895837   -0.23074505     0.035048803   -0.12085732     0.00093857515
   1042000   0.050014637   -0.23024237     0.03478255    -0.12044271     0.0006908935 
   1043000   0.050025717   -0.23050073     0.035758285   -0.11970871     0.00015210531
   1044000   0.049805352   -0.23027514     0.034720183   -0.12085174     0.00079488842
   1045000   0.049753002   -0.23088882     0.034992107   -0.12127202     0.00052968616
   1046000   0.05016994    -0.23049947     0.034883037   -0.12036638     0.0010469648 
   1047000   0.049640183   -0.23057295     0.034922591   -0.12119489     0.0002778402 
   1048000   0.0499245     -0.23066449     0.035100325   -0.12068224     0.00070606919
   1049000   0.049821122   -0.23080656     0.035049871   -0.12102983     0.00024263466
   1050000   0.050688349   -0.23083203     0.035105307   -0.1196991      0.00095207655
   1051000   0.049801955   -0.23075636     0.034883416   -0.12117483     0.0011674888 
   1052000   0.049958373   -0.23099563     0.035530905   -0.120532       0.00042923563
   1053000   0.050012138   -0.23137976     0.034770642   -0.12159575     0.00030211167
   1054000   0.049953736   -0.23146717     0.035379023   -0.12116238     0.00057863609
   1055000   0.049494209   -0.23122432     0.035279671   -0.12170812     0.00058023998
   1056000   0.050561416   -0.2314465      0.034701608   -0.12090766     0.00028021646
   1057000   0.049418854   -0.23127673     0.035138734   -0.1220145      0.00044081576
   1058000   0.049764175   -0.23168717     0.035307916   -0.1217378      0.0006177222 
   1059000   0.049524428   -0.23157322     0.034317528   -0.12297384     0.00046343681
   1060000   0.049742391   -0.2317475      0.034995123   -0.1221436      0.00012125715
   1061000   0.050247997   -0.23178864     0.035608778   -0.12081272     0.0011399734 
   1062000   0.050322962   -0.23150965     0.03491161    -0.12111846     0.00081834969
   1063000   0.050334178   -0.23168855     0.035150436   -0.12104172     0.00046517845
   1064000   0.050484558   -0.23162133     0.034823038   -0.12107635     0.0010677905 
   1065000   0.049380385   -0.23190317     0.034983734   -0.12285364    -1.9036408e-05
   1066000   0.049842083   -0.23155248     0.034992573   -0.12180161     0.0010516558 
   1067000   0.05000743    -0.231851       0.034982545   -0.12186215     0.0012715768 
   1068000   0.050195147   -0.23180661     0.035192269   -0.12132648     0.0002554918 
   1069000   0.049973581   -0.23195709     0.035234632   -0.12176692     0.0010859509 
   1070000   0.049974685   -0.23161245     0.034878378   -0.12177688     0.0007149157 
   1071000   0.050419462   -0.23184076     0.035272111   -0.12094433     0.0011831206 
   1072000   0.049747855   -0.23214115     0.035892955   -0.12163123     0.0009534098 
   1073000   0.050225737   -0.23227561     0.03592367    -0.12101819     0.00026264098
   1074000   0.050666305   -0.23228092     0.035246263   -0.1210401      0.00080705992
   1075000   0.050227662   -0.2322689      0.035079179   -0.12185309     0.00036990835
   1076000   0.050121494   -0.23241164     0.03516989    -0.12206436     0.00059730174
   1077000   0.050191472   -0.23282832     0.035225535   -0.12232044     0.00035010516
   1078000   0.050052752   -0.23245747     0.034878973   -0.12250421     0.00086725106
   1079000   0.050166403   -0.23263513     0.034804034   -0.12258635     0.00042931866
   1080000   0.050070875   -0.23316945     0.034906355   -0.12316163    -0.00015103988
   1081000   0.049848103   -0.23302074     0.035072506   -0.1231809      1.4245726e-05
   1082000   0.049941467   -0.23287717     0.034556936   -0.12341287     0.0013105793 
   1083000   0.050056945   -0.23320173     0.034892913   -0.12322824     0.00077299242
   1084000   0.049746912   -0.23302554     0.034693132   -0.12371686    -0.00017648622
   1085000   0.050130747   -0.23316575     0.035180884   -0.1227936      0.00040398231
   1086000   0.049850667   -0.23320662     0.035364906   -0.12307054     0.00076206094
   1087000   0.050355555   -0.23294261     0.034734844   -0.12267931     0.00074491914
   1088000   0.049856073   -0.2334004      0.034762954   -0.12385817     0.00027833638
   1089000   0.050513919   -0.23337533     0.035176367   -0.12243297     0.00098455231
   1090000   0.049957793   -0.23341252     0.035394377   -0.12308629     0.00087492051
   1091000   0.049273628   -0.23361076     0.035014324   -0.12469076    -0.00039283085
   1092000   0.049201923   -0.2339245      0.034970562   -0.12515582     0.00035821583
   1093000   0.050686119   -0.23415421     0.035460921   -0.12266901    -0.00033503194
   1094000   0.049841172   -0.23382091     0.035534443   -0.12352953     0.00079415081
   1095000   0.050487683   -0.23384        0.034735868   -0.12337749     0.00036784007
   1096000   0.050132232   -0.23415282     0.035972962   -0.12298636     0.00023275784
   1097000   0.050074818   -0.23447432     0.035268926   -0.12409802     9.0330793e-05
   1098000   0.049795837   -0.23455072     0.034947053   -0.12491473     0.0013373999 
   1099000   0.050407254   -0.23427573     0.035159276   -0.12351045     0.00089978173
   1100000   0.05021961    -0.23423686     0.035367549   -0.12354475     0.0010096171 
   1101000   0.050062111   -0.23462056     0.03572015    -0.12381208    -0.0002191873 
   1102000   0.04989965    -0.23447019     0.035537112   -0.12408843     0.0011419152 
   1103000   0.049726416   -0.23458025     0.035530448   -0.12446499    -0.00048409957
   1104000   0.050335157   -0.23490635     0.03510713    -0.12430136     0.00053808801
   1105000   0.049254647   -0.23484235     0.03590985    -0.1250553      0.00072531371
   1106000   0.049848777   -0.23507132     0.035464652   -0.12483833     0.00028913708
   1107000   0.049449791   -0.23485056     0.03520489    -0.12547577     0.0008112241 
   1108000   0.050038108   -0.23475218     0.035999862   -0.1237        -0.00015606826
   1109000   0.050362525   -0.23483083     0.035548524   -0.1237434      0.00054571051
   1110000   0.050752791   -0.23509686     0.034847292   -0.1241253      0.00076552868
   1111000   0.049690738   -0.23507207     0.035267136   -0.12527364     0.00057920701
   1112000   0.04973276    -0.23506415     0.03489419    -0.12557563    -0.00035466642
   1113000   0.050197862   -0.23491962     0.03531772    -0.12430996     0.00052325715
   1114000   0.049617305   -0.23546553     0.034990131   -0.12605424     0.00056586647
   1115000   0.049396446   -0.23526589     0.034911278   -0.12626472     0.00051371356
   1116000   0.050111966   -0.23522292     0.034936207   -0.12512361     0.0010493498 
   1117000   0.049631522   -0.2355608      0.035373547   -0.12574477     0.00023981469
   1118000   0.050018706   -0.2356029      0.034815711   -0.12576397     0.00076093123
   1119000   0.049295097   -0.23565712     0.035629716   -0.12608953     8.4227854e-05
   1120000   0.050482641   -0.23568931     0.035200033   -0.1247702      0.00051729651
   1121000   0.050150756   -0.23587489     0.035312044   -0.12534157     0.0018586268 
   1122000   0.050192384   -0.23596815     0.035768563   -0.12491587     0.00081577269
   1123000   0.049917253   -0.23615967     0.035360741   -0.12592788     0.00071240844
   1124000   0.050038302   -0.2362976      0.035350697   -0.12589429    -0.00018817032
   1125000   0.049966795   -0.23633478     0.035020718   -0.1263687      5.5919577e-05
   1126000   0.05004965    -0.23638635     0.035146092   -0.12617063     0.00097473539
   1127000   0.050165407   -0.23654252     0.035134753   -0.12616451     0.00043575503
   1128000   0.049655785   -0.23650953     0.034914491   -0.12711617     0.00089741987
   1129000   0.049694578   -0.23638087     0.035304943   -0.12653887     0.00046518038
   1130000   0.050451101   -0.23684794     0.035542748   -0.12563342     0.0010412514 
   1131000   0.049694537   -0.23651827     0.035209681   -0.1267716     -9.9538542e-06
   1132000   0.050067898   -0.2366253      0.035188962   -0.12633934     0.00029118771
   1133000   0.050245209   -0.23713095     0.034965433   -0.12680256     0.0012437554 
   1134000   0.050274475   -0.23741552     0.035424348   -0.12658433     0.0002205699 
   1135000   0.049899004   -0.23713277     0.035275239   -0.12701385     0.00075237948
   1136000   0.05089644    -0.23719841     0.035620104   -0.12523857     8.1704059e-05
   1137000   0.049795223   -0.23752242     0.035556934   -0.12727747     0.00032106126
   1138000   0.050127618   -0.23771496     0.035628083   -0.1269003      0.0004814529 
   1139000   0.050017324   -0.23746905     0.034886573   -0.12756133     0.00100371   
   1140000   0.049958693   -0.23741908     0.035482082   -0.1270038      0.0002732861 
   1141000   0.050195495   -0.23782406     0.035478348   -0.12705732     0.00039603696
   1142000   0.050272776   -0.23788084     0.035894841   -0.1265817      0.00059784136
   1143000   0.050614911   -0.23799391     0.035126327   -0.12695012     0.0018497246 
   1144000   0.050153177   -0.23764265     0.0354997     -0.12691804     0.00033193888
   1145000   0.050142672   -0.23770642     0.035724233   -0.12677303     0.00067760948
   1146000   0.05020383    -0.23825668     0.035448633   -0.12750716     0.00082940365
   1147000   0.04972077    -0.23807378     0.035075503   -0.12842193     0.00037184884
   1148000   0.050019754   -0.23814014     0.035029265   -0.12808609     0.00040109654
   1149000   0.049887441   -0.23846477     0.035015778   -0.12862265     0.0013675676 
   1150000   0.050415859   -0.23840479     0.034999721   -0.12778616     0.00074315569
   1151000   0.050328266   -0.23858959     0.035600561   -0.12750151     0.00074784088
   1152000   0.05060824    -0.23863889     0.034827025   -0.1279044     -0.00010314075
   1153000   0.049926366   -0.23872241     0.035472415   -0.12836528     0.00043960973
   1154000   0.049976589   -0.23832156     0.03482813    -0.12853338     0.0013613427 
   1155000   0.04990835    -0.23848668     0.03494753    -0.12868145     0.0008151574 
   1156000   0.049637377   -0.2388269      0.035307301   -0.12906833     0.0010345335 
   1157000   0.04960663    -0.23876642     0.035138731   -0.12922255    -0.00017656583
   1158000   0.049376644   -0.23884396     0.035402553   -0.12938122     0.00056699839
   1159000   0.049953357   -0.23880766     0.035371925   -0.12851053     8.475001e-05 
   1160000   0.050575041   -0.23896545     0.035576795   -0.12753099     0.00062763449
   1161000   0.049630258   -0.23863918     0.035511389   -0.1286872     -0.00067036889
   1162000   0.050218894   -0.23905586     0.035146743   -0.12858563     0.00039149196
   1163000   0.05038761    -0.23922047     0.035226936   -0.128417       9.4459326e-05
   1164000   0.049680392   -0.23913683     0.035625135   -0.12899592     0.0011302747 
   1165000   0.049697706   -0.23901423     0.035195155   -0.12927733     0.00063750165
   1166000   0.049825596   -0.2390195      0.035184081   -0.12910185     8.034007e-05 
   1167000   0.050126741   -0.23927506     0.034969289   -0.12912051     0.00044405316
   1168000   0.049955004   -0.23938253     0.034927223   -0.12952763     0.0017441338 
   1169000   0.049450062   -0.23922472     0.034924866   -0.13012955    -0.00031738904
   1170000   0.049554041   -0.23961053     0.034750568   -0.1305337      0.00058999944
   1171000   0.050151822   -0.23966194     0.035512968   -0.12892609    -6.0537111e-05
   1172000   0.050397354   -0.23985366     0.035639758   -0.12862275     0.00037887261
   1173000   0.050333392   -0.23949217     0.034836376   -0.12916058     0.00082616901
   1174000   0.050575082   -0.23982027     0.035655884   -0.12830665    -0.0001101618 
   1175000   0.050613405   -0.23982882     0.035417498   -0.12849611     0.00031802454
   1176000   0.049774167   -0.23966218     0.035190204   -0.12981554     0.0004708084 
   1177000   0.049894544   -0.23978802     0.035463088   -0.12948794     0.00043940808
   1178000   0.050011592   -0.2400482      0.035609532   -0.12942612     0.00084763333
   1179000   0.049984749   -0.23972703     0.035680146   -0.1290746      0.00077275579
   1180000   0.050535892   -0.23965757     0.034847346   -0.12901128     0.001708595  
   1181000   0.050703932   -0.23982297     0.035199292   -0.12857269     0.00075146662
   1182000   0.050406164   -0.23949098     0.035698109   -0.1281885      0.00085274485
   1183000   0.050291721   -0.2396241      0.035827446   -0.12836394     0.00054480202
   1184000   0.050205045   -0.24008608     0.035491665   -0.12929171     0.0010290657 
   1185000   0.049712146   -0.2403329      0.035508661   -0.13026083    -0.00013141071
   1186000   0.049821367   -0.24023968     0.034920691   -0.13059176     0.00014231855
   1187000   0.049728378   -0.24022113     0.035665727   -0.12996765     0.00036716981
   1188000   0.050076582   -0.24027648     0.03553874    -0.12962772    -7.0035577e-06
   1189000   0.05010411    -0.24046573     0.035481368   -0.12983304     0.0004542586 
   1190000   0.049949675   -0.24046435     0.035914427   -0.12963024     1.5884277e-05
   1191000   0.05001763    -0.24052127     0.034919112   -0.13058056     0.00071746895
   1192000   0.050215119   -0.24031594     0.035062063   -0.12993606     0.0014064752 
   1193000   0.050261061   -0.24048913     0.035423176   -0.12967923     0.00010457966
   1194000   0.049925455   -0.24078575     0.035001534   -0.13090086     0.00082560854
   1195000   0.049742055   -0.24102033     0.034998699   -0.13141337     0.00025157178
   1196000   0.050135445   -0.24101931     0.035193728   -0.13062727    -0.00031533326
   1197000   0.050062939   -0.24107584     0.035334909   -0.13065137     0.0011127753 
   1198000   0.050016495   -0.24103001     0.03506668    -0.13094342     1.9376117e-05
   1199000   0.05045187    -0.24115899     0.035394818   -0.13009125     0.00036832974
   1200000   0.050222814   -0.24116524     0.034821189   -0.13101469     0.00073565391
   1201000   0.049464843   -0.24157872     0.035322867   -0.13206337     0.00045673026
   1202000   0.050233561   -0.24182162     0.035329547   -0.1311466      0.00040530971
   1203000   0.050147206   -0.24171742     0.034710588   -0.13179087     0.0011634085 
   1204000   0.049937884   -0.24188808     0.035312377   -0.13167371     0.00057278898
   1205000   0.050250951   -0.24185238     0.035364674   -0.13111614    -0.00067309099
   1206000   0.05019678    -0.24211526     0.034518051   -0.1323069      0.0011963491 
   1207000   0.050031648   -0.24226267     0.035013954   -0.13220609     0.0013364388 
   1208000   0.050098768   -0.24195772     0.035531795   -0.13128262     0.00039689174
   1209000   0.050169642   -0.24234264     0.034910665   -0.13218236     0.00064102669
   1210000   0.050082477   -0.2421032      0.035553716   -0.13143061    -3.5373439e-05
   1211000   0.050172326   -0.24216364     0.035488441   -0.13142157     0.00068618275
   1212000   0.050375912   -0.24208501     0.035007583   -0.13151843     2.7163619e-05
   1213000   0.050372253   -0.24240027     0.035548798   -0.13129797     0.00018716558
   1214000   0.04945438    -0.24197926     0.035139715   -0.13266277     0.00064892097
   1215000   0.050277434   -0.24244825     0.034395031   -0.13264194     0.0005674    
   1216000   0.050045463   -0.24229405     0.0350447     -0.132186      -0.00031085064
   1217000   0.049883102   -0.24246712     0.034980078   -0.13266722     0.00074418328
   1218000   0.050332132   -0.24230134     0.035000254   -0.13180776     0.00033853302
   1219000   0.049195861   -0.24287887     0.034939974   -0.13414986     0.0013252889 
   1220000   0.049518512   -0.2424661      0.035391839   -0.13280129     0.00017739659
   1221000   0.049898464   -0.2427736      0.035354918   -0.13257581     0.0006455666 
   1222000   0.049917617   -0.24326052     0.035482522   -0.1329064      0.00060827376
   1223000   0.049985695   -0.2429806      0.035618466   -0.13238843     0.00051181253
   1224000   0.050182376   -0.24314918     0.035505107   -0.13237537     6.2961093e-06
   1225000   0.050137942   -0.24319543     0.035489154   -0.13250421     0.00063300149
   1226000   0.050309845   -0.2430819      0.035191048   -0.13243096     7.3447833e-05
   1227000   0.049694788   -0.24325476     0.036120095   -0.13259729    -0.0005670487 
   1228000   0.049730223   -0.24319684     0.035148252   -0.13345807     0.00045022738
   1229000   0.050471769   -0.24305944     0.035795782   -0.13156089     0.00060905041
   1230000   0.049825086   -0.24306927     0.035405489   -0.13293098     0.00025129087
   1231000   0.050060477   -0.24345928     0.035349083   -0.13302432     0.00059759723
   1232000   0.049815113   -0.24358547     0.034384127   -0.13448349     0.00085109829
   1233000   0.050054725   -0.24336555     0.034564595   -0.13372371     0.00073648761
   1234000   0.049666505   -0.24337568     0.035003352   -0.13387738     0.00074654563
   1235000   0.050302408   -0.24367002     0.034515387   -0.13370589     0.00035330345
   1236000   0.049657231   -0.2435918      0.035594253   -0.1335165      0.00067436653
   1237000   0.049866069   -0.24357521     0.035545166   -0.13323576     5.7272661e-05
   1238000   0.04995961    -0.24347305     0.035285026   -0.13325345     0.00026605676
   1239000   0.050258959   -0.2434857      0.035908204   -0.13219392     4.0185903e-06
   1240000   0.050677145   -0.24375971     0.035507463   -0.13224143     0.001287429  
   1241000   0.050490608   -0.24415086     0.035441749   -0.13297808     1.3988444e-05
   1242000   0.049641177   -0.24359554     0.035160157   -0.13397842     0.00051446142
   1243000   0.049941388   -0.24393713     0.035222288   -0.1338076      0.00042858814
   1244000   0.050093077   -0.24414777     0.034670743   -0.13434225     0.0002634658 
   1245000   0.049291074   -0.24403831     0.035031089   -0.13507538     0.00032375515
   1246000   0.049090379   -0.24404757     0.035113564   -0.13530319     0.00041054465
   1247000   0.049737903   -0.24414083     0.035201713   -0.13433708     0.00017691133
   1248000   0.049732325   -0.24439848     0.035273166   -0.13453164     0.00059239678
   1249000   0.050002136   -0.24455791     0.035372858   -0.13418669     0.0005998447 
   1250000   0.050117365   -0.24430251     0.03480568    -0.13432563     0.000458318  
   1251000   0.049544273   -0.2444668      0.035048628   -0.13510656     0.00011735939
   1252000   0.050518655   -0.24423336     0.034673446   -0.13378682     0.00050673017
   1253000   0.050301563   -0.24458193     0.03594581    -0.13318864     0.00020563164
   1254000   0.049896521   -0.24445119     0.035344254   -0.13426698     0.0012231558 
   1255000   0.049853619   -0.24484308     0.035370204   -0.13469727     0.0010616417 
   1256000   0.049884677   -0.24471508     0.035580107   -0.13431278    -0.00044036908
   1257000   0.050339244   -0.24471936     0.034741573   -0.13447379    -0.00032629759
   1258000   0.050245353   -0.24480671     0.035246204   -0.13419734     4.4071881e-05
   1259000   0.049391724   -0.24461517     0.035493409   -0.13503895     0.00024866665
   1260000   0.050540485   -0.24477619     0.035029125   -0.13394123     0.00055347398
   1261000   0.049672736   -0.24448511     0.035090034   -0.13489078     0.00072489009
   1262000   0.049746661   -0.24537875     0.035300007   -0.13546357     0.00091446438
   1263000   0.050301074   -0.24482845     0.035080399   -0.13430131     0.00095250884
   1264000   0.049723752   -0.24490448     0.034804695   -0.13551897     5.7265672e-05
   1265000   0.050073406   -0.24502524     0.035236221   -0.13468376     0.00014383991
   1266000   0.049633373   -0.24489977     0.035352001   -0.13510251     0.00011942274
   1267000   0.05023126    -0.24531369     0.034957787   -0.13501388     0.00042704404
   1268000   0.04987375    -0.2452222      0.034592596   -0.1358238      0.00097084252
   1269000   0.049779424   -0.24507496     0.035516886   -0.13489375     0.00099069539
   1270000   0.049891636   -0.24509375     0.036117309   -0.13414381    -0.00022390053
   1271000   0.050175985   -0.24523236     0.035899157   -0.13407409     9.099225e-05 
   1272000   0.050351469   -0.24520868     0.035115527   -0.13457082     0.0017656203 
   1273000   0.049958812   -0.24597922     0.035348977   -0.13569686    -0.00019461675
   1274000   0.049958232   -0.24560836     0.035759365   -0.13491648     0.00010932041
   1275000   0.050208618   -0.24573843     0.035530176   -0.13490019     0.00029836068
   1276000   0.049487031   -0.24563732     0.035031408   -0.13638015    -0.00019873686
   1277000   0.049303612   -0.24544108     0.035125991   -0.13636445    -0.00018965126
   1278000   0.050359776   -0.24585028     0.035287603   -0.13502789     0.00015027281
   1279000   0.050267007   -0.24562585     0.035575809   -0.1346544      0.00055357176
   1280000   0.050124769   -0.24606493     0.03538996    -0.13549267     0.0010652692 
   1281000   0.05049035    -0.24616865     0.035598749   -0.13483927     0.00063927393
   1282000   0.049819908   -0.24630321     0.035928479   -0.13564969    -0.00012531008
   1283000   0.050238433   -0.24607331     0.034978018   -0.1357425      0.0010434801 
   1284000   0.04996718    -0.24576683     0.035264203   -0.13555669     0.00031543704
   1285000   0.049885893   -0.24624845     0.03548769    -0.13593675     0.00090660396
   1286000   0.050037955   -0.24626434     0.035301751   -0.13591049     0.00026228549
   1287000   0.050531703   -0.24624405     0.035621873   -0.13482951     0.00092940806
   1288000   0.049908055   -0.24622302     0.03523777    -0.136128       0.001127781  
   1289000   0.049433855   -0.24647567     0.035194736   -0.13713494     0.00035218593
   1290000   0.049076288   -0.24633998     0.035347723   -0.13738257     0.00057492207
   1291000   0.049495754   -0.24696117     0.035211286   -0.13751104     0.00055023114
   1292000   0.050170841   -0.24680084     0.035148023   -0.13640141     0.0006816778 
   1293000   0.050169935   -0.24696199     0.035648116   -0.13606383     0.00057060923
   1294000   0.050768408   -0.24692405     0.035487654   -0.1352887      0.0006485461 
   1295000   0.050247697   -0.24675641     0.035023574   -0.13636615     0.00047412583
   1296000   0.049413165   -0.24671736     0.035635304   -0.13696709     0.00063698755
   1297000   0.050069469   -0.24682333     0.034898628   -0.13682535     0.0013127502 
   1298000   0.050122703   -0.246851       0.036143523   -0.13552828     0.00028991416
   1299000   0.049803951   -0.24690075     0.035618352   -0.13658129     0.00031932511
   1300000   0.050156049   -0.24734974     0.035186151   -0.13693437     0.00037678411
   1301000   0.049891365   -0.2472579      0.035248848   -0.13717684     0.00097366474
   1302000   0.050646453   -0.24755852     0.035716805   -0.13587694    -0.00038766876
   1303000   0.050191317   -0.24736142     0.035857113   -0.13622219     0.00044345282
   1304000   0.050639177   -0.24753703     0.035551084   -0.13603208     0.00073687249
   1305000   0.050030917   -0.24763083     0.035308734   -0.13728056     0.00030053476
   1306000   0.050088015   -0.24736519     0.035750274   -0.13648774     0.00027198724
   1307000   0.049499273   -0.24806531     0.035131711   -0.13868948     0.00071267543
   1308000   0.049888936   -0.24751184     0.03475701    -0.13792626     0.00065292827
   1309000   0.050397068   -0.24780828     0.034881239   -0.13733632     0.0011255896 
   1310000   0.049637845   -0.24773304     0.035606753   -0.13767432    -0.00013556465
   1311000   0.050293379   -0.24798149     0.035299608   -0.13724668     0.0006712614 
   1312000   0.050241684   -0.24796469     0.03521927    -0.13738776     0.00023131998
   1313000   0.050429445   -0.24802582     0.035867591   -0.13651894     9.284296e-06 
   1314000   0.05004506    -0.24774339     0.035282703   -0.13739794     0.00023496588
   1315000   0.049818553   -0.24780986     0.035190586   -0.13789626     0.00017410343
   1316000   0.049635264   -0.24776609     0.034813693   -0.1385043      0.00040994815
   1317000   0.049920755   -0.24814526     0.035154413   -0.13811454     0.00063967914
   1318000   0.049763489   -0.24770962     0.035012302   -0.1380569      0.00097232329
   1319000   0.050259535   -0.24794241     0.035760986   -0.13679698     0.0011142528 
   1320000   0.050715111   -0.24799024     0.035718398   -0.13620408    -0.00013559329
   1321000   0.049991336   -0.24781699     0.035359554   -0.13747527     0.0002386443 
   1322000   0.050706092   -0.24775567     0.035533893   -0.13616755     0.0011590595 
   1323000   0.050051499   -0.24818257     0.035087272   -0.13802289     0.0013792864 
   1324000   0.049837521   -0.24822022     0.035711394   -0.13775737     0.00021174191
   1325000   0.050047027   -0.2483451      0.035196409   -0.13808299     0.0010690036 
   1326000   0.050265697   -0.24826879     0.035327959   -0.13754715     0.00051997908
   1327000   0.050504324   -0.24822964     0.035082032   -0.13739601     0.0011047792 
   1328000   0.049997851   -0.24814533     0.035387029   -0.13776636     0.00094939562
   1329000   0.050142633   -0.24852536     0.035593039   -0.13772323     9.1905547e-05
   1330000   0.050393903   -0.24814841     0.034941141   -0.13762129     0.00011797199
   1331000   0.049744121   -0.24809538     0.03467456    -0.13880945     0.00074597899
   1332000   0.050030966   -0.24860145     0.035498628   -0.13806122    -0.00072234946
   1333000   0.050655073   -0.24864111     0.035469613   -0.13719378     0.00028593752
   1334000   0.05029946    -0.24838551     0.035112863   -0.13782832     0.00048145461
   1335000   0.050056377   -0.24826672     0.035558801   -0.1376282      0.0011281168 
   1336000   0.050367155   -0.24872396     0.034904013   -0.13827409     0.00039340426
   1337000   0.049733052   -0.24905655     0.034917603   -0.13954419    -0.00015687267
   1338000   0.049773124   -0.24890931     0.035905567   -0.13834888     0.00074136661
   1339000   0.050363859   -0.24847055     0.035406255   -0.13752338     0.00085788597
   1340000   0.049778514   -0.24908213     0.035526829   -0.13889235    -7.0418368e-05
   1341000   0.049695851   -0.24867698     0.035139692   -0.13899832     0.0017585413 
   1342000   0.049414838   -0.24902912     0.035184948   -0.1397267      0.0010200285 
   1343000   0.05008959    -0.24912982     0.035373528   -0.13862676    -0.00022674393
   1344000   0.049835005   -0.24926184     0.035222575   -0.13929158     0.00092751188
   1345000   0.050499391   -0.24902887     0.035174495   -0.13811018     0.0013299841 
   1346000   0.050149284   -0.24930171     0.035544828   -0.13853781     0.00031101321
   1347000   0.050291088   -0.24909813     0.034448699   -0.13921767     0.0012178996 
   1348000   0.049964037   -0.24935837     0.03509442    -0.13932273    -0.00027580475
   1349000   0.049348596   -0.24944731     0.035639234   -0.13978995     0.00019956582
   1350000   0.049942237   -0.24931511     0.035615678   -0.13879091     0.00073470145
   1351000   0.050019381   -0.24950359     0.034843836   -0.13963552     0.00022968375
   1352000   0.049756617   -0.2496184      0.03536764    -0.13962065     0.0015056096 
   1353000   0.049826773   -0.24958228     0.035599292   -0.13924765    -0.00025532665
   1354000   0.049828552   -0.24972367     0.035319437   -0.13966623     4.9431922e-05
   1355000   0.049679144   -0.24982455     0.035396644   -0.139914       0.0010021615 
   1356000   0.049459351   -0.24984104     0.035374362   -0.14028243    -5.6535379e-05
   1357000   0.049814911   -0.24969941     0.034900437   -0.14008143     0.0003381869 
   1358000   0.04936148    -0.24960239     0.035416525   -0.14014842    -1.5199635e-05
   1359000   0.049541737   -0.24968508     0.035186407   -0.14019086     0.00023887679
   1360000   0.049684946   -0.25041391     0.035541208   -0.14035009    -2.1942222e-05
   1361000   0.049808339   -0.25043141     0.035112382   -0.14061134     0.00034163281
   1362000   0.050329324   -0.25065657     0.035065009   -0.14010244     0.00068411063
   1363000   0.05002097    -0.25015932     0.034920422   -0.14021228     0.00034855952
   1364000   0.050591502   -0.25029292     0.035426244   -0.13898432     0.00067472424
   1365000   0.050245153   -0.25039323     0.034523593   -0.14050677     0.00076422041
   1366000   0.049823935   -0.25040118     0.034956874   -0.14071322     0.00051883142
   1367000   0.049624332   -0.25027398     0.035310317   -0.14053197     0.0009695839 
   1368000   0.049964789   -0.2505637      0.035102391   -0.14051896     0.00061100056
   1369000   0.049617398   -0.25071551     0.035087975   -0.14120624     0.00044094196
   1370000   0.049781929   -0.25076332     0.0351617     -0.14093355     0.00039683277
   1371000   0.049598478   -0.2505501      0.034562063   -0.14159512     0.00041735291
   1372000   0.050165067   -0.2508029      0.035212918   -0.14034724     0.00035199522
   1373000   0.050356382   -0.25057452     0.034855347   -0.14018947     0.0011818702 
   1374000   0.049962751   -0.2508739      0.035585995   -0.14034862     0.00091136929
   1375000   0.050566172   -0.2506073      0.035210514   -0.13955242    -0.00036640755
   1376000   0.049920293   -0.2511457      0.035975245   -0.14029485     0.00068264817
   1377000   0.049760926   -0.25061597     0.035396841   -0.14058256     1.2427745e-05
   1378000   0.049881764   -0.25103533     0.035580584   -0.14063693     0.0012522912 
   1379000   0.050128805   -0.25102304     0.035151429   -0.14068326     6.2158406e-06
   1380000   0.050789291   -0.25110096     0.035022788   -0.13989915     0.00096298116
   1381000   0.050114973   -0.2510325      0.03586784    -0.13999705     0.00063457696
   1382000   0.050376188   -0.25111112     0.035552127   -0.13999958     0.00045332326
   1383000   0.049676684   -0.25105236     0.035263461   -0.14127868    -0.00020692142
   1384000   0.050151195   -0.25077356     0.035143729   -0.1404079      0.00070667169
   1385000   0.049990991   -0.25140961     0.035524397   -0.14090356     0.000592957  
   1386000   0.050058257   -0.25139554     0.035032825   -0.14128018    -0.00015866017
   1387000   0.049867149   -0.25121561     0.035495282   -0.14092443     0.00016237832
   1388000   0.04960397    -0.25140883     0.035883941   -0.14112373     0.00016253385
   1389000   0.050227445   -0.25144625     0.035181785   -0.14092815     0.00084291044
   1390000   0.050141989   -0.2516682      0.035315836   -0.14114423    -0.00057111608
   1391000   0.049788266   -0.25141491     0.035163829   -0.1415735     -0.0001025721 
   1392000   0.049941463   -0.2516731      0.035296816   -0.14146893     0.00040839039
   1393000   0.049548884   -0.25105436     0.035638257   -0.14109757     0.0013139154 
   1394000   0.050570317   -0.25157471     0.035046987   -0.14067714     0.00054185373
   1395000   0.049931577   -0.25186221     0.034959271   -0.14201041     0.00072057083
   1396000   0.049546831   -0.25154631     0.035160489   -0.14207037     0.00042958071
   1397000   0.050932667   -0.25202622     0.034825228   -0.14080692     0.00041632566
   1398000   0.049586757   -0.25189382     0.035817561   -0.14170092    -0.00016635864
   1399000   0.049886408   -0.25242082     0.035588628   -0.14200741    -0.00019779997
   1400000   0.050058893   -0.25203823     0.035236482   -0.14171825     0.00022856284
   1401000   0.050580146   -0.25198811     0.035370813   -0.14075198     0.0010379883 
   1402000   0.050029952   -0.25207969     0.035591115   -0.14144848     0.0010516873 
   1403000   0.050031972   -0.25219748     0.035256603   -0.14189776     0.00021944589
   1404000   0.050227708   -0.25196618     0.035216826   -0.14141265     0.00056908471
   1405000   0.049682107   -0.25202022     0.035578401   -0.14192347     0.0010799954 
   1406000   0.049637618   -0.25227782     0.034985643   -0.14284056     0.00081118155
   1407000   0.050183251   -0.25211945     0.035035363   -0.14181406     0.00074303207
   1408000   0.049963761   -0.25232213     0.035015728   -0.14236559     0.00067857705
   1409000   0.050273998   -0.25197863     0.034970916   -0.14160158     0.00035614583
   1410000   0.049701932   -0.2522559      0.035199195   -0.14250862    -0.00025481566
   1411000   0.0500543     -0.252485       0.03520035    -0.14220805     0.0007774047 
   1412000   0.049995003   -0.25241906     0.03545774    -0.14197365     0.00041848835
   1413000   0.05041853    -0.25245347     0.035318084   -0.14151247    -0.00015640597
   1414000   0.05025432    -0.25232845     0.03551925    -0.14143258     0.00035203219
   1415000   0.050111218   -0.25283408     0.03556279    -0.14210931    -0.00019369275
   1416000   0.050110175   -0.25267971     0.034852491   -0.14266681     0.0010590558 
   1417000   0.050363735   -0.25255127     0.034738786   -0.14227175     0.0016849819 
   1418000   0.049699609   -0.25263003     0.03511332    -0.1429721     -0.00068940654
   1419000   0.049343294   -0.25312952     0.03509976    -0.14401959     0.00062727408
   1420000   0.050202976   -0.25265786     0.03478363    -0.14257463     0.0011804446 
   1421000   0.049784386   -0.25260063     0.035167391   -0.14276148    -0.00032683975
   1422000   0.049809852   -0.25306559     0.035147228   -0.14320841     0.00097335564
   1423000   0.049807315   -0.25323904     0.035114724   -0.14341816     0.00085966698
   1424000   0.049410741   -0.25325097     0.035199419   -0.14394022     0.0011434566 
   1425000   0.050063473   -0.25330778     0.035079712   -0.1431377      0.00054695382
   1426000   0.049617708   -0.25304856     0.035601654   -0.14302515     0.00054128083
   1427000   0.050013976   -0.25339053     0.035564545   -0.14280986    -0.00018497344
   1428000   0.049224015   -0.25302953     0.035605736   -0.14359254     0.00096830859
   1429000   0.049604453   -0.25315105     0.035503294   -0.14324588    -0.00015557882
   1430000   0.05026442    -0.25321877     0.035162835   -0.14266417    -0.0002147908 
   1431000   0.049933035   -0.25316552     0.03516895    -0.14310185     0.00045832264
   1432000   0.050622106   -0.2535126      0.035103015   -0.14248133     0.0010314944 
   1433000   0.050095608   -0.25333658     0.035706254   -0.14249176     0.00017410511
   1434000   0.050092672   -0.25363635     0.03521089    -0.1432913      0.00057411012
   1435000   0.049960848   -0.25376957     0.03564977    -0.14318336     0.0004242231 
   1436000   0.050608888   -0.2536899      0.035280668   -0.14250079     0.00033328515
   1437000   0.050233551   -0.25385482     0.035287066   -0.14322228    -0.00041883747
   1438000   0.051000614   -0.25354568     0.035887524   -0.14116217     0.00070517583
   1439000   0.049987974   -0.25380587     0.035495986   -0.14333277    -7.7537208e-05
   1440000   0.050491658   -0.25377608     0.035252297   -0.14279118     0.00033945113
   1441000   0.050250597   -0.25380085     0.03548208    -0.14294774     0.00015333482
   1442000   0.050377195   -0.25399335     0.035559892   -0.14287254     0.0010382931 
   1443000   0.050404725   -0.25407545     0.035653623   -0.14281962     0.00067727652
   1444000   0.050200467   -0.25426241     0.035207176   -0.14375939     0.00015918687
   1445000   0.049951314   -0.25397407     0.035435853   -0.14361608     0.00066889297
   1446000   0.050112933   -0.25401484     0.034932751   -0.14391754     0.0004929514 
   1447000   0.050388071   -0.25406087     0.034896106   -0.14358753     0.00064724366
   1448000   0.050351395   -0.2546091      0.034996797   -0.14409009     0.00013647082
   1449000   0.049688385   -0.25456918     0.035430359   -0.14461105     0.00058183556
   1450000   0.050057564   -0.25461653     0.035467495   -0.14406753     0.00024840235
   1451000   0.049607129   -0.25429501     0.035161545   -0.14472758     0.00034947316
   1452000   0.049865345   -0.25482731     0.035155454   -0.14487867     0.00020541293
   1453000   0.050419182   -0.25468107     0.035190967   -0.14386621     0.001277748  
   1454000   0.050141626   -0.25472063     0.035197153   -0.14431589     0.00018041633
   1455000   0.050118839   -0.25468718     0.034849189   -0.14466459     0.0014443139 
   1456000   0.049891332   -0.25459698     0.035331454   -0.14443336     1.1693435e-05
   1457000   0.050371444   -0.2551184      0.035300173   -0.14426594     0.00061432023
   1458000   0.05021017    -0.25503749     0.035341026   -0.14438607     0.00026212261
   1459000   0.050051384   -0.25496488     0.035215751   -0.14467689     0.00045185851
   1460000   0.049996112   -0.25512317     0.034899632   -0.14523421     0.00083826388
   1461000   0.049794538   -0.25474534     0.035194316   -0.14486404     0.00064413919
   1462000   0.049537824   -0.25488286     0.035065054   -0.14551586     4.0295559e-05
   1463000   0.049864242   -0.25498843     0.03521521    -0.14498168     0.00016468095
   1464000   0.050344685   -0.25493993     0.035031845   -0.14439593     0.00032968941
   1465000   0.050220762   -0.25483439     0.035309641   -0.14419846     0.00038093231
   1466000   0.0495047     -0.25479535     0.035140809   -0.14540228     0.0007809805 
   1467000   0.049309942   -0.25515402     0.035229864   -0.14596401     0.00063799283
   1468000   0.049343039   -0.2549073      0.03548274    -0.14541478     0.00070878636
   1469000   0.050104825   -0.25530482     0.035048426   -0.14510401     0.00019630962
   1470000   0.049732025   -0.25507099     0.034897084   -0.14558068     0.00062492963
   1471000   0.049720257   -0.25522097     0.034724479   -0.14592092     4.7639909e-05
   1472000   0.050027747   -0.25478424     0.035241763   -0.1445057      0.00063284784
   1473000   0.050269615   -0.25528707     0.035869042   -0.14401847     0.0013413083 
   1474000   0.049689223   -0.25508449     0.035774511   -0.14478095     0.00038078756
   1475000   0.050366771   -0.25515467     0.035348199   -0.14426119     0.00050762089
   1476000   0.050516108   -0.25557087     0.035362878   -0.14443872     0.00042171072
   1477000   0.049433127   -0.25542825     0.035385778   -0.14589757     0.00098449526
   1478000   0.050140361   -0.25551063     0.035207101   -0.14509784     0.00082594738
   1479000   0.05038693    -0.25552339     0.035375938   -0.14457193     0.0013943277 
   1480000   0.049757987   -0.25520199     0.034990187   -0.14557963     0.00020824619
   1481000   0.049501405   -0.25545761     0.035071925   -0.14613837     0.00056908973
   1482000   0.050126724   -0.2555481      0.035362559   -0.1450003     -3.3934728e-05
   1483000   0.04994437    -0.25581367     0.035071693   -0.14583026     0.00093550491
   1484000   0.049935271   -0.25567599     0.035563519   -0.14521439     0.00014694458
   1485000   0.05049087    -0.25606958     0.035850129   -0.14448803     0.00097387973
   1486000   0.050267521   -0.25585644     0.035995646   -0.14446438     0.00053161364
   1487000   0.049814514   -0.25586114     0.035485998   -0.14565819     0.00016321067
   1488000   0.049650574   -0.25627289     0.035769256   -0.14603258     0.00078823223
   1489000   0.049901392   -0.25630991     0.035501439   -0.14596121     0.00085423368
   1490000   0.0505433     -0.25612981     0.035227412   -0.14509234     0.00073461059
   1491000   0.05011712    -0.2563444      0.035297803   -0.14587576     0.001173588  
   1492000   0.050404859   -0.25639815     0.034941621   -0.14585412     0.00071994438
   1493000   0.049592037   -0.25634435     0.035340697   -0.14662039     0.00016165419
   1494000   0.050206062   -0.25675121     0.034740225   -0.14670675     0.00047704904
   1495000   0.049923375   -0.25678786     0.035250329   -0.1466573      0.00047911866
   1496000   0.050018906   -0.25653294     0.035735602   -0.14577382     0.0004518154 
   1497000   0.050407603   -0.25630291     0.035573563   -0.14512282    -9.50191e-06  
   1498000   0.050303054   -0.25684836     0.035571264   -0.14582738     0.00057738063
   1499000   0.050022933   -0.25703306     0.035945137   -0.14605836     0.00027120097
   1500000   0.050002262   -0.25707274     0.035452369   -0.14662182    -0.00016272694
   1501000   0.050670889   -0.25649067     0.035345095   -0.14514415     0.0013197787 
   1502000   0.049865195   -0.25701721     0.035592506   -0.14663173     0.00015218768
   1503000   0.050003122   -0.25679092     0.035054901   -0.14673618     0.00065759876
   1504000   0.049955625   -0.25699202     0.035053211   -0.1470102      0.00010550644
   1505000   0.049888933   -0.25705814     0.035491197   -0.14673837     0.0016391995 
   1506000   0.050050741   -0.25722374     0.03532353    -0.14682894    -4.7163351e-05
   1507000   0.050233622   -0.25690435     0.03532099    -0.14623779     0.00091212611
   1508000   0.049523669   -0.25692168     0.034873403   -0.14776757     0.00015592462
   1509000   0.050354318   -0.25729087     0.035024657   -0.14673961     8.263808e-06 
   1510000   0.050184984   -0.25677449     0.03506588    -0.14643599     0.00093529231
   1511000   0.050024537   -0.25713831     0.035172992   -0.14693335     0.00096631781
   1512000   0.049857004   -0.25719628     0.035626546   -0.14678905     0.001077478  
   1513000   0.050691027   -0.25724484     0.035642268   -0.14557094     0.001384179  
   1514000   0.050240717   -0.25737488     0.035276542   -0.14674212    -0.00013486069
   1515000   0.049683109   -0.2571283      0.03473287    -0.14787558    -0.00015536909
   1516000   0.049687852   -0.25763069     0.035367486   -0.14773623     0.00088932635
   1517000   0.050151641   -0.25753194     0.03509272    -0.14721661     0.00085839731
   1518000   0.050237615   -0.25762752     0.035146515   -0.14712944     0.0010445135 
   1519000   0.050024188   -0.25809567     0.035788674   -0.14727556     0.0003894522 
   1520000   0.050222842   -0.25792661     0.03582793    -0.14676928     0.00054418351
   1521000   0.050732612   -0.25785173     0.036062332   -0.14569539     0.0004750331 
   1522000   0.050382553   -0.25762083     0.03550256    -0.14654932    -0.00035731537
   1523000   0.049710784   -0.25821064     0.035404249   -0.14824503    -3.3274547e-05
   1524000   0.050277676   -0.25812248     0.035453473   -0.14725736     0.00055454891
   1525000   0.04984595    -0.25813513     0.035377352   -0.14799367     0.0011513585 
   1526000   0.049958483   -0.25800618     0.035075361   -0.14799793     0.00050609674
   1527000   0.05016009    -0.2582617      0.035175967   -0.14785045     0.00023746407
   1528000   0.050581458   -0.25835849     0.03470867    -0.14778253     0.0013650129 
   1529000   0.050308262   -0.25812777     0.035116164   -0.14755408     0.00091738868
   1530000   0.049180942   -0.258587       0.035244186   -0.14957616    -0.00015237013
   1531000   0.049276177   -0.25847404     0.035783697   -0.14878084    -0.00026207269
   1532000   0.050324866   -0.25837886     0.03511828    -0.14777815     0.00035612382
   1533000   0.050004883   -0.25826852     0.035328528   -0.1479375      0.00095132694
   1534000   0.050384895   -0.25852748     0.035646677   -0.14730834     0.00024668848
   1535000   0.050037893   -0.25869845     0.036167775   -0.14747868    -2.7278442e-05
   1536000   0.050071832   -0.25875924     0.035253422   -0.14840291    -0.00042215142
   1537000   0.050609976   -0.25893102     0.035319081   -0.14770188     0.0011072868 
   1538000   0.050513632   -0.25878036     0.035483739   -0.14753106     0.00089142598
   1539000   0.050418714   -0.25873296     0.035038049   -0.14807172     0.00049294893
   1540000   0.049950167   -0.2590788      0.035696122   -0.14846227     0.00065490392
   1541000   0.049986046   -0.25916308     0.035606838   -0.14858201     0.00095550573
   1542000   0.049663619   -0.25919137     0.035236957   -0.14946379     0.00044835989
   1543000   0.050423041   -0.25915039     0.035570008   -0.1479507      0.00070205211
   1544000   0.050037863   -0.25913583     0.03566053    -0.14842335    -0.00038731449
   1545000   0.050305624   -0.25934509     0.035706178   -0.14818534     0.0010633065 
   1546000   0.050056531   -0.2587317      0.035570652   -0.1480811      0.0014243265 
   1547000   0.0497211     -0.2589778      0.03537798    -0.14902298     7.4027054e-05
   1548000   0.050679983   -0.25921827     0.035536257   -0.14766695     0.0013388515 
   1549000   0.050001578   -0.25964699     0.035396001   -0.14925346     3.5597708e-05
   1550000   0.049805025   -0.25944989     0.035348099   -0.14939907     0.00023824993
   1551000   0.049906296   -0.25950292     0.035719498   -0.14892881     0.0002033175 
   1552000   0.049647762   -0.25963916     0.035722443   -0.14944988     1.1860476e-05
   1553000   0.050685702   -0.25961972     0.034816896   -0.14877917     0.0008017796 
   1554000   0.04953626    -0.25930708     0.03567258    -0.1493349     -0.00053755415
   1555000   0.049400046   -0.25939026     0.035627356   -0.14966762     0.00046604509
   1556000   0.049728282   -0.25943464     0.035088489   -0.14975854     0.000170263  
   1557000   0.049538955   -0.25940247     0.034931877   -0.15016695     0.0005925253 
   1558000   0.050382066   -0.2601908      0.035422643   -0.14919993    -0.00050725037
   1559000   0.049951809   -0.25956371     0.035718362   -0.14892246     0.00034877462
   1560000   0.050003182   -0.25988567     0.035306676   -0.14957906     0.0010212667 
   1561000   0.049254554   -0.25955179     0.035830146   -0.14984458     0.00077084761
   1562000   0.049726902   -0.25973062     0.035669821   -0.14947526     0.00072132958
   1563000   0.050245464   -0.25993807     0.034814043   -0.14976069     5.2392754e-05
   1564000   0.049786848   -0.25945661     0.035639163   -0.14914199     0.0013105129 
   1565000   0.050896315   -0.25962636     0.035382243   -0.14790457     0.0012226502 
   1566000   0.050226926   -0.26024125     0.035682727   -0.14922299     0.00042876915
   1567000   0.050194783   -0.25976073     0.034895542   -0.14957787     0.00036985909
   1568000   0.050123081   -0.25983899     0.03553555    -0.14912367     0.00032165806
   1569000   0.049473104   -0.2600158      0.035125023   -0.15068591     0.00019442737
   1570000   0.049977969   -0.26017916     0.035632021   -0.14958502     0.00017025968
   1571000   0.050326259   -0.25987879     0.035488344   -0.14890593     0.00074039144
   1572000   0.050157035   -0.2603025      0.035534145   -0.14953765     0.00060845919
   1573000   0.049986603   -0.26036489     0.035144218   -0.1502456      0.00043411307
   1574000   0.049619563   -0.25985845     0.035094926   -0.15033898     0.00019690184
   1575000   0.04988851    -0.26026833     0.035834177   -0.14960622     6.3841926e-05
   1576000   0.049679237   -0.26003251     0.035545528   -0.14997293     0.00056482065
   1577000   0.049900132   -0.26045039     0.035168771   -0.15043625     0.00010635708
   1578000   0.050147884   -0.26019642     0.03530082    -0.14967862     0.00055885564
   1579000   0.049762145   -0.26015543     0.035323119   -0.15019391     6.5250093e-05
   1580000   0.050120146   -0.26061942     0.035083209   -0.15036085     0.00088320946
   1581000   0.050777471   -0.26029171     0.035407235   -0.14872318     0.00028758942
   1582000   0.050113872   -0.26027522     0.034907626   -0.15020163     0.0013739176 
   1583000   0.050081692   -0.2604356      0.035171384   -0.15014652     3.3406323e-05
   1584000   0.050542733   -0.26043326     0.036378201   -0.14824585     0.00057004346
   1585000   0.049377028   -0.26034467     0.035562182   -0.15072173     0.00058784126
   1586000   0.049882295   -0.26042218     0.034984861   -0.15061871     0.00018848495
   1587000   0.050061728   -0.26057495     0.035586486   -0.14990071     0.00085681902
   1588000   0.050227963   -0.26060705     0.034670584   -0.15059938     0.00017677492
   1589000   0.049825564   -0.26039084     0.035258946   -0.15039837     0.00092446831
   1590000   0.050314347   -0.26065607     0.035582942   -0.14960648     0.00089413259
   1591000   0.050424871   -0.26086177     0.035595018   -0.14963432     0.00052341417
   1592000   0.049837515   -0.26075708     0.034957521   -0.15104811     0.00020456804
   1593000   0.049706759   -0.26069898     0.035313088   -0.15083057     0.00044583736
   1594000   0.049883287   -0.26079019     0.035203552   -0.15076653     0.00069577492
   1595000   0.049914081   -0.26074406     0.035154471   -0.15072329     0.00054294958
   1596000   0.050255507   -0.26081575     0.035011549   -0.15042581     0.0010502641 
   1597000   0.049928627   -0.26105663     0.035612672   -0.15055585     0.00092365535
   1598000   0.050356435   -0.26098519     0.035491195   -0.14996422     0.00058125831
   1599000   0.050170923   -0.26083719     0.035819499   -0.14976616    -0.00011853696
   1600000   0.050235902   -0.26083063     0.035238551   -0.15024309     0.00047086782
   1601000   0.050074025   -0.26079209     0.034839709   -0.15084618    -0.00032569516
   1602000   0.050068264   -0.26068082     0.035472326   -0.15011095     0.00030971608
   1603000   0.050610761   -0.26107591     0.03472204    -0.15044263     0.00024530434
   1604000   0.049306116   -0.26129512     0.035810826   -0.15152989     0.00010255773
   1605000   0.050046442   -0.26101044     0.036051552   -0.14989407     0.00024177949
   1606000   0.05019313    -0.26115125     0.034994021   -0.1508724      0.00052267091
   1607000   0.050105759   -0.26162784     0.035032011   -0.15144204    -0.0006761817 
   1608000   0.050108579   -0.26121097     0.03470153    -0.15135142     0.00032700901
   1609000   0.050071039   -0.26173236     0.034712498   -0.15191815    -0.00044938614
   1610000   0.050453518   -0.26133225     0.034829388   -0.15082746     0.00069559676
   1611000   0.049756244   -0.26185169     0.034584292   -0.15263785     0.00068071023
   1612000   0.050016909   -0.26172694     0.03549818    -0.15120824    -0.00029733357
   1613000   0.04955589    -0.26176944     0.035280676   -0.15215972     0.0008691661 
   1614000   0.050053662   -0.26183759     0.03534214    -0.15141981     6.2046468e-05
   1615000   0.050180409   -0.26126511     0.0351051     -0.15089425    -0.00021523934
   1616000   0.049994239   -0.26171284     0.035183388   -0.15154293    -0.00049719328
   1617000   0.049662948   -0.26177501     0.034600864   -0.15268453     0.0011402631 
   1618000   0.050169538   -0.26158502     0.034995733   -0.15133983     0.00060375548
   1619000   0.050429802   -0.26149942     0.035087639   -0.15077196    -0.00016877535
   1620000   0.050084017   -0.26212276     0.0355042     -0.15149738    -0.00059719129
   1621000   0.049427933   -0.26176987     0.036119623   -0.15151313    -0.00032034489
   1622000   0.049764532   -0.26164451     0.034868158   -0.15213437     0.00033317958
   1623000   0.049950037   -0.26212231     0.034446234   -0.15275585     0.0011080391 
   1624000   0.04954809    -0.26214044     0.034679434   -0.15314367     0.00019386642
   1625000   0.050001074   -0.26209502     0.03498452    -0.15211373     0.00086989999
   1626000   0.050104683   -0.26223749     0.034816695   -0.15226862     0.00021797763
   1627000   0.049876335   -0.26197504     0.035278945   -0.15188642     0.00040503189
   1628000   0.050110529   -0.26207544     0.03521154    -0.15170295     0.000250753  
   1629000   0.050209807   -0.26220982     0.036005896   -0.15089407     2.6155963e-05
   1630000   0.05117393    -0.2625706      0.035046253   -0.15076841     0.00015423811
   1631000   0.04975036    -0.26247553     0.035600203   -0.15225461    -8.0194141e-05
   1632000   0.050194102   -0.26234094     0.035612637   -0.15144201    -0.00042535984
   1633000   0.050479277   -0.26242682     0.035199233   -0.15151356     0.00062709156
   1634000   0.049630984   -0.26248974     0.035381023   -0.15266704    -0.00017378237
   1635000   0.049327559   -0.26271523     0.035401081   -0.15332758     0.00066738672
   1636000   0.049797549   -0.26265126     0.035158548   -0.15280121     0.00043412328
   1637000   0.04981432    -0.26219836     0.035571988   -0.15190972     0.00054325726
   1638000   0.050273746   -0.26258438     0.035488693   -0.15168993    -9.8802294e-05
   1639000   0.050005845   -0.26262384     0.035095858   -0.15252405     0.00074794846
   1640000   0.049710742   -0.26271477     0.035562993   -0.15259047    -0.00038071069
   1641000   0.049883485   -0.26273426     0.034994231   -0.15291963     0.00044103787
   1642000   0.049963603   -0.26283731     0.035377242   -0.1525195     -6.4067816e-05
   1643000   0.050473168   -0.26303054     0.035543225   -0.15178245     0.00027012468
   1644000   0.049707244   -0.26248288     0.035342386   -0.15258443     0.0010246334 
   1645000   0.049931686   -0.26284151     0.035235369   -0.15271344     0.00094437077
   1646000   0.05015357    -0.2630616      0.034919241   -0.15291686     0.00093329577
   1647000   0.050163814   -0.2626127      0.03561983    -0.151752       0.00012965914
   1648000   0.050008603   -0.2624772      0.035923106   -0.15154603     0.00019442371
   1649000   0.050131341   -0.26302909     0.03534331    -0.15249362    -8.5530596e-05
   1650000   0.050404518   -0.26276545     0.035276951   -0.1518866      0.00012648688
   1651000   0.050363607   -0.26295628     0.035164656   -0.15225108    -2.0600521e-05
   1652000   0.050141485   -0.26303868     0.035209632   -0.15262167     0.00079499869
   1653000   0.04990367    -0.26304281     0.034816747   -0.15337539     0.00028057259
   1654000   0.050312822   -0.26285875     0.03538435    -0.15201003     0.00063426627
   1655000   0.050274386   -0.26287566     0.035738637   -0.15173031     0.0001332806 
   1656000   0.050418146   -0.26326019     0.035840079   -0.15179777    -0.00070546158
   1657000   0.049303684   -0.26289204     0.035692588   -0.15324869    -0.00015649386
   1658000   0.050198197   -0.2635269      0.035307906   -0.15292655     0.00032215041
   1659000   0.049737957   -0.26302827     0.034944512   -0.15348164     0.00043910522
   1660000   0.049895823   -0.26344146     0.035558357   -0.1530442     -0.00049344617
   1661000   0.050020814   -0.26359718     0.035338707   -0.15323209    -9.4835409e-05
   1662000   0.050244232   -0.2634621      0.035548828   -0.15255179     0.00071508708
   1663000   0.050256509   -0.26343988     0.035350903   -0.15270908     0.00024319165
   1664000   0.049729408   -0.26342805     0.035354528   -0.15348422     0.00060531616
   1665000   0.049425024   -0.26375704     0.034627634   -0.15499666     0.00020356589
   1666000   0.049956478   -0.26379217     0.035599159   -0.15326313    -0.00046340044
   1667000   0.050108002   -0.26344692     0.035330151   -0.15295961     0.00064946742
   1668000   0.049975108   -0.26382932     0.035261941   -0.15360956     0.0012038479 
   1669000   0.049515555   -0.26403051     0.035129991   -0.15463197     0.00060935945
   1670000   0.049609312   -0.26353916     0.035049916   -0.15408008     0.0003866409 
   1671000   0.050165988   -0.26390897     0.035590889   -0.15307396     0.00018520107
   1672000   0.050345863   -0.26355973     0.0357151     -0.1523307     -6.1009861e-05
   1673000   0.050268029   -0.26380223     0.035226906   -0.15317815     0.00026543497
   1674000   0.049872851   -0.26400711     0.035378365   -0.15382429     0.00059580514
   1675000   0.050082876   -0.26410596     0.035718233   -0.15326826     4.5189431e-05
   1676000   0.049708977   -0.26422869     0.036168022   -0.15350202    -0.00011207679
   1677000   0.050224194   -0.26419945     0.03543135    -0.15343667     1.0715278e-05
   1678000   0.050231872   -0.26397106     0.035466755   -0.15316136     9.0611643e-05
   1679000   0.050452413   -0.26434987     0.03531558    -0.15336055    -0.00011068684
   1680000   0.049965965   -0.26466199     0.035201695   -0.15451618     0.00016758089
   1681000   0.04979478    -0.26490558     0.034839099   -0.15537913     0.0010092116 
   1682000   0.049365741   -0.26430147     0.03521137    -0.15504627    -7.6855494e-05
   1683000   0.049891499   -0.2644359      0.035093993   -0.15450949     0.00042393863
   1684000   0.049504443   -0.26449937     0.035036962   -0.15521054     0.0010788943 
   1685000   0.050266811   -0.26498349     0.034972062   -0.15461607     2.1388453e-08
   1686000   0.050475277   -0.2647333      0.035239122   -0.15378615     0.00062398529
   1687000   0.050105639   -0.26425551     0.035472618   -0.15362928     0.00087136617
   1688000   0.04995984    -0.2644088      0.035360938   -0.15411294     0.00055319043
   1689000   0.049654972   -0.2647824      0.03530467    -0.15500008    -0.00023608726
   1690000   0.050404812   -0.2648357      0.035576058   -0.1536573      0.0011375987 
   1691000   0.050397756   -0.26498658     0.035550175   -0.15384465    -0.00019821494
   1692000   0.05063576    -0.26516078     0.035199436   -0.15401261     0.0014141418 
   1693000   0.049979435   -0.26506808     0.036033841   -0.15406992     0.00034624015
   1694000   0.049766569   -0.26532814     0.035005108   -0.155678       0.00075674616
   1695000   0.049593963   -0.26554394     0.034917728   -0.15624007     4.7561787e-05
   1696000   0.050308456   -0.26509976     0.034880005   -0.15476194     0.00092094524
   1697000   0.05012799    -0.26552878     0.035154702   -0.15518695     0.0012002237 
   1698000   0.050091259   -0.2661357      0.036044764   -0.1549589     -2.3056895e-05
   1699000   0.050110439   -0.26577377     0.035310955   -0.155302       0.00042540654
   1700000   0.05019579    -0.26553664     0.035239071   -0.15500875     0.00078695025
   1701000   0.049879707   -0.26576309     0.035318289   -0.15563006    -7.713531e-05 
   1702000   0.049507704   -0.26546309     0.03523351    -0.15597281    -0.00010748027
   1703000   0.050027059   -0.26558078     0.035470343   -0.15507469     0.0012837963 
   1704000   0.049951961   -0.26562738     0.035574989   -0.15512928     0.0011206395 
   1705000   0.049355135   -0.2655061      0.03527099    -0.15620719     0.00081137284
   1706000   0.050266223   -0.26607378     0.035083793   -0.15559552     0.00015854819
   1707000   0.049476295   -0.2656946      0.03546379    -0.15602115     0.00074638855
   1708000   0.049890834   -0.2655516      0.03534186    -0.15537832     0.00067619129
   1709000   0.049558434   -0.26601079     0.035501979   -0.15617595     0.00021793413
   1710000   0.049851719   -0.26576018     0.035307213   -0.15568021     0.00046875328
   1711000   0.049816587   -0.26569445     0.036177891   -0.1547965      0.00036233989
   1712000   0.050394548   -0.26573579     0.035408802   -0.15474004    -0.00069347929
   1713000   0.049459533   -0.26592503     0.034593342   -0.15714717     0.00035195559
   1714000   0.049780336   -0.26575591     0.035537719   -0.1555525      0.00073610547
   1715000   0.050469084   -0.26552078     0.035530462   -0.15429158     0.00061793863
   1716000   0.049913265   -0.26567956     0.035403536   -0.15541096     0.00096982246
   1717000   0.050316849   -0.26581483     0.035319161   -0.15502527     0.00018192859
   1718000   0.049934353   -0.26596312     0.035456661   -0.15560977    -0.0003184718 
   1719000   0.049848882   -0.26614479     0.034818676   -0.15655762     0.00053291414
   1720000   0.049695927   -0.26598907     0.035323055   -0.15612694     0.00037079829
   1721000   0.05034594    -0.26577947     0.035243267   -0.15502217     0.00044126146
   1722000   0.050832669   -0.26594095     0.035238189   -0.15445868     0.00097286252
   1723000   0.050624677   -0.26620736     0.035442923   -0.15483232     0.0003223763 
   1724000   0.049622672   -0.26606079     0.035206144   -0.15642544    -9.957484e-05 
   1725000   0.049579716   -0.26671344     0.035723728   -0.15662494    -8.5631353e-06
   1726000   0.049413401   -0.2664983      0.035149549   -0.15723343     0.00061662056
   1727000   0.049664098   -0.26638689     0.034996915   -0.15689864     0.0004912131 
   1728000   0.049614472   -0.26667594     0.035063017   -0.15719602    -0.00021568653
   1729000   0.049990544   -0.26652468     0.035111523   -0.15643218     0.00028102619
   1730000   0.049787026   -0.26618922     0.035437646   -0.15607585     0.0004171218 
   1731000   0.050283229   -0.26619862     0.035145137   -0.1556335      0.00080568785
   1732000   0.049978214   -0.26637791     0.035366278   -0.15604914     0.00029405696
   1733000   0.050230229   -0.26652357     0.035526028   -0.15565706    -6.7339362e-06
   1734000   0.050236886   -0.26630179     0.035572105   -0.15537922     0.00081815959
   1735000   0.049816027   -0.26691864     0.035599317   -0.1566001      0.00022305649
   1736000   0.049646675   -0.2666466      0.035150803   -0.15703059     0.00051025477
   1737000   0.049907884   -0.2669414      0.03477275    -0.15731166     0.00027048695
   1738000   0.049565101   -0.26711159     0.035188355   -0.15758038    -0.00018982572
   1739000   0.049736846   -0.26680327     0.035281935   -0.15692088     0.00025415927
   1740000   0.050118088   -0.26697934     0.035302887   -0.15650417     0.0010154793 
   1741000   0.050058216   -0.26736384     0.035342662   -0.1569387     -0.00038000414
   1742000   0.05067415    -0.26740706     0.035529679   -0.15587105     0.00019850512
   1743000   0.04996694    -0.26758996     0.035651078   -0.15699331    -0.00024742425
   1744000   0.049340692   -0.26752409     0.035504367   -0.15801346     0.00064011226
   1745000   0.05008901    -0.26752283     0.035213119   -0.15718105     5.4059976e-05
   1746000   0.05053911    -0.2676402      0.03582244    -0.15601399    -0.00053880174
   1747000   0.050542463   -0.26723324     0.035624405   -0.15580003     0.00094614542
   1748000   0.050171092   -0.26782326     0.035314947   -0.15725653    -0.00015290857
   1749000   0.049601061   -0.26778188     0.035502346   -0.15788274     0.00043366083
   1750000   0.050382514   -0.26768567     0.035094586   -0.15702219     0.0011594972 
   1751000   0.049788688   -0.26771427     0.035244202   -0.15779185     0.00067917184
   1752000   0.049983602   -0.26775631     0.03559223    -0.15719351     0.00079797739
   1753000   0.050029615   -0.26772873     0.035488413   -0.15720074     0.00031004248
   1754000   0.050077184   -0.2675561      0.034787308   -0.15765786     0.00084877487
   1755000   0.050388996   -0.26737972     0.035274445   -0.15652665     0.000383705  
   1756000   0.050060047   -0.26799223     0.035570546   -0.15733646     0.00033901479
   1757000   0.050084897   -0.26763766     0.035391344   -0.15712381     0.00055796247
   1758000   0.049352647   -0.26750953     0.035490357   -0.15799498     0.00085149505
   1759000   0.049998235   -0.26772034     0.035468442   -0.15725938     0.0010888583 
   1760000   0.049427795   -0.2676581      0.035733241   -0.15778795     0.00041293884
   1761000   0.049924412   -0.26753188     0.034934745   -0.15771534     0.00023919259
   1762000   0.049693598   -0.2679907      0.036045016   -0.1574101      0.00041125614
   1763000   0.050424975   -0.26775736     0.035368453   -0.15675632    -0.00012213247
   1764000   0.049708745   -0.26797747     0.035241694   -0.15817747     0.00022576267
   1765000   0.049636226   -0.26811046     0.035381494   -0.15827943     0.00071716146
   1766000   0.049251039   -0.26746911     0.035411598   -0.15818572     0.00083027813
   1767000   0.04931087    -0.26771568     0.035449364   -0.15830479     0.00025526622
   1768000   0.050085447   -0.26841606     0.035363319   -0.15792942     0.00080567523
   1769000   0.050275826   -0.26783389     0.035326616   -0.1570984      0.00049295617
   1770000   0.049880086   -0.26782315     0.035400178   -0.15760767     0.00021120177
   1771000   0.049607594   -0.26792784     0.035768574   -0.15775268     7.4819432e-05
   1772000   0.049959797   -0.26822233     0.035454188   -0.15783328     0.00056513831
   1773000   0.049837505   -0.26808757     0.035842373   -0.15749376     0.00023209992
   1774000   0.049510684   -0.26814647     0.03497686    -0.15890838     0.0011511541 
   1775000   0.04926703    -0.2681362      0.035218668   -0.15902175    -0.00016292674
   1776000   0.050160971   -0.26827562     0.035342232   -0.15769679     0.0011196903 
   1777000   0.050373488   -0.26785029     0.035862803   -0.15643213     2.6713968e-05
   1778000   0.050615438   -0.26834701     0.035958      -0.15647075    -1.1236087e-05
   1779000   0.050370765   -0.26837894     0.035531541   -0.15729613     0.00020006731
   1780000   0.050304312   -0.26793868     0.036028065   -0.15645901     0.00019172657
   1781000   0.050185542   -0.2681385      0.034857414   -0.15800763     0.00055903822
   1782000   0.049913332   -0.26805787     0.035406111   -0.15778659    -0.00026100117
   1783000   0.050088419   -0.26824832     0.035530824   -0.15758972     0.00071161185
   1784000   0.050047593   -0.26844355     0.035635861   -0.15774114     2.3874658e-05
   1785000   0.04977756    -0.26861376     0.035758696   -0.15819354     0.00091182613
   1786000   0.050129882   -0.26830806     0.035805413   -0.15731268    -0.00023201834
   1787000   0.049708324   -0.26877396     0.035627259   -0.15858902    -0.00028888854
   1788000   0.049829741   -0.26894883     0.035860743   -0.1583483      0.00020581216
   1789000   0.050093149   -0.26866863     0.03536975    -0.15816401     0.0014636061 
   1790000   0.050225376   -0.2687763      0.035117555   -0.15832554     0.00062913637
   1791000   0.050154476   -0.26856761     0.035794613   -0.15754613     0.00015705186
   1792000   0.050145122   -0.26872033     0.035784666   -0.15772284     7.6404225e-05
   1793000   0.049765604   -0.2684122      0.035724163   -0.15804445     0.00079894229
   1794000   0.049974727   -0.26839262     0.035084001   -0.15835136     0.00071732761
   1795000   0.049808622   -0.26874223     0.035890696   -0.15814342     0.00023498408
   1796000   0.04982301    -0.26867381     0.035492906   -0.15845121    -0.00025336464
   1797000   0.050050701   -0.2685042      0.035283922   -0.15814907     0.00056287758
   1798000   0.05001668    -0.26865457     0.035400466   -0.15823392    -9.9952962e-05
   1799000   0.049978987   -0.26920875     0.035569883   -0.15867522    -0.00010420188
   1800000   0.050483441   -0.26879969     0.034914627   -0.15816479     0.00041060298
   1801000   0.05017452    -0.26898498     0.036035924   -0.15769213     0.00020423667
   1802000   0.050104581   -0.26884988     0.035680937   -0.15801692     0.00034674822
   1803000   0.04989695    -0.26898141     0.035859758   -0.15828105     0.00038206628
   1804000   0.049793114   -0.2693049      0.035356507   -0.15926354     9.0937849e-05
   1805000   0.04972116    -0.26868232     0.035417173   -0.15868822     0.00044408376
   1806000   0.050059681   -0.26877068     0.035035885   -0.15865012     0.00039265816
   1807000   0.05015978    -0.26930476     0.035406339   -0.15866361    -0.00038479524
   1808000   0.049357418   -0.26897638     0.035419162   -0.15952586     0.00045082119
   1809000   0.04970704    -0.26896076     0.03573755    -0.15866746     0.00074415315
   1810000   0.050250043   -0.26926131     0.035333384   -0.15855773     0.00029432399
   1811000   0.05005141    -0.26887558     0.035680781   -0.15812253     0.00084273338
   1812000   0.050224872   -0.26869719     0.035504579   -0.15786017     0.00032460574
   1813000   0.050381765   -0.26898855     0.035555037   -0.15786574     0.00017305525
   1814000   0.049773122   -0.26890851     0.035460343   -0.1587933      0.00011579113
   1815000   0.049458119   -0.2690019      0.035200082   -0.15961943     0.00052056332
   1816000   0.049424928   -0.26940257     0.035362785   -0.15990717    -0.00078038919
   1817000   0.049817115   -0.26928366     0.034878614   -0.1596842     -0.00010674458
   1818000   0.049923937   -0.26955916     0.035196318   -0.15948177     0.00093125906
   1819000   0.050115608   -0.26957367     0.035261881   -0.15914322    -2.9062777e-05
   1820000   0.049943055   -0.26954714     0.035053672   -0.15958372     0.00017108957
   1821000   0.050212946   -0.26943373     0.035563345   -0.15855582     0.00048713105
   1822000   0.050244025   -0.26916534     0.03518076    -0.1586234      0.00040339825
   1823000   0.049477855   -0.26958772     0.035039637   -0.16033609     0.00019892049
   1824000   0.050252953   -0.26956282     0.03583834    -0.15834991     0.00033308442
   1825000   0.050238953   -0.26978876     0.035860828   -0.15857437     8.4265436e-05
   1826000   0.050076515   -0.27001359     0.035602778   -0.15930088     4.8428574e-05
   1827000   0.049829534   -0.2699216      0.035276733   -0.15990539    -3.3109832e-06
   1828000   0.050197681   -0.27014651     0.034941113   -0.15991374     0.00098342681
   1829000   0.050454137   -0.26957417     0.035545012   -0.15835283     0.0011829137 
   1830000   0.050214763   -0.26924789     0.035679077   -0.15825153     0.00016424952
   1831000   0.04986863    -0.26993899     0.035149071   -0.1599918      0.00058679889
   1832000   0.049796702   -0.26999366     0.035553285   -0.15975014     0.0011311312 
   1833000   0.049695394   -0.26964599     0.035233617   -0.15987409     0.00034675037
   1834000   0.04975138    -0.26992247     0.035000737   -0.16029948     0.0014666199 
   1835000   0.050157444   -0.2700289      0.035780025   -0.15901756     0.00033410864
   1836000   0.049911467   -0.26975489     0.035141693   -0.15975082     0.00060106331
   1837000   0.049724193   -0.27008709     0.03490749    -0.16059812     0.00047569642
   1838000   0.050248244   -0.27049515     0.035928445   -0.1591992      1.6985062e-05
   1839000   0.049806417   -0.26988433     0.036182496   -0.15899702     0.00058455128
   1840000   0.050056537   -0.27033508     0.035330542   -0.15992458     0.00041687296
   1841000   0.049639939   -0.26994224     0.034989619   -0.16049752     0.00043463745
   1842000   0.049950205   -0.27031661     0.035429012   -0.15996712    -0.00053667684
   1843000   0.050124754   -0.27037504     0.03554165    -0.15965111     0.00025466496
   1844000   0.049705504   -0.27021555     0.035066679   -0.16059542     0.00085984347
   1845000   0.049880967   -0.27041152     0.035568656   -0.16002625     0.00068607857
   1846000   0.049680335   -0.27059327     0.035080958   -0.16099662     0.00041493112
   1847000   0.050194893   -0.27090425     0.035774556   -0.15984221     0.0012165144 
   1848000   0.049788469   -0.2708489      0.035671928   -0.16049909     0.00031695456
   1849000   0.049390044   -0.27103178     0.035980177   -0.16097132     0.00084698667
   1850000   0.04976492    -0.2706333      0.035106399   -0.16088433     0.00040137669
   1851000   0.050067617   -0.27104515     0.035377718   -0.16057086    -7.1129776e-05
   1852000   0.050084418   -0.27091093     0.035468434   -0.16032071     0.00032531391
   1853000   0.050382811   -0.27072322     0.035465638   -0.15968824     0.00065170378
   1854000   0.049909834   -0.27051025     0.035359443   -0.16029089    -0.00015351344
   1855000   0.050829225   -0.27115886     0.035819462   -0.15910048     0.00036504566
   1856000   0.050480211   -0.27059541     0.035891157   -0.15898882     0.00067633069
   1857000   0.050247354   -0.27072642     0.035825076   -0.15953517    -6.3675388e-05
   1858000   0.05010511    -0.27067012     0.035710186   -0.15980711     0.0012131668 
   1859000   0.05040178    -0.27083583     0.035894427   -0.15934361    -0.00026253253
   1860000   0.049918538   -0.2709042      0.03559428    -0.16043694    -0.00087668611
   1861000   0.049925794   -0.27068546     0.035322592   -0.16047901     0.00064020037
   1862000   0.05006619    -0.27123405     0.034886724   -0.16125289     0.00019150586
   1863000   0.049617619   -0.271174       0.035450893   -0.16130148     0.00018434844
   1864000   0.050299405   -0.27120851     0.036045058   -0.15971921     0.00077526406
   1865000   0.049835788   -0.27157668     0.035051703   -0.16177612     0.00069467373
   1866000   0.049851434   -0.27139676     0.035255593   -0.16136884     1.7114494e-05
   1867000   0.049676511   -0.27143078     0.035603876   -0.16131695     0.00071838822
   1868000   0.049759808   -0.2714162      0.035568041   -0.16121326    -0.00090327577
   1869000   0.050385261   -0.27161328     0.034913367   -0.1611269      0.00058848686
   1870000   0.049854398   -0.27139738     0.035608274   -0.16101234     0.0012646772 
   1871000   0.050190258   -0.27175344     0.035397377   -0.16107553     0.00024875217
   1872000   0.049554577   -0.27158537     0.035591242   -0.16166706    -0.00053801899
   1873000   0.049701778   -0.27154789     0.03500403    -0.161996       0.0013494374 
   1874000   0.049632106   -0.27160804     0.034733254   -0.16243143     0.00070859612
   1875000   0.049509684   -0.27169118     0.035250611   -0.16218083    -0.00054244243
   1876000   0.049342867   -0.27212382     0.035654257   -0.16246004     0.00013640667
   1877000   0.050017057   -0.27195677     0.03531879    -0.16161723     0.00064438848
   1878000   0.049377698   -0.27197359     0.035476478   -0.16243534     0.00039580516
   1879000   0.049761204   -0.27206438     0.035093132   -0.16233425    -0.0011618457 
   1880000   0.050078504   -0.2718045      0.035314994   -0.1613766      0.00050483921
   1881000   0.049411331   -0.27218732     0.035624617   -0.16245049     0.00073969069
   1882000   0.049793781   -0.2723117      0.035537449   -0.16208839    -3.0400134e-05
   1883000   0.049835008   -0.27179287     0.034815116   -0.16223007     0.00024861684
   1884000   0.049432336   -0.27246994     0.035309298   -0.16301693     0.00037388241
   1885000   0.050008856   -0.27206923     0.0359326     -0.16112819     0.00068220749
   1886000   0.049460847   -0.27227095     0.035819736   -0.16226473    -0.00071327779
   1887000   0.049904471   -0.27206428     0.035320365   -0.16189204     0.00031413862
   1888000   0.049743213   -0.27240434     0.035197775   -0.16259656     0.00073088137
   1889000   0.0493012     -0.27267346     0.035237713   -0.16348872     0.00011400236
   1890000   0.049789913   -0.27263752     0.035496293   -0.16246118     0.00019261215
   1891000   0.049901289   -0.27262336     0.035429077   -0.16234718    -0.00049782333
   1892000   0.050407517   -0.27244609     0.034865887   -0.16197381     0.0011544552 
   1893000   0.049959898   -0.27272977     0.035356627   -0.16243813     0.00040646365
   1894000   0.049791998   -0.27231633     0.035043354   -0.1625898      0.00088653523
   1895000   0.049629307   -0.2727232      0.034498243   -0.1637858     -0.00016629934
   1896000   0.049968486   -0.27260308     0.035677836   -0.16197735     0.00074788972
   1897000   0.050086919   -0.27261771     0.035664589   -0.16182759     0.00024435053
   1898000   0.050434113   -0.27282639     0.035198908   -0.1619812      0.00084849995
   1899000   0.049731102   -0.27296127     0.035329622   -0.16303981     0.00088783237
   1900000   0.050058229   -0.27311704     0.03488799    -0.16314655     0.00076753824
   1901000   0.049911744   -0.27317762     0.035064785   -0.16325005     0.00039255225
   1902000   0.04997033    -0.27292377     0.034923664   -0.16304945     0.00074557093
   1903000   0.04993792    -0.27318477     0.035204783   -0.16307794     0.001326192  
   1904000   0.049971628   -0.27319592     0.035693271   -0.16255004    -0.00057766284
   1905000   0.049761537   -0.27291091     0.035761319   -0.1625121      0.00026198898
   1906000   0.049722914   -0.27335042     0.036129994   -0.16264087    -0.00054449958
   1907000   0.049513131   -0.27296985     0.035291281   -0.16341367     0.00037520653
   1908000   0.049702319   -0.27331379     0.035161643   -0.16360348     0.00079969827
   1909000   0.050405734   -0.2728491      0.035766619   -0.16147876     0.00014635175
   1910000   0.04952175    -0.27323197     0.035488241   -0.1634659     -0.00036483474
   1911000   0.050185491   -0.27337047     0.035190751   -0.16290634     0.00063562711
   1912000   0.049928393   -0.27341394     0.035316128   -0.16321006     0.00013128117
   1913000   0.050001858   -0.27333127     0.035331069   -0.16300226     0.00033240408
   1914000   0.050418908   -0.27320182     0.035015557   -0.16256278     0.00020022274
   1915000   0.049343505   -0.27352309     0.035101132   -0.16441148     0.0006652895 
   1916000   0.049772321   -0.2734062      0.035656452   -0.16309609     0.00033709752
   1917000   0.05064587    -0.27323524     0.035746635   -0.1615247      0.00041300598
   1918000   0.050333436   -0.27337986     0.03612156    -0.16176302    -0.00010350861
   1919000   0.049629928   -0.2729434      0.035378363   -0.16312495     0.0010125355 
   1920000   0.04973849    -0.27339409     0.034981592   -0.16380958     0.0013844651 
   1921000   0.051006969   -0.27365413     0.03554773    -0.16160088     7.8203574e-05
   1922000   0.05009239    -0.27340632     0.035111456   -0.16316113     0.00041161143
   1923000   0.050421531   -0.27340462     0.034753766   -0.16302343     0.00076064456
   1924000   0.050308717   -0.27356675     0.034941807   -0.16316674     0.0007761494 
   1925000   0.050066385   -0.27350548     0.035086591   -0.16332416    -6.5086216e-05
   1926000   0.049808231   -0.27345337     0.035830548   -0.1629153      0.00012313505
   1927000   0.049473497   -0.27373332     0.03611044    -0.16341742    -0.00059310074
   1928000   0.050847977   -0.27337873     0.035479314   -0.16163237     0.00047539592
   1929000   0.050001029   -0.27350484     0.035594381   -0.16291375     0.00045926301
   1930000   0.049919199   -0.27351363     0.035486187   -0.16315348     0.00075836335
   1931000   0.049792125   -0.27358419     0.035090665   -0.16381016    -0.00031967512
   1932000   0.050292527   -0.27372745     0.035866679   -0.16242685     0.00030771275
   1933000   0.050528476   -0.27384309     0.035865622   -0.16218965     3.397318e-05 
   1934000   0.049999405   -0.27377385     0.035625614   -0.16315396    -9.7311571e-05
   1935000   0.049595899   -0.27358976     0.035167427   -0.16403329     0.00091587092
   1936000   0.049938451   -0.27352289     0.034987607   -0.16363244     0.00050818636
   1937000   0.049875473   -0.27362776     0.036031486   -0.1627879     -0.00025974524
   1938000   0.049922068   -0.273848       0.035472872   -0.16349686     0.00048356036
   1939000   0.050231694   -0.27382128     0.035783651   -0.16269495     0.00090335411
   1940000   0.049734545   -0.27372907     0.035436606   -0.16369546     0.00059633853
   1941000   0.050280555   -0.27363255     0.035263783   -0.1629528      0.00032414995
   1942000   0.050125731   -0.27388308     0.035568863   -0.16313047     4.8518076e-05
   1943000   0.050266155   -0.27369347     0.03558084    -0.16271827     0.00066616366
   1944000   0.050248972   -0.27401923     0.035032965   -0.16361767     0.00078297706
   1945000   0.049659189   -0.27360173     0.035441596   -0.16367616     0.00012349241
   1946000   0.049255058   -0.27381934     0.035614798   -0.16432672    -3.3062097e-06
   1947000   0.050498325   -0.27405025     0.035143117   -0.16316453     0.0013882098 
   1948000   0.050649754   -0.27402478     0.035651971   -0.16240308     0.00070505913
   1949000   0.050720471   -0.27365468     0.036139896   -0.16143898     0.00036386737
   1950000   0.05067711    -0.27383917     0.035330129   -0.16249828     0.00030232375
   1951000   0.050282756   -0.27406591     0.035404115   -0.16324253     0.00072892378
   1952000   0.051003853   -0.27398273     0.034975291   -0.1625066      0.00053589578
   1953000   0.050205838   -0.27396297     0.035535667   -0.16312341     0.0010041916 
   1954000   0.050102386   -0.27396086     0.035998281   -0.16281385     8.7442939e-05
   1955000   0.050396506   -0.27405697     0.035565871   -0.16290121    -9.6407302e-05
   1956000   0.050176867   -0.27434929     0.034658755   -0.16443009    -0.00063729307
   1957000   0.050082823   -0.27425567     0.035589873   -0.16354641     0.00092543379
   1958000   0.049872441   -0.27402503     0.03598734    -0.16323385     0.00024350559
   1959000   0.050239305   -0.27381672     0.035627209   -0.16283541     0.00092997602
   1960000   0.050070209   -0.27442312     0.035605891   -0.16371676    -5.0914936e-05
   1961000   0.049694349   -0.27391225     0.03491617    -0.16445937     0.001503493  
   1962000   0.050600429   -0.27430718     0.035150907   -0.16326053     0.00072188417
   1963000   0.049858149   -0.27401235     0.035258628   -0.16397132     0.0010105707 
   1964000   0.049897495   -0.27462775     0.035954137   -0.1638322      0.0005138427 
   1965000   0.050538143   -0.2746968      0.035798521   -0.16309596     0.0001550968 
   1966000   0.049800311   -0.27473743     0.035626046   -0.16441574     0.00030627486
   1967000   0.049659213   -0.27440279     0.035551761   -0.16436702     7.7561297e-05
   1968000   0.049447794   -0.27437764     0.035338921   -0.16487182    -0.00054587251
   1969000   0.050414187   -0.27461464     0.035371482   -0.16362676     0.00099833319
   1970000   0.049956308   -0.27502372     0.035430522   -0.16466357    -9.3288871e-05
   1971000   0.049739967   -0.27495072     0.035634109   -0.16471147     0.00019429151
   1972000   0.050146933   -0.27455364     0.035628502   -0.1637096      0.00024177978
   1973000   0.049706496   -0.27480125     0.035145388   -0.16510093     0.0011060917 
   1974000   0.050305126   -0.27447676     0.035468815   -0.16355513     0.00078150079
   1975000   0.049984427   -0.27462537     0.03553391    -0.16411966    -0.00024899504
   1976000   0.050429894   -0.27444246     0.035402603   -0.1633999      0.0013426631 
   1977000   0.050539478   -0.27466248     0.035297717   -0.16356044     0.00032173825
   1978000   0.049714428   -0.2744167      0.035973053   -0.16387682     0.00010216819
   1979000   0.049908864   -0.27447475     0.03557405    -0.16404223     0.00087712401
   1980000   0.050041679   -0.27479153     0.035780664   -0.16395319     0.00065847734
   1981000   0.049810094   -0.27492634     0.035510082   -0.16470594     0.0005852791 
   1982000   0.049889411   -0.27456655     0.035665349   -0.16407192     0.00015442261
   1983000   0.050141663   -0.27442693     0.035175203   -0.16404408     0.00099279986
   1984000   0.049815177   -0.27485952     0.036128058   -0.16401352    -9.6629971e-05
   1985000   0.04982973    -0.27488053     0.035587171   -0.16455359     0.0002623523 
   1986000   0.049951243   -0.27477065     0.035546214   -0.16430241     0.00055309883
   1987000   0.050385029   -0.2747001      0.035802008   -0.16332542     0.00018411641
   1988000   0.050062717   -0.27493577     0.035827305   -0.16401923     0.00094970833
   1989000   0.050375367   -0.27502138     0.035455548   -0.16400766     0.00065341384
   1990000   0.050076074   -0.2751006      0.035481995   -0.16450934     0.00072932471
   1991000   0.050388946   -0.27508644     0.03483589    -0.16467201     0.00044825026
   1992000   0.050286721   -0.27480311     0.03539215    -0.16398574     0.0005142818 
   1993000   0.050054793   -0.27510313     0.035564283   -0.1644615      0.000442563  
   1994000   0.049791212   -0.27494998     0.035904945   -0.16436304     0.00022101574
   1995000   0.049864711   -0.27504764     0.035365837   -0.16488956     0.00051572145
   1996000   0.049849445   -0.27510564     0.035344267   -0.16499203     0.00048284304
   1997000   0.049911292   -0.27512886     0.035360898   -0.16490586     0.00067697886
   1998000   0.04981493    -0.27496761     0.034768243   -0.16548179     0.00071978105
   1999000   0.049730632   -0.27477973     0.035312618   -0.16487598     0.00038560753
   2000000   0.050257118   -0.27545989     0.035206834   -0.16487225     0.00065362668
   2001000   0.050238119   -0.27510387     0.035195735   -0.16455582    -5.9382561e-05
   2002000   0.049859082   -0.27524275     0.035554434   -0.16490452    -3.5621783e-05
   2003000   0.04979709    -0.27544605     0.036085557   -0.16466968     0.00032211612
   2004000   0.049695353   -0.27534732     0.036144275   -0.16466482    -0.00033317423
   2005000   0.049732585   -0.27546029     0.035567603   -0.16529862    -0.00031739284
   2006000   0.050121885   -0.2752443      0.03490887    -0.16515745     0.0010621977 
   2007000   0.049748943   -0.27560259     0.035534437   -0.16544956     0.00062033468
   2008000   0.049607425   -0.27562743     0.035562539   -0.16565856     5.1913152e-05
   2009000   0.049777255   -0.27558531     0.03587971    -0.16504453    -8.041289e-05 
   2010000   0.049554686   -0.27561024     0.035126184   -0.16615683     0.0008809284 
   2011000   0.049921938   -0.27559294     0.035629618   -0.16508525     0.00071344051
   2012000   0.04985964    -0.27564336     0.035359643   -0.16549908    -0.00034093537
   2013000   0.050023328   -0.27502595     0.035243179   -0.16475262     0.00085479202
   2014000   0.049943713   -0.27545514     0.035099945   -0.16544446     0.0012358248 
   2015000   0.05049569    -0.27586        0.035659889   -0.16446146     0.00043668219
   2016000   0.050356355   -0.27593489     0.036101915   -0.16430331     0.00042077798
   2017000   0.050556538   -0.27596454     0.035605285   -0.16452934     0.00010588815
   2018000   0.049668221   -0.27598609     0.035629821   -0.16585874     0.00040149779
   2019000   0.050308699   -0.27581896     0.03547748    -0.1648833      0.00075353629
   2020000   0.050120188   -0.2758722      0.035491698   -0.16520507     1.7701007e-05
   2021000   0.049521411   -0.27626727     0.035404426   -0.16658552     0.00048469874
   2022000   0.049651182   -0.27615423     0.035664063   -0.1660182      0.0001981993 
   2023000   0.049853912   -0.27615888     0.034991522   -0.16639131    -4.8683058e-05
   2024000   0.05059154    -0.27612418     0.035634139   -0.16460762     0.00028249388
   2025000   0.05019279    -0.27607636     0.035127661   -0.16566437     0.00061635933
   2026000   0.04989452    -0.27650609     0.035360437   -0.1663087      0.00017431141
   2027000   0.049588874   -0.27646071     0.03562961    -0.16645259     0.0010096505 
   2028000   0.049803575   -0.27637054     0.035774193   -0.1658958     -0.00022106017
   2029000   0.049909186   -0.27650874     0.035451994   -0.16619779     0.00039525897
   2030000   0.050177846   -0.27623699     0.035167958   -0.16580712     0.0013986417 
   2031000   0.050098344   -0.27645344     0.035212917   -0.16609786     0.00018381638
   2032000   0.050094309   -0.27668724     0.035528436   -0.16602219    -0.00043177256
   2033000   0.049889283   -0.27665782     0.035208077   -0.16662065     0.00010055514
   2034000   0.049814637   -0.27673165     0.035535575   -0.16647894     0.00052044958
   2035000   0.049347389   -0.27679927     0.035101366   -0.1676816      0.00018768019
   2036000   0.049777755   -0.27668633     0.035312431   -0.16671208    -0.00051065898
   2037000   0.049834426   -0.27723654     0.035066931   -0.16742279     0.00054278589
   2038000   0.050005021   -0.27692244     0.03527213    -0.16664762     0.00084870932
   2039000   0.050378684   -0.27671092     0.035657048   -0.16549072     0.00089650214
   2040000   0.050037906   -0.27684374     0.035636968   -0.16615476    -7.9667749e-06
   2041000   0.049608388   -0.27684389     0.035480662   -0.16695545    -0.00025400415
   2042000   0.050284011   -0.27665984     0.035828568   -0.16541012     0.00085292399
   2043000   0.05033296    -0.27704408     0.036154608   -0.16539491    -0.00034264284
   2044000   0.050390923   -0.27692602     0.035275337   -0.16606918     9.2127827e-05
   2045000   0.05009459    -0.27693311     0.035657554   -0.16613852     0.00063346342
   2046000   0.049742912   -0.2765856      0.035374982   -0.16660106     0.0012610398 
   2047000   0.05043809    -0.27706765     0.035865064   -0.16555033     0.00032123316
   2048000   0.050124321   -0.27659168     0.035585808   -0.16582425     0.00071617499
   2049000   0.050441906   -0.27693188     0.035341189   -0.16593271     0.00087114121
   2050000   0.049568943   -0.27701831     0.035339035   -0.16733065     0.00018499399
   2051000   0.050718185   -0.27742518     0.035409665   -0.16594315     0.00035184479
   2052000   0.049909404   -0.27688915     0.035554981   -0.16647489     2.4435559e-05
   2053000   0.050140357   -0.27719862     0.035259956   -0.16673298     0.00072307816
   2054000   0.050364884   -0.27699635     0.035576213   -0.16587768     0.00085874021
   2055000   0.049642543   -0.27699798     0.035494591   -0.16704437     7.4438442e-05
   2056000   0.049784469   -0.27726576     0.035578825   -0.16701505     0.00048409402
   2057000   0.049948966   -0.27740441     0.035534934   -0.16695087    -0.00036885712
   2058000   0.04979849    -0.27725913     0.035286504   -0.16727971    -0.0002753412 
   2059000   0.049931268   -0.27762897     0.035459994   -0.16727691    -7.6242706e-07
   2060000   0.049770652   -0.27763968     0.035387188   -0.16760133     0.00098640769
   2061000   0.05047361    -0.27767991     0.035098108   -0.16687627     0.00073841979
   2062000   0.049810998   -0.27720083     0.034796428   -0.16769273     0.00072745665
   2063000   0.049118945   -0.27748996     0.035350687   -0.1684656     -0.00024442941
   2064000   0.04952108    -0.27781337     0.035693054   -0.16784349    -0.00023683342
   2065000   0.050085824   -0.27744496     0.035425938   -0.16689513     0.00053173192
   2066000   0.050166486   -0.27770242     0.03518522    -0.16727232     7.6088875e-05
   2067000   0.050576015   -0.27764793     0.03508045    -0.16670836     0.000681844  
   2068000   0.050155772   -0.277244       0.035663947   -0.16635125     0.00081871756
   2069000   0.049526062   -0.27729121     0.035312852   -0.16769406     0.00014320606
   2070000   0.050139037   -0.27732946     0.035306697   -0.16681906     0.00059489658
   2071000   0.050520522   -0.27749366     0.035198277   -0.16651948     0.00060489842
   2072000   0.049433077   -0.27773472     0.035209654   -0.16838024     0.0010516047 
   2073000   0.049675784   -0.27801572     0.035855063   -0.16765179    -0.0010181722 
   2074000   0.049745033   -0.27756393     0.035634811   -0.16731638     5.5544284e-05
   2075000   0.050334129   -0.27801719     0.035677115   -0.16684375    -0.00030687322
   2076000   0.049746064   -0.27795522     0.035509225   -0.16783171    -0.00019865759
   2077000   0.04977804    -0.27784972     0.035571648   -0.16761583     0.00056522705
   2078000   0.049695126   -0.27798505     0.035694951   -0.16775222    -0.00027685072
   2079000   0.050077082   -0.27785033     0.035907669   -0.16683189     0.00089080716
   2080000   0.050220531   -0.27801203     0.035804938   -0.16688116    -0.00035825403
   2081000   0.049896454   -0.27770364     0.035977079   -0.16688671    -0.00029749542
   2082000   0.050187345   -0.27758522     0.035518826   -0.16679024    -0.00046994158
   2083000   0.050492987   -0.27799709     0.035443521   -0.16681897     0.00052410993
   2084000   0.049484377   -0.27834383     0.036154307   -0.16796774     0.00072737184
   2085000   0.050186333   -0.27770409     0.035302239   -0.16712721     0.0009395622 
   2086000   0.050147547   -0.27775079     0.035712758   -0.16682156    -0.00083095222
   2087000   0.050564699   -0.27796635     0.035666042   -0.16645815     0.00097295149
   2088000   0.050233109   -0.27777706     0.036255891   -0.16617637    -0.00060610664
   2089000   0.050264098   -0.27788733     0.035564969   -0.16693108     0.00046523374
   2090000   0.050184635   -0.27793942     0.03530591    -0.16736141     0.00037366912
   2091000   0.049932347   -0.27814407     0.035186811   -0.16806357    -0.00082455001
   2092000   0.050159248   -0.27767501     0.035059278   -0.16738171     0.0010171789 
   2093000   0.049308888   -0.27792731     0.035271318   -0.16869743     0.00022231236
   2094000   0.049968741   -0.2779528      0.035341442   -0.16766309    -0.00011195994
   2095000   0.050281107   -0.27798507     0.035354024   -0.16721425     0.0001581685 
   2096000   0.050021122   -0.27832675     0.035455912   -0.16784399    -0.00019359383
   2097000   0.049891172   -0.2777788      0.035409571   -0.1675373     -0.0002194423 
   2098000   0.049784529   -0.27806292     0.035357312   -0.16803364    -1.0438484e-05
   2099000   0.050592368   -0.27837741     0.035068976   -0.16742477     0.00053519747
   2100000   0.049852822   -0.27795871     0.035798607   -0.16738569     0.00092926454
   2101000   0.04958245    -0.2779169      0.035218458   -0.16832957     0.0014951088 
   2102000   0.04983144    -0.27805495     0.035516741   -0.16779587    -0.0005626041 
   2103000   0.050133945   -0.27817626     0.035030374   -0.16794982     0.00038414597
   2104000   0.050208886   -0.27800365     0.035233577   -0.16746161     0.001466238  
   2105000   0.050034245   -0.2780772      0.035358837   -0.16767183     0.00046759086
   2106000   0.04970195    -0.27809494     0.035094705   -0.16845212     0.00020474585
   2107000   0.04964216    -0.27815491     0.034570009   -0.16912646     0.0012718899 
   2108000   0.04978282    -0.27858294     0.034767154   -0.16914638     0.00096942137
   2109000   0.049182378   -0.27863743     0.035291191   -0.16957743    -0.00044583414
   2110000   0.049781394   -0.27866354     0.034690749   -0.16930552     0.00023451695
   2111000   0.049985248   -0.27828972     0.034831546   -0.16848514     0.00026213992
   2112000   0.049980129   -0.27848474     0.035035771   -0.16848361     0.00061080353
   2113000   0.049607604   -0.27852914     0.03531473    -0.1688078     -0.00012190394
   2114000   0.049919815   -0.27842552     0.034817013   -0.16873362     0.0010719657 
   2115000   0.049651184   -0.27839865     0.035168951   -0.16875773    -0.00025553441
   2116000   0.049907853   -0.27834377     0.03632963    -0.16715719     0.00071208394
   2117000   0.049855221   -0.27850213     0.035968556   -0.16775557    -0.00034323831
   2118000   0.049997498   -0.27838092     0.035848699   -0.16754081    -5.5979293e-05
   2119000   0.050142158   -0.27839759     0.035435583   -0.16775362     0.0010598438 
   2120000   0.050142618   -0.27822381     0.035469566   -0.16754517    -0.00027217662
   2121000   0.050125215   -0.27863296     0.035499126   -0.16795086     0.00066962418
   2122000   0.050449792   -0.27812814     0.035853656   -0.16660468     0.00016907857
   2123000   0.049723828   -0.27836908     0.035251687   -0.16853646     0.00030311996
   2124000   0.049319667   -0.27876718     0.035400957   -0.1693915     -4.8300018e-05
   2125000   0.049985899   -0.27859148     0.035004124   -0.16861335     0.0017326425 
   2126000   0.049660569   -0.27886045     0.03541976    -0.16895465     0.0003186932 
   2127000   0.049728116   -0.2787229      0.035133046   -0.16900249     0.00091245823
   2128000   0.050089119   -0.27859523     0.036129872   -0.16733653     0.0008973635 
   2129000   0.049188738   -0.2788492      0.035818575   -0.16925228     0.00031765747
   2130000   0.050217997   -0.27903443     0.035122853   -0.16858944     0.00039606747
   2131000   0.049581689   -0.27866542     0.035522427   -0.16877526    -0.00054944992
   2132000   0.049937581   -0.2787563      0.034842796   -0.16901197     0.00057161225
   2133000   0.049680154   -0.27874521     0.035408297   -0.16882149     0.00014963445
   2134000   0.050141428   -0.27879084     0.035802721   -0.16778083    -0.00023625405
   2135000   0.050391687   -0.27867186     0.035295928   -0.16779328     0.00080788922
   2136000   0.049893872   -0.27878867     0.035716366   -0.16823633     3.404254e-05 
   2137000   0.049679368   -0.2789073      0.035164268   -0.16922879     0.00020627134
   2138000   0.050488515   -0.27887152     0.035502478   -0.16764116     0.0011593702 
   2139000   0.050658384   -0.27897539     0.035148346   -0.16784437    -0.00018250694
   2140000   0.049860393   -0.27896988     0.035377724   -0.16880639     0.00036535162
   2141000   0.050239418   -0.27927955     0.035185144   -0.16874014     0.0001233844 
   2142000   0.050536022   -0.27903398     0.035637031   -0.16759781     0.0003030344 
   2143000   0.049404928   -0.27881086     0.035783832   -0.16892442    -0.00065094645
   2144000   0.049824133   -0.27912435     0.035501548   -0.16889143     0.00061473163
   2145000   0.049752548   -0.27902278     0.035793644   -0.16860512     0.0002662049 
   2146000   0.050121404   -0.27860056     0.035188377   -0.16823493     0.0014212991 
   2147000   0.050229311   -0.27910671     0.035896786   -0.16787082     0.00045832292
   2148000   0.049854448   -0.27894807     0.035320802   -0.16885042     0.00011157899
   2149000   0.05035633    -0.27918218     0.035339264   -0.16831329     0.00060088463
   2150000   0.049997676   -0.27893643     0.0348544     -0.16909036     0.001212515  
   2151000   0.050355573   -0.27913703     0.03491405    -0.16869449     0.0005431599 
   2152000   0.050452259   -0.2789611      0.035405534   -0.16788206     0.0011910531 
   2153000   0.049814777   -0.27944661     0.035539514   -0.16918975    -0.00022003018
   2154000   0.049985347   -0.27916509     0.035380757   -0.16881115     0.00059329782
   2155000   0.05002075    -0.27898625     0.0351071     -0.16885286     0.00012593255
   2156000   0.049786523   -0.27956204     0.035725935   -0.16916113     0.00022852793
   2157000   0.049911083   -0.27939418     0.035427619   -0.16910477     0.00057478589
   2158000   0.049997113   -0.27940421     0.035999232   -0.16841414     0.00083817842
   2159000   0.049563116   -0.27951617     0.035726441   -0.16944985    -0.00045696927
   2160000   0.050001834   -0.27948128     0.035676823   -0.16880655     0.00081888787
   2161000   0.051177672   -0.27929894     0.035760015   -0.16677737     0.00034510807
   2162000   0.049898138   -0.27924776     0.0365837     -0.16782168     0.00035812647
   2163000   0.050170272   -0.27982614     0.035282339   -0.16929325    -0.00026245071
   2164000   0.050214783   -0.27943986     0.035875772   -0.16824678     0.00083606765
   2165000   0.050681322   -0.27957432     0.035300962   -0.16825628     0.00040984245
   2166000   0.050756645   -0.2796917      0.035145591   -0.16841605     0.0011743886 
   2167000   0.050475046   -0.27970769     0.035551215   -0.16844879     0.000826007  
   2168000   0.050011112   -0.27961563     0.035060188   -0.16954361    -0.00017005722
   2169000   0.050487085   -0.27954977     0.035421798   -0.16840223    -0.00041173587
   2170000   0.050066682   -0.27960353     0.035578547   -0.1689298      0.00046139563
   2171000   0.049897356   -0.27930025     0.0354277     -0.16903135     0.0004571532 
   2172000   0.050205356   -0.2796978      0.035361837   -0.16903279     0.00023033657
   2173000   0.050730114   -0.27959846     0.035678212   -0.16782998     0.00042075312
   2174000   0.049669393   -0.27994149     0.034947937   -0.17049427    -5.981523e-05 
   2175000   0.049824352   -0.27984376     0.035639356   -0.1694727      0.00067356374
   2176000   0.04959086    -0.27990641     0.035473955   -0.17005096    -0.00054238399
   2177000   0.050059711   -0.27999946     0.035982861   -0.16893188     0.00018570356
   2178000   0.050923949   -0.27986599     0.035890973   -0.16759402     0.0010568382 
   2179000   0.049761537   -0.28012572     0.035368379   -0.17011985     0.00022848345
   2180000   0.049652706   -0.27980638     0.035165786   -0.17016634     0.00050486269
   2181000   0.050334176   -0.28015804     0.034747514   -0.16991413     0.00051868122
   2182000   0.049413227   -0.28015693     0.035446799   -0.17059508     0.00010748731
   2183000   0.049995085   -0.28010864     0.035787241   -0.16933361     0.00010697464
   2184000   0.05006396    -0.28000729     0.035785366   -0.16913083    -0.00037304215
   2185000   0.05031682    -0.28016466     0.035335036   -0.16935926    -0.0010144631 
   2186000   0.050135971   -0.28030677     0.035200514   -0.16990715     0.00039712176
   2187000   0.050670317   -0.28048968     0.035036548   -0.16945256    -1.3413337e-05
   2188000   0.050385831   -0.28050224     0.035461244   -0.16946712     0.00095544586
   2189000   0.050423876   -0.28057201     0.035473946   -0.16946713     0.00094577588
   2190000   0.050619887   -0.28019954     0.035667218   -0.16860739     0.00070697681
   2191000   0.050026055   -0.28049589     0.036108989   -0.16935266     0.00026453808
   2192000   0.050045348   -0.28058031     0.036198339   -0.16931879     4.7209896e-05
   2193000   0.050054539   -0.28062215     0.035243652   -0.17030154    -0.00074395141
   2194000   0.049793409   -0.28072221     0.035648593   -0.17038833     0.00017070256
   2195000   0.049782873   -0.28093014     0.036524541   -0.16973611    -0.00029097748
   2196000   0.05004677    -0.28094179     0.035313511   -0.17056297     0.00050282495
   2197000   0.05040786    -0.28089088     0.035397941   -0.16988603    -0.00030005568
   2198000   0.050012461   -0.28084686     0.035928089   -0.16990492     6.2349038e-06
   2199000   0.04951158    -0.2802184      0.035373407   -0.17058241     9.4651368e-05
   2200000   0.050241412   -0.2802551      0.035267438   -0.16963041     0.0016086353 
   2201000   0.05007143    -0.28060491     0.036252764   -0.16924985     4.5502115e-05
   2202000   0.050145349   -0.28089429     0.035783716   -0.1698974      0.00046084453
   2203000   0.04932795    -0.28033297     0.035177455   -0.17116836     0.00021464601
   2204000   0.050012851   -0.28078535     0.035512682   -0.17025823    -0.00016177671
   2205000   0.05024247    -0.28060407     0.035254176   -0.16999106     0.00052069673
   2206000   0.050070987   -0.28097059     0.035890691   -0.16997826     0.0004861428 
   2207000   0.050331638   -0.28078701     0.035667245   -0.16962718     0.00014031785
   2208000   0.049590705   -0.28067768     0.036235294   -0.17006113     0.00080607886
   2209000   0.049927082   -0.28066082     0.03551298    -0.17026205     0.00088809928
   2210000   0.049917468   -0.28058398     0.035775254   -0.16993735    -0.00011349065
   2211000   0.049513716   -0.28100113     0.035748379   -0.17098697    -0.00049484742
   2212000   0.050554185   -0.28064587     0.035455012   -0.16936447    -6.8842082e-05
   2213000   0.050257442   -0.28059005     0.035562955   -0.16964579     0.00013652559
   2214000   0.049948644   -0.28086558     0.035362159   -0.17058529    -8.0283e-06   
   2215000   0.049828223   -0.28098086     0.035876973   -0.17036637    -0.00042841328
   2216000   0.0504632     -0.28098899     0.035561371   -0.1697377      0.00037133711
   2217000   0.050047725   -0.28070579     0.035399268   -0.17023978     0.00053825943
   2218000   0.050102608   -0.28082581     0.036052979   -0.16962377     0.00060045912
   2219000   0.050096073   -0.28070449     0.035295173   -0.17027006     0.00041551639
   2220000   0.050184667   -0.28090486     0.035039165   -0.17059355     0.00083975978
   2221000   0.049950595   -0.28093699     0.035026331   -0.1709896      6.120802e-05 
   2222000   0.049637982   -0.28097282     0.035221594   -0.17129906     0.00028666596
   2223000   0.049290677   -0.28100476     0.035062571   -0.17201095     0.00037994832
   2224000   0.049477131   -0.28123683     0.03565708    -0.17136884    -0.00052434859
   2225000   0.050140824   -0.28098973     0.035152178   -0.17063116     0.00029356114
   2226000   0.049592462   -0.2812435      0.035709096   -0.17115051    -0.0011427301 
   2227000   0.049572753   -0.28113891     0.035869826   -0.17091475     0.00026258546
   2228000   0.050103602   -0.28155238     0.035783932   -0.17061789     0.00042803832
   2229000   0.049759598   -0.28111128     0.035672223   -0.17080448     0.0010482035 
   2230000   0.050465775   -0.28134094     0.035768665   -0.1698785      0.00030856611
   2231000   0.050205282   -0.28124008     0.035536235   -0.17040078     4.091298e-05 
   2232000   0.049773067   -0.28127058     0.034856256   -0.17175954     0.00022060387
   2233000   0.050200805   -0.28128529     0.035931531   -0.17005741     0.00076216543
   2234000   0.04990163    -0.28133503     0.035671455   -0.17081596     0.00069325493
   2235000   0.049643445   -0.28143007     0.035610355   -0.17135935    -0.00031754411
   2236000   0.05008858    -0.28120938     0.035354014   -0.17072734     0.0013353226 
   2237000   0.049854943   -0.28160002     0.035982215   -0.17084022    -0.00062799397
   2238000   0.050663572   -0.28129072     0.035274747   -0.17002552     0.00052558265
   2239000   0.05004066    -0.28134076     0.035474965   -0.17080965     0.00038510471
   2240000   0.049749378   -0.2811755      0.035730769   -0.17082548     0.00025699883
   2241000   0.050322114   -0.28207443     0.035232553   -0.17136357     8.5929486e-06
   2242000   0.049602226   -0.28150098     0.035732212   -0.17137022     0.00072970053
   2243000   0.049711767   -0.28133997     0.035805533   -0.1709716     -0.00022630814
   2244000   0.050282466   -0.28123622     0.035646198   -0.17017119     0.00019729271
   2245000   0.05027945    -0.28094338     0.035519009   -0.17001006     0.00042920269
   2246000   0.050047234   -0.28154209     0.03564555    -0.17083053    -0.00012822818
   2247000   0.050076963   -0.28158064     0.035725544   -0.1707445      0.00056573934
   2248000   0.049549628   -0.28172701     0.035511614   -0.17189575     0.00038698919
   2249000   0.049938096   -0.28156843     0.034999221   -0.1716669     -0.00013787332
   2250000   0.049595667   -0.28136388     0.035014376   -0.1719608      0.00079545731
   2251000   0.049624745   -0.28140388     0.036041869   -0.1709297     -9.0836067e-06
   2252000   0.050214027   -0.2813575      0.03550677    -0.17053455    -0.00013565551
   2253000   0.049414988   -0.28168262     0.035947644   -0.17161728     8.4762682e-05
   2254000   0.04967825    -0.28148591     0.035387582   -0.17158576     0.00061294033
   2255000   0.04983869    -0.2814669      0.035190677   -0.17152301     0.00072788273
   2256000   0.05010164    -0.28156515     0.035252774   -0.17116476    -1.6858161e-05
   2257000   0.049893585   -0.2819356      0.035528114   -0.17157193     0.00013307101
   2258000   0.050008977   -0.28149534     0.035812685   -0.17067403    -0.00028003039
   2259000   0.05030996    -0.28148602     0.035687421   -0.17033853    -0.00062094373
   2260000   0.050655451   -0.28161211     0.035493072   -0.17014076     0.00024063077
   2261000   0.050167757   -0.28185586     0.035835892   -0.17077319     0.000417407  
   2262000   0.050166614   -0.28160018     0.03566697    -0.17068814     0.00039653581
   2263000   0.049409211   -0.28177555     0.036118067   -0.17154845     0.00039736834
   2264000   0.049891731   -0.28165045     0.034889823   -0.17192786     0.00037739911
   2265000   0.049837046   -0.28191349     0.03561298    -0.17154977    -5.6664065e-05
   2266000   0.049861054   -0.28148965     0.035277665   -0.17142523     0.00028867759
   2267000   0.050010342   -0.28163622     0.035682397   -0.17094315     0.00066992132
   2268000   0.049654776   -0.28156034     0.035432126   -0.17165085     0.00010578274
   2269000   0.050090407   -0.28155742     0.035186201   -0.17124046     0.00052998815
   2270000   0.050165072   -0.28149669     0.035504457   -0.17074948     0.00013708358
   2271000   0.049953933   -0.28185714     0.036117298   -0.17081377    -9.366324e-06 
   2272000   0.049798867   -0.28216723     0.035404914   -0.17206884    -0.00056949333
   2273000   0.04960931    -0.28203164     0.035162262   -0.17246021     0.00024185216
   2274000   0.050206583   -0.2819461      0.03550041    -0.17114068     0.0010348574 
   2275000   0.050007168   -0.28219011     0.035672278   -0.17151192    -0.00029321625
   2276000   0.049519926   -0.28191515     0.035291019   -0.17234904    -0.00010010984
   2277000   0.050276087   -0.28227761     0.035817927   -0.17105042    -0.00031278809
   2278000   0.049823833   -0.28245677     0.035415434   -0.17231041     7.5954072e-05
   2279000   0.050211409   -0.28206271     0.035163424   -0.17158704     0.00039241783
   2280000   0.049784952   -0.28224166     0.035705626   -0.17186342     0.00035464847
   2281000   0.050326934   -0.28190102     0.035080069   -0.17133542     0.00057436965
   2282000   0.050034721   -0.28241155     0.035685136   -0.17167917     0.00059796236
   2283000   0.049497962   -0.281984       0.035950479   -0.17179137    -0.00058088658
   2284000   0.049377805   -0.28248841     0.03591556    -0.17251092     0.00036528451
   2285000   0.050216518   -0.28222145     0.035233265   -0.17166826    -0.00017284515
   2286000   0.050036998   -0.28245962     0.035157274   -0.17225169    -0.00049934454
   2287000   0.049754407   -0.28236478     0.036143633   -0.17159435     0.00085489378
   2288000   0.049895088   -0.28260492     0.03565412    -0.172113      -0.0007272582 
   2289000   0.049398639   -0.28252648     0.035337405   -0.17309589     0.00038917964
   2290000   0.050024641   -0.28188878     0.035139654   -0.17171701     0.0004818667 
   2291000   0.049981287   -0.28230708     0.035549011   -0.17179097     0.00037147548
   2292000   0.049746489   -0.28283888     0.035458173   -0.17276578    -6.459194e-05 
   2293000   0.049616221   -0.2825131      0.035381816   -0.17271176    -0.0006485503 
   2294000   0.049772068   -0.28266817     0.036090791   -0.1719241     -2.3781374e-05
   2295000   0.050464957   -0.28274414     0.035306625   -0.17174497     0.00024410902
   2296000   0.050165254   -0.2824935      0.035101139   -0.17214933     0.00072882846
   2297000   0.050739003   -0.28263857     0.035885697   -0.17064928     6.4407972e-05
   2298000   0.050238595   -0.28253037     0.035478795   -0.17169854    -6.8110436e-05
   2299000   0.050477371   -0.28271467     0.03573016    -0.17127334     0.00058963492
   2300000   0.04981894    -0.28263712     0.036312037   -0.1716015      0.00080351378
   2301000   0.049759656   -0.28292444     0.03548545    -0.17280433     0.00086717887
   2302000   0.049753972   -0.28257326     0.035366169   -0.17258095     0.0002471896 
   2303000   0.0496626     -0.28291216     0.035365917   -0.17305715     0.00069573987
   2304000   0.049985474   -0.28278467     0.035260632   -0.17255066     0.0006340195 
   2305000   0.050201034   -0.28267685     0.035329111   -0.17205104     0.00076977723
   2306000   0.050286359   -0.28303943     0.034856625   -0.17275814     0.00068364765
   2307000   0.049406049   -0.28308234     0.034725975   -0.17425207     0.00034154945
   2308000   0.049636769   -0.28298023     0.034928114   -0.17360177    -3.1193296e-05
   2309000   0.050107322   -0.28283689     0.035301734   -0.17237902     0.00023558889
   2310000   0.049951318   -0.28320736     0.035216815   -0.1730684      0.00034264732
   2311000   0.050201284   -0.28298458     0.035486497   -0.17220101     0.00040693533
   2312000   0.050373366   -0.28337945     0.035222491   -0.17260178     0.00061065105
   2313000   0.050583628   -0.28265456     0.035516687   -0.17126732     3.488524e-05 
   2314000   0.050372196   -0.28294468     0.035144701   -0.17224656     0.00070368805
   2315000   0.0504185     -0.28306094     0.034707297   -0.17273077     0.00017883706
   2316000   0.050024528   -0.28291194     0.035302553   -0.17257744     0.00035120783
   2317000   0.050227602   -0.28323243     0.035387103   -0.17250878     0.00055606477
   2318000   0.049856382   -0.28365779     0.035869704   -0.17300834     0.0006834634 
   2319000   0.050056518   -0.28336028     0.035097735   -0.17318261     0.00028969516
   2320000   0.049397313   -0.28333229     0.035106422   -0.17413467    -0.00049879126
   2321000   0.050339659   -0.28335112     0.034886438   -0.17296007     0.00060346953
   2322000   0.049660205   -0.28391385     0.035857324   -0.17357102    -0.00050805487
   2323000   0.050152172   -0.28352303     0.035328868   -0.17297076     0.00029723609
   2324000   0.049253104   -0.2829554      0.035790985   -0.17328952     0.0010080443 
   2325000   0.050113358   -0.28305179     0.035202624   -0.17268398     0.00056099521
   2326000   0.050663182   -0.28313573     0.035780111   -0.17136575     0.00044066457
   2327000   0.049693975   -0.28304905     0.035274586   -0.17323831    -0.00015950985
   2328000   0.049943333   -0.28323699     0.035137945   -0.17318888     0.00021409285
   2329000   0.049703733   -0.28338162     0.035494645   -0.17333618     0.00026712413
   2330000   0.050157661   -0.28342462     0.03582629    -0.1723667     -0.00026046633
   2331000   0.050037443   -0.2830952      0.035500521   -0.17254336     0.00098932929
   2332000   0.049684658   -0.28335541     0.036004435   -0.17282879     0.00040953965
   2333000   0.050106357   -0.28367299     0.035338751   -0.17317955     0.00023584206
   2334000   0.049721137   -0.28359432     0.036176977   -0.17284045    -5.9701778e-05
   2335000   0.050272012   -0.28345201     0.035156678   -0.17289218    -0.0005531462 
   2336000   0.050042813   -0.28364498     0.03567664    -0.17290896     0.00034491875
   2337000   0.050075523   -0.28356571     0.035029617   -0.17342765     0.00055349192
   2338000   0.04993098    -0.2832848      0.03564411    -0.17274905     0.00039098295
   2339000   0.049556419   -0.2834367      0.035001493   -0.17410537     0.00061501588
   2340000   0.049437944   -0.28369388     0.03596445    -0.1735773     -0.00055944887
   2341000   0.050365984   -0.28319035     0.034960763   -0.17268548     0.00073988077
   2342000   0.050052513   -0.28346794     0.035552465   -0.17284155     0.00013265854
   2343000   0.050313021   -0.28357889     0.035486512   -0.17262772    -0.00063382585
   2344000   0.050251421   -0.28402        0.03557188    -0.17307586     0.0014618858 
   2345000   0.049612766   -0.28399485     0.035487373   -0.17409312     0.00017586652
   2346000   0.049704195   -0.28365636     0.034881135   -0.17422374    -4.9667446e-05
   2347000   0.049824395   -0.28355825     0.035575479   -0.173251       0.00093700821
   2348000   0.049805154   -0.28383122     0.035518384   -0.17360992    -0.00044833408
   2349000   0.049874691   -0.28384495     0.035348367   -0.17368937     0.00016856201
   2350000   0.049101427   -0.28371062     0.035403584   -0.17465965     0.00065470989
   2351000   0.049219583   -0.28406431     0.035228827   -0.17501087     0.00053747763
   2352000   0.049872756   -0.28379991     0.035812464   -0.17318314    -3.3391585e-06
   2353000   0.049707162   -0.2836248      0.035590358   -0.17347851     2.2395688e-05
   2354000   0.050250296   -0.28349805     0.035400231   -0.17272724     0.00025387109
   2355000   0.050097411   -0.284052       0.035453728   -0.173457       0.00068640846
   2356000   0.049426259   -0.28403954     0.03556756    -0.17433737     0.00090021073
   2357000   0.049514774   -0.28388225     0.035690631   -0.17392425     0.00054978432
   2358000   0.050198847   -0.28359193     0.035399264   -0.17289925     0.00026171112
   2359000   0.04993969    -0.28390017     0.036036284   -0.17295918     0.00025436431
   2360000   0.050108111   -0.28353649     0.035603344   -0.17277583     0.00064200231
   2361000   0.049885234   -0.28337589     0.035662373   -0.1728905      0.00093875256
   2362000   0.050590997   -0.28396389     0.03546454    -0.17261775     0.0001060963 
   2363000   0.04991434    -0.28397391     0.034767177   -0.17434005     0.00015507147
   2364000   0.049904969   -0.2841537      0.035224261   -0.17407681     0.00037102306
   2365000   0.050037131   -0.28400393     0.035820821   -0.17313226    -0.00020956305
   2366000   0.049877241   -0.28407396     0.035770531   -0.1734924      0.00064042779
   2367000   0.050079456   -0.28433243     0.035699205   -0.17351889     0.00082866544
   2368000   0.04963972    -0.2835121      0.035658028   -0.1733993      0.00031185315
   2369000   0.050509134   -0.2837711      0.036176177   -0.17183611     0.00069797914
   2370000   0.050602758   -0.28423229     0.035755805   -0.17257724     0.00067694984
   2371000   0.049782953   -0.28428947     0.03590399    -0.17371587     0.00016293595
   2372000   0.050047617   -0.28431853     0.035160154   -0.1740918      6.0784333e-05
   2373000   0.049650622   -0.284262       0.036001263   -0.1737896      0.00029551208
   2374000   0.050288377   -0.28441804     0.035641662   -0.17334868     0.00071517603
   2375000   0.049867243   -0.28378404     0.035546618   -0.17344139     0.00087989553
   2376000   0.050180977   -0.28408327     0.035673372   -0.17314329     0.00018685884
   2377000   0.049695058   -0.28421862     0.035608613   -0.17407223     0.00037853848
   2378000   0.050579338   -0.28428879     0.035358111   -0.17306657     6.028752e-05 
   2379000   0.049859197   -0.28426786     0.035393663   -0.17409022     0.00044422499
   2380000   0.050166127   -0.28469157     0.035653203   -0.17379403     0.00053921928
   2381000   0.0501408     -0.28436612     0.035175452   -0.17398432     0.00070393059
   2382000   0.050441685   -0.28440668     0.035200444   -0.17354859     0.00014201605
   2383000   0.049976223   -0.28435108     0.034678422   -0.17471316     0.00039921744
   2384000   0.049658774   -0.28460366     0.035293442   -0.17482686     0.0010966371 
   2385000   0.050132264   -0.28444039     0.035306075   -0.17394078     0.00062019541
   2386000   0.049400899   -0.28481137     0.035160765   -0.17555403    -0.00011550653
   2387000   0.049353212   -0.28459505     0.035458245   -0.17511176    -0.00086025734
   2388000   0.049695368   -0.28441666     0.034746678   -0.17513174    -0.00013731211
   2389000   0.049693766   -0.2847538      0.035515956   -0.174702       0.0011217196 
   2390000   0.050276192   -0.28457791     0.035295825   -0.17387267     0.00098434435
   2391000   0.049869143   -0.28463932     0.035570317   -0.17427012     0.00053372725
   2392000   0.04995516    -0.28438846     0.035473278   -0.17398728     0.00080911115
   2393000   0.050297582   -0.28453521     0.035235541   -0.17385816     0.00079590892
   2394000   0.049779032   -0.28482672     0.035772052   -0.17439093     0.00035428943
   2395000   0.050025698   -0.28473761     0.035034489   -0.17466942     0.00048363196
   2396000   0.050376193   -0.28482808     0.03583468    -0.17343399     0.0010227533 
   2397000   0.04987353    -0.28460662     0.035590544   -0.17421061    -0.00033458617
   2398000   0.050030927   -0.28469521     0.035449303   -0.17420436    -0.00058183619
   2399000   0.049664946   -0.28496936     0.035297856   -0.17517889    -0.00025124439
   2400000   0.049809956   -0.28508066     0.03512915    -0.1752414      0.00050930124
   2401000   0.049550431   -0.28464935     0.035296069   -0.17503243     0.00031421639
   2402000   0.049802577   -0.28487429     0.035334294   -0.17484095     0.00037495822
   2403000   0.049740108   -0.28511063     0.035768358   -0.17473692    -0.00077153295
   2404000   0.049737102   -0.28527136     0.035390746   -0.17527977    -0.00014357271
   2405000   0.049873728   -0.28569552     0.036251469   -0.17463828     0.00097415728
   2406000   0.050493002   -0.28501566     0.036607708   -0.17267334     0.00034628139
   2407000   0.050207361   -0.28472659     0.035596156   -0.17382425    -0.00053529768
   2408000   0.049536894   -0.28501274     0.035136386   -0.1755758      0.0010327027 
   2409000   0.049835605   -0.28522129     0.034898719   -0.17557399     0.00022377652
   2410000   0.049648963   -0.28511419     0.035679066   -0.17496649    -0.00054493415
   2411000   0.05011721    -0.28540919     0.035412089   -0.17482613    -0.00018125198
   2412000   0.049872534   -0.28515132     0.035695997   -0.17465135    -0.00019366972
   2413000   0.049951959   -0.28527742     0.035338731   -0.17501558     5.681038e-05 
   2414000   0.049579642   -0.28477009     0.035751472   -0.17465396     0.00041699448
   2415000   0.049974219   -0.28498588     0.035652854   -0.17437653     0.00015833459
   2416000   0.050256213   -0.28557316     0.03587931    -0.17431439     0.00030130176
   2417000   0.050061083   -0.28531323     0.035291765   -0.17493469     0.00056287184
   2418000   0.050117137   -0.28518552     0.035434963   -0.1745797      0.00090792484
   2419000   0.050317427   -0.28493808     0.035507162   -0.17395965    -0.0002079968 
   2420000   0.050150274   -0.28545904     0.035534138   -0.17470434     0.00075543113
   2421000   0.049835274   -0.28532532     0.035435011   -0.17514222     0.00021257797
   2422000   0.050203217   -0.28501886     0.035275531   -0.17444336     0.00023330568
   2423000   0.050109061   -0.28509811     0.035540808   -0.17439856     0.00058784876
   2424000   0.050056654   -0.28482658     0.03544793    -0.17429851    -5.7582341e-05
   2425000   0.049866038   -0.28550244     0.036469901   -0.1742383     -6.914128e-05 
   2426000   0.050063124   -0.28526464     0.035523264   -0.17465154     3.8720168e-05
   2427000   0.049829572   -0.28553071     0.03520437    -0.1755868      0.0002647197 
   2428000   0.049517154   -0.28563278     0.035706665   -0.17565517    -8.7804014e-06
   2429000   0.049883696   -0.28543277     0.03559578    -0.17501628     0.0002234542 
   2430000   0.050251792   -0.28550935     0.034976365   -0.17516016     0.00063371385
   2431000   0.049742192   -0.28585206     0.035313581   -0.17593001     0.00031278234
   2432000   0.049497463   -0.28588931     0.035226946   -0.17642096    -0.00037071766
   2433000   0.049321697   -0.28531793     0.035229616   -0.17611054    -1.3344735e-05
   2434000   0.049727078   -0.28540999     0.036046651   -0.17477754     2.7737921e-05
   2435000   0.049469679   -0.28574465     0.036069785   -0.17547513    -0.00014011271
   2436000   0.050592668   -0.28546873     0.036040162   -0.17354447     0.0010436342 
   2437000   0.050664226   -0.28543369     0.035504535   -0.17393771     0.0012800872 
   2438000   0.050622263   -0.2855941      0.035691108   -0.1739745      0.001401769  
   2439000   0.050408133   -0.28551911     0.035511996   -0.17439979     0.0010779754 
   2440000   0.050588241   -0.28539184     0.03599547    -0.1735189     -4.4513984e-05
   2441000   0.050494121   -0.28577005     0.035886642   -0.17414711     0.00063841081
   2442000   0.049781106   -0.28584414     0.036178139   -0.17499916     0.0002478167 
   2443000   0.050189089   -0.28578113     0.035486729   -0.17501562    -0.00038692024
   2444000   0.049782577   -0.28559095     0.035462761   -0.17545914     0.0003094807 
   2445000   0.049972645   -0.28581308     0.0354902     -0.17536875     0.0012419725 
   2446000   0.049963406   -0.28596654     0.035482925   -0.17554334     0.00027182936
   2447000   0.050172168   -0.2858689      0.035545007   -0.1750705     -0.00013185039
   2448000   0.050619961   -0.28616634     0.03553099    -0.17471031     0.00037095967
   2449000   0.049548076   -0.28626588     0.035716447   -0.17623211     0.00073939794
   2450000   0.049365391   -0.28629184     0.035627549   -0.17662098     0.00047703609
   2451000   0.049852694   -0.28619957     0.035190599   -0.17623475     0.00017661676
   2452000   0.049707751   -0.28587866     0.035368692   -0.17595315    -0.00051179296
   2453000   0.049801772   -0.28628209     0.035991273   -0.17559298     0.00028096452
   2454000   0.050351862   -0.28627825     0.035073118   -0.17568221     0.00079866867
   2455000   0.050211704   -0.28584133     0.035227129   -0.17530151    -0.00011705583
   2456000   0.04997253    -0.28603034     0.035585577   -0.1754908     -0.00015981211
   2457000   0.050139868   -0.28611683     0.034996417   -0.17591547     7.084752e-06 
   2458000   0.049863832   -0.28613229     0.03582956    -0.17551181     0.00059426209
   2459000   0.049892413   -0.28633718     0.035492842   -0.17601055    -0.00061732224
   2460000   0.05023986    -0.28632931     0.03519515    -0.17577924     0.0013924237 
   2461000   0.049913641   -0.28641692     0.036357625   -0.17519366    -0.00027761572
   2462000   0.049799372   -0.28647503     0.035627915   -0.17615288    -4.2688906e-05
   2463000   0.050143584   -0.28610196     0.035645562   -0.17524588     0.0012505001 
   2464000   0.049774513   -0.28626845     0.035524273   -0.17608722     0.00031472724
   2465000   0.050509072   -0.28626261     0.035460133   -0.17504376    -0.00010496812
   2466000   0.050645632   -0.28641522     0.035835447   -0.17461623     0.00025842241
   2467000   0.049734919   -0.28606441     0.03538602    -0.17608083    -0.00013295014
   2468000   0.049995476   -0.28587217     0.035282878   -0.17560091     0.0012946034 
   2469000   0.049831732   -0.28569527     0.035483146   -0.17546934     1.5840086e-05
   2470000   0.050029907   -0.28635919     0.034879661   -0.17643951     0.00064222219
   2471000   0.050096246   -0.2862569      0.03610093    -0.17501645     0.00022506952
   2472000   0.050674009   -0.28631093     0.035812735   -0.17449208     5.0839795e-05
   2473000   0.049889907   -0.2861791      0.036051408   -0.17529766    -0.0001193228 
   2474000   0.050405472   -0.28640014     0.035910995   -0.17488582    -0.00025592131
   2475000   0.050245949   -0.28607213     0.035650588   -0.17505748     0.0010186623 
   2476000   0.050085649   -0.28648483     0.035697419   -0.17566379    -7.9563897e-05
   2477000   0.050339672   -0.28632175     0.035409344   -0.17540777     0.00087660298
   2478000   0.049721567   -0.28661196     0.035814608   -0.17621981     0.0014932847 
   2479000   0.049911707   -0.2866508      0.035523665   -0.17626441     0.0005482607 
   2480000   0.049898901   -0.286405       0.035540203   -0.17602128     0.00089734318
   2481000   0.050249382   -0.28678481     0.035244666   -0.17617094     0.00061482982
   2482000   0.050438218   -0.28665878     0.035505043   -0.17550129    -0.00034174951
   2483000   0.050233021   -0.28645522     0.035549566   -0.17556098     0.0005577892 
   2484000   0.049881929   -0.28642464     0.035648315   -0.17595826    -0.00012273349
   2485000   0.049632519   -0.28674639     0.035719239   -0.17658317     0.00095566842
   2486000   0.049317316   -0.28690412     0.035767044   -0.17716587     0.00067799323
   2487000   0.049705404   -0.28661952     0.035528225   -0.176538      -2.8931376e-05
   2488000   0.050167821   -0.28636377     0.035745837   -0.17537106     0.00057294969
   2489000   0.050046863   -0.28649643     0.03581711    -0.17561386    -0.00021238992
   2490000   0.050009657   -0.28686296     0.035383881   -0.17646944     0.0005424718 
   2491000   0.050441709   -0.28670435     0.03537549    -0.17567118     0.00090369672
   2492000   0.049719882   -0.2869153      0.035154668   -0.17718562    -0.00061554469
   2493000   0.04971068    -0.28682004     0.035241718   -0.17701711     0.00037711245
   2494000   0.049615313   -0.28688548     0.034819629   -0.17764768    -2.8765315e-06
   2495000   0.049921732   -0.28691889     0.035329926   -0.1767112      0.00077243816
   2496000   0.049191703   -0.28689634     0.036369554   -0.17674399    -0.00075170043
   2497000   0.049505228   -0.28672269     0.035221116   -0.17724852     0.0014690395 
   2498000   0.049606744   -0.28654954     0.035569019   -0.17657521     0.00034227668
   2499000   0.049922744   -0.2869036      0.035838398   -0.17618591     0.00072905692
   2500000   0.049750692   -0.28692763     0.035640286   -0.17666612    -0.00054728589
   2501000   0.050138853   -0.28685299     0.035358411   -0.17629115     0.00041627409
   2502000   0.050303928   -0.28686336     0.035345711   -0.17606662    -0.00016065615
   2503000   0.049977799   -0.2866878      0.035682133   -0.17604381     0.00014511765
   2504000   0.050246159   -0.28715319     0.035571421   -0.17621739     0.00053423329
   2505000   0.050155283   -0.28733583     0.035524615   -0.17658315    -0.00057541346
   2506000   0.05025922    -0.28663676     0.035144364   -0.17610843     0.00045824429
   2507000   0.050028382   -0.28733921     0.035782349   -0.17651913    -0.00018910496
   2508000   0.050051032   -0.28716298     0.035357589   -0.17673368     0.00060785662
   2509000   0.050270951   -0.28711168     0.035680646   -0.17602947     0.00010268775
   2510000   0.049696679   -0.28698642     0.036433372   -0.17601284    -0.0011338378 
   2511000   0.050585739   -0.28698962     0.03527355    -0.17584236     0.00019497844
   2512000   0.050158823   -0.28725527     0.035773878   -0.17624801     0.00064137887
   2513000   0.050089171   -0.28717841     0.034884839   -0.17716466     0.0011337721 
   2514000   0.050118738   -0.28729013     0.035368634   -0.17674823     0.0006244236 
   2515000   0.049964874   -0.28746422     0.036261954   -0.17625979    -0.00088849404
   2516000   0.049744116   -0.28669299     0.035616588   -0.17646504     0.00083671578
   2517000   0.050329567   -0.28701919     0.034830344   -0.17669937     0.001175629  
   2518000   0.049631856   -0.28699894     0.036180129   -0.17637583     4.6453321e-05
   2519000   0.050242538   -0.28702459     0.035441603   -0.17622405    -4.949462e-05 
   2520000   0.049631437   -0.28734834     0.035874654   -0.17703134     0.00027044516
   2521000   0.05001313    -0.28770587     0.035240745   -0.17745027    -0.00027667343
   2522000   0.049835299   -0.28711225     0.034505152   -0.17785897     0.00030914719
   2523000   0.049751892   -0.28708631     0.035823157   -0.17664013     0.00035406267
   2524000   0.050535577   -0.28708512     0.035637537   -0.17564911    -0.00017308292
   2525000   0.050079585   -0.28747904     0.036297743   -0.17606676    -9.72196e-05  
   2526000   0.050056594   -0.28700299     0.035749439   -0.1761735      0.00098460703
   2527000   0.050148364   -0.28694112     0.035611207   -0.17611222    -0.00043672052
   2528000   0.049757714   -0.28714284     0.035219182   -0.1772919      0.00079117339
   2529000   0.04978994    -0.28736809     0.03568289    -0.17700511     0.00056354654
   2530000   0.049630754   -0.28743287     0.035947222   -0.17704432    -0.00011022871
   2531000   0.050366131   -0.2870865      0.03535272    -0.17618946     0.00045477763
   2532000   0.050089469   -0.28743046     0.035108901   -0.1771922     -1.8439318e-05
   2533000   0.04963065    -0.28737546     0.035573179   -0.17736111     0.00016045677
   2534000   0.049711249   -0.28741126     0.035948884   -0.17690031    -0.00021756926
   2535000   0.049740299   -0.28742691     0.035408625   -0.17741265     0.00082536442
   2536000   0.049644308   -0.28742503     0.0351252     -0.17783818     0.0014529349 
   2537000   0.050390939   -0.28759731     0.035665025   -0.17635076     0.00034623501
   2538000   0.050049632   -0.28739504     0.035463184   -0.17686225     0.00071364239
   2539000   0.05024061    -0.28726199     0.035451414   -0.17645452     0.00039860099
   2540000   0.050549636   -0.28771567     0.035558404   -0.1763377      1.3143097e-05
   2541000   0.049820355   -0.28746477     0.03620374    -0.17653532     0.00019623692
   2542000   0.050416171   -0.2874268      0.035522175   -0.17628525     0.00049240355
   2543000   0.049868366   -0.28787784     0.034975194   -0.17810492     0.00055099673
   2544000   0.049844564   -0.28748297     0.035390943   -0.17733        0.00033869197
   2545000   0.050254796   -0.28737974     0.035114574   -0.17688784     0.00043143844
   2546000   0.049638822   -0.28755308     0.035965704   -0.17713394     0.00042209849
   2547000   0.050304605   -0.28778602     0.035437064   -0.17689692    -0.00024987223
   2548000   0.050259574   -0.2878179      0.034794253   -0.17763915     0.00010903813
   2549000   0.050017167   -0.28762154     0.035327981   -0.17727265     0.00018357395
   2550000   0.050282409   -0.28722839     0.03597409    -0.17583556     5.2936477e-07
   2551000   0.049964456   -0.28724596     0.035573531   -0.17673058     0.0002375293 
   2552000   0.049940741   -0.2874763      0.035310314   -0.17725971     0.00037284006
   2553000   0.049676577   -0.28765228     0.035636469   -0.17750576    -0.00023300629
   2554000   0.050434288   -0.28782583     0.036132004   -0.17604728     0.00050622895
   2555000   0.050139898   -0.2875497      0.035761244   -0.17658346     0.00061751814
   2556000   0.050090659   -0.28768758     0.035468308   -0.17708813     0.0010090525 
   2557000   0.049580589   -0.28783952     0.035651519   -0.17782192    -0.00012091324
   2558000   0.049718321   -0.287888       0.034440016   -0.17887531     0.0012891989 
   2559000   0.049952863   -0.2876302      0.034881591   -0.17782415     0.00079866923
   2560000   0.049874909   -0.28770137     0.035511082   -0.17738275     0.00047784412
   2561000   0.050080216   -0.28754004     0.035818648   -0.17660592     0.00013580041
   2562000   0.050189778   -0.28774779     0.035660072   -0.17680791     0.00041089518
   2563000   0.049562259   -0.28800944     0.035507731   -0.17816311    -0.00014322786
   2564000   0.049800301   -0.28804631     0.034823322   -0.17852735     0.0008273999 
   2565000   0.049766707   -0.28783634     0.035515303   -0.17767579     0.00021411606
   2566000   0.050118753   -0.28761698     0.035476634   -0.17696707     0.00086682371
   2567000   0.049935122   -0.28755207     0.035828794   -0.17682543    -0.00018904719
   2568000   0.050114388   -0.28748487     0.035865684   -0.17645245     0.00022348876
   2569000   0.050565569   -0.28777563     0.035654718   -0.17627745    -0.00037035375
   2570000   0.050120373   -0.28779093     0.035876014   -0.17673921     0.00020731231
   2571000   0.049883685   -0.28785849     0.035524415   -0.17751337    -1.4858528e-05
   2572000   0.050251299   -0.28792255     0.035642164   -0.1769083      0.00015750386
   2573000   0.049952758   -0.2877335      0.035453953   -0.17735524     0.00073453907
   2574000   0.05000657    -0.28792539     0.035774295   -0.17714608     0.00020781669
   2575000   0.050340805   -0.28806661     0.035775798   -0.17678447    -0.00067976337
   2576000   0.049840057   -0.28783946     0.035340466   -0.17774373     0.00031940484
   2577000   0.049491041   -0.28802806     0.035955184   -0.17784111     0.00023285507
   2578000   0.050357135   -0.28798802     0.034791595   -0.1776656      0.00035108742
   2579000   0.049497276   -0.28785163     0.035482192   -0.17812831     0.00029287366
   2580000   0.05048729    -0.28797907     0.035471363   -0.17678166     0.00063277504
   2581000   0.050198257   -0.28813303     0.035400572   -0.17743993    -9.7772437e-05
   2582000   0.050160341   -0.28850998     0.03539433    -0.17787999     0.00028371041
   2583000   0.050595291   -0.28809239     0.036232504   -0.17597184     0.0011276553 
   2584000   0.050442257   -0.2878285      0.035428338   -0.17674165     0.00075095199
   2585000   0.050469719   -0.28828392     0.035746035   -0.17683819     0.00057103094
   2586000   0.050019777   -0.28817633     0.035328819   -0.17782269    -0.0001455393 
   2587000   0.050041235   -0.28853821     0.036165164   -0.17731604     0.0005946871 
   2588000   0.049954558   -0.28848117     0.035662904   -0.17789126     0.00030771675
   2589000   0.049925846   -0.288239       0.03553809    -0.17781698     6.2038541e-05
   2590000   0.050520428   -0.288377       0.035167812   -0.17743344    -0.0007698118 
   2591000   0.049821009   -0.28839038     0.035209094   -0.1784546      0.00076786643
   2592000   0.049519165   -0.28877914     0.035681074   -0.17882411    -0.00074050214
   2593000   0.049963644   -0.2884859      0.035992228   -0.17755305    -0.0001781213 
   2594000   0.049138913   -0.28828512     0.035988139   -0.17859336     0.0012643659 
   2595000   0.049662387   -0.2885263      0.03512552    -0.178912       0.00017899243
   2596000   0.04989936    -0.28836704     0.035305772   -0.17821706     0.00015418188
   2597000   0.050374936   -0.28860162     0.03530061    -0.17774348     0.00082715016
   2598000   0.050068498   -0.28832387     0.035801919   -0.17742404    -0.00030367428
   2599000   0.050223185   -0.28844198     0.035755183   -0.17735688     0.00011222967
   2600000   0.050095438   -0.28831074     0.035670363   -0.17750207     0.00076011129
   2601000   0.049944951   -0.28845904     0.036181012   -0.17736543    -0.00041358883
   2602000   0.05034307    -0.2884986      0.035853957   -0.17713491    -0.00063872662
   2603000   0.050053406   -0.28794744     0.035179476   -0.1776927      0.0005506524 
   2604000   0.050247602   -0.28836113     0.036065701   -0.17692889     0.00033310037
   2605000   0.049927183   -0.28883495     0.035576457   -0.17837255     0.00072648179
   2606000   0.049496717   -0.2887244      0.03531424    -0.17916988     0.00032911724
   2607000   0.049482742   -0.28848265     0.035896685   -0.17836664     0.00045555391
   2608000   0.049962959   -0.28865736     0.034852948   -0.17886481     0.00063399022
   2609000   0.049732302   -0.28857736     0.035440626   -0.17854309    -8.846745e-05 
   2610000   0.049904591   -0.28902734     0.034935268   -0.17924001     0.00039638748
   2611000   0.049706229   -0.28870597     0.035840782   -0.17831066    -7.9481226e-05
   2612000   0.049954177   -0.28894093     0.035168002   -0.1788465     -0.0004231395 
   2613000   0.049672183   -0.28885332     0.035607491   -0.17874236     0.00016939553
   2614000   0.050081665   -0.28870355     0.034846979   -0.17873892     0.0002093369 
   2615000   0.049877708   -0.2887195      0.034922545   -0.17898522    -0.00015870096
   2616000   0.049731576   -0.28908105     0.035389031   -0.17909946     0.00020098976
   2617000   0.049966188   -0.28892599     0.035052314   -0.17892923     0.00010911244
   2618000   0.049820618   -0.28936579     0.035647785   -0.17899189     0.0002087149 
   2619000   0.050550546   -0.28881103     0.035135676   -0.17785443    -0.00015045884
   2620000   0.050026743   -0.2889976      0.034915988   -0.17904634     0.00050022009
   2621000   0.050317316   -0.28887205     0.035054419   -0.17834653     0.00092884124
   2622000   0.050069871   -0.28910427     0.035113919   -0.17889039    -0.00023003835
   2623000   0.049785442   -0.2891304      0.035456037   -0.17900102     0.0010647254 
   2624000   0.049939872   -0.28929497     0.035628194   -0.17876181     0.00057187044
   2625000   0.049936625   -0.28890303     0.035049051   -0.17895388     0.00044802724
   2626000   0.050311776   -0.28880681     0.035425185   -0.17791883    -1.5883888e-05
   2627000   0.049756662   -0.2891014      0.035593879   -0.17887734     4.5115437e-05
   2628000   0.049929668   -0.28880803     0.035623139   -0.17829522     0.00061718818
   2629000   0.050370864   -0.28908293     0.035936361   -0.17759515    -0.00011272502
   2630000   0.050150958   -0.28910579     0.036648964   -0.17723524     0.00049057783
   2631000   0.050636171   -0.2887988      0.036219505   -0.17662994     0.00043473395
   2632000   0.050361176   -0.28847996     0.035225443   -0.17771763     0.00037971185
   2633000   0.050225806   -0.28914246     0.035432837   -0.17837578     0.0012719774 
   2634000   0.04940201    -0.28917798     0.035380756   -0.17969899    -0.00027674244
   2635000   0.049907404   -0.28889038     0.03548202    -0.17855208    -0.00036121186
   2636000   0.0502324     -0.28932648     0.035610791   -0.17837195     0.00023838811
   2637000   0.049760128   -0.28906792     0.034950989   -0.17948156     0.00095316522
   2638000   0.050047147   -0.28906824     0.035760602   -0.17824176     0.00022984854
   2639000   0.049861743   -0.28916658     0.035751759   -0.17862703    -0.00015613187
   2640000   0.050725614   -0.28928667     0.03547308    -0.17773008     0.00083276766
   2641000   0.050357891   -0.28905186     0.035588937   -0.17793096     0.00038171399
   2642000   0.050608306   -0.28894427     0.035865704   -0.17717101     0.00020571312
   2643000   0.050567005   -0.28914896     0.03577971    -0.17752364     0.00075788385
   2644000   0.050231241   -0.2895693      0.036132356   -0.17809494     0.00027404247
   2645000   0.050020104   -0.28929673     0.035150305   -0.17912111     0.00058955395
   2646000   0.049953499   -0.28948304     0.035743134   -0.17881449     0.00032492284
   2647000   0.049689937   -0.28887143     0.035418139   -0.17892319     0.00094105132
   2648000   0.050168917   -0.28945958     0.035124262   -0.17908679     0.00093240893
   2649000   0.050095642   -0.28931165     0.035326292   -0.17884674     0.00037144059
   2650000   0.04979391    -0.28938244     0.036103317   -0.17859308    -0.00017460748
   2651000   0.050285781   -0.28934682     0.035974628   -0.17794838     0.00011497879
   2652000   0.050193502   -0.28925735     0.035287299   -0.17868465     0.00067835856
   2653000   0.050314162   -0.28940741     0.035299193   -0.17864185     0.00075503052
   2654000   0.050203712   -0.28924601     0.035373276   -0.17857202    -0.000622482  
   2655000   0.050061743   -0.28964341     0.035553701   -0.17900194     0.00054953767
   2656000   0.050075901   -0.28954116     0.035285462   -0.17914669     3.643925e-05 
   2657000   0.050076255   -0.28964633     0.035451799   -0.17908499     0.00018102951
   2658000   0.050071206   -0.28958416     0.035738105   -0.17874409     0.00063025138
   2659000   0.050158642   -0.28960321     0.035359278   -0.17901082     0.00042325126
   2660000   0.050762094   -0.28916873     0.035695583   -0.17733492     0.00051450187
   2661000   0.050097547   -0.28941857     0.035605971   -0.17867113     0.00043357179
   2662000   0.050383967   -0.28916527     0.035828721   -0.17776547    -0.00021880441
   2663000   0.050434313   -0.28936113     0.035654678   -0.17805986    -0.00025182158
   2664000   0.050348411   -0.28936431     0.035690299   -0.17815626     7.0323374e-05
   2665000   0.049993358   -0.28912935     0.035477838   -0.17866631     0.0008239306 
   2666000   0.050650899   -0.28929268     0.034981781   -0.17833945     0.00091217818
   2667000   0.050047769   -0.28946872     0.035681892   -0.17872001     0.00070260421
   2668000   0.05014297    -0.28946047     0.035258699   -0.17899216     0.00052919504
   2669000   0.049441827   -0.2895167      0.036251534   -0.17910721    -0.00038094564
   2670000   0.050417087   -0.2896097      0.035630779   -0.17835817     0.0014990753 
   2671000   0.049588496   -0.28953039     0.035786512   -0.17936593     0.00015401288
   2672000   0.049878565   -0.28979141     0.035276507   -0.17970188     0.00094045725
   2673000   0.049994791   -0.28983117     0.035386295   -0.17945752     0.00019425049
   2674000   0.049634501   -0.28947922     0.035427494   -0.17960478    -3.345212e-06 
   2675000   0.049947354   -0.28976397     0.035677701   -0.17917007    -0.00062831324
   2676000   0.050729709   -0.28994868     0.03580873    -0.1780503      0.00078149287
   2677000   0.049663806   -0.2894624      0.035609224   -0.17936227    -0.00040303414
   2678000   0.049949471   -0.28978889     0.035525036   -0.17934448    -5.5639872e-05
   2679000   0.049748128   -0.2896254      0.035134448   -0.17987357     0.00014589832
   2680000   0.049946729   -0.28974564     0.034849303   -0.17998108     0.00088384873
   2681000   0.049720896   -0.28973684     0.03548233    -0.17967798     0.00068092838
   2682000   0.050141558   -0.28972284     0.035771828   -0.17874353     4.3055787e-05
   2683000   0.049815005   -0.28968823     0.035641371   -0.17932917     0.00018902854
   2684000   0.050400016   -0.28995131     0.035379993   -0.17897617     0.0001323673 
   2685000   0.050210384   -0.28976043     0.034738741   -0.17971097     0.00074311517
   2686000   0.049413386   -0.29026291     0.03537174    -0.18077587     1.3765687e-05
   2687000   0.049634746   -0.29004928     0.035696713   -0.17990526    -0.00090436639
   2688000   0.049681456   -0.29031231     0.035410146   -0.18038479     6.2240338e-05
   2689000   0.05041775    -0.2900561      0.034926793   -0.17950756     0.00035613836
   2690000   0.050066333   -0.29013897     0.035371011   -0.1796733      0.00091566158
   2691000   0.050097257   -0.2899112      0.035618407   -0.17915176     0.00040407173
   2692000   0.04995687    -0.2897947      0.036160693   -0.17870353     0.0002282161 
   2693000   0.049844983   -0.28998727     0.035354338   -0.17987028     4.1559774e-05
   2694000   0.050307583   -0.29011907     0.035536149   -0.17912641     0.00018521014
   2695000   0.049881578   -0.29018832     0.035434079   -0.1799367     -0.00057629814
   2696000   0.049815777   -0.29022444     0.035524726   -0.17998086     0.00017484142
   2697000   0.049835825   -0.2902342      0.036093445   -0.17939184    -5.4477824e-05
   2698000   0.050075056   -0.29005902     0.035815907   -0.17913537    -8.9114614e-05
   2699000   0.050182375   -0.29008436     0.034957554   -0.1798581      0.00013658344
   2700000   0.050152525   -0.29009938     0.035217422   -0.17965803     0.0004046387 
   2701000   0.050289423   -0.28997775     0.035361066   -0.17918742     4.3518929e-05
   2702000   0.04971998    -0.28986245     0.035345197   -0.1799421      0.0006046924 
   2703000   0.0499928     -0.29025551     0.035512542   -0.17975861     0.00025948624
   2704000   0.05015603    -0.29010279     0.035584338   -0.17928926    -0.00040609927
   2705000   0.050699746   -0.28985362     0.035525551   -0.17828336     0.0013362387 
   2706000   0.049914832   -0.2899152      0.035667665   -0.17938011     0.00060305422
   2707000   0.049119995   -0.29022477     0.036301228   -0.1802483     -0.0013675916 
   2708000   0.049797367   -0.29043987     0.035693488   -0.18005515    -0.00093132205
   2709000   0.050296292   -0.29032203     0.035078619   -0.17980384     0.00037073778
   2710000   0.050240893   -0.29014798     0.035868934   -0.17892257     0.00023290885
   2711000   0.050155919   -0.29043979     0.035478185   -0.17973258     0.00081148786
   2712000   0.050057478   -0.29027195     0.035688241   -0.17950233    -0.00025494297
   2713000   0.050417509   -0.29027122     0.035569836   -0.17908        0.00061375006
   2714000   0.049894225   -0.29054371     0.035575823   -0.18013138     0.00064606285
   2715000   0.050008852   -0.29022902     0.035366604   -0.17985398     3.8105714e-05
   2716000   0.049764213   -0.29015326     0.035908843   -0.17960291    -0.00043770686
   2717000   0.049285605   -0.29030368     0.035158247   -0.1812218      5.3891452e-05
   2718000   0.049809456   -0.29055626     0.035109634   -0.18073726    -1.0164043e-05
   2719000   0.049731119   -0.2906546      0.034618169   -0.18144457     0.00035481113
   2720000   0.049771345   -0.29026891     0.034976726   -0.18063998     0.0014607794 
   2721000   0.049848455   -0.28991034     0.035414256   -0.17972822     0.00059623721
   2722000   0.05014659    -0.29012783     0.035600462   -0.17931233    -0.00032112241
   2723000   0.04978128    -0.29057028     0.036074093   -0.17982908    -3.0491198e-05
   2724000   0.050254544   -0.2899588      0.03604231    -0.17853953     0.0001373422 
   2725000   0.050491859   -0.29044375     0.036303746   -0.17840711     0.00044316428
   2726000   0.05030714    -0.2905891      0.035555703   -0.17957756    -0.00014415007
   2727000   0.050010891   -0.29043008     0.035081161   -0.18033743     0.00049815329
   2728000   0.04919679    -0.2905705      0.035304089   -0.18147599     0.00083997443
   2729000   0.050116679   -0.29053498     0.035808802   -0.17955601    -0.00039712598
   2730000   0.049816091   -0.29077317     0.035712741   -0.18034111     0.0001351467 
   2731000   0.049718059   -0.29090023     0.035541493   -0.18078646    -0.00042879825
   2732000   0.050657776   -0.29058332     0.035164194   -0.17943736     0.00034077709
   2733000   0.05044497    -0.29008038     0.03620376    -0.17821405     3.2282325e-05
   2734000   0.050384404   -0.29086591     0.035209136   -0.18008505    -0.00022546514
   2735000   0.050047674   -0.29092189     0.036235858   -0.17961936    -0.0003042192 
   2736000   0.049811554   -0.29103035     0.035885681   -0.18043216     0.00054089422
   2737000   0.04994642    -0.29082944     0.036063243   -0.1798514     -0.0002341205 
   2738000   0.050426962   -0.29090363     0.035126222   -0.18014184     0.00079577779
   2739000   0.049887874   -0.29075391     0.035710309   -0.18021662     0.00039721382
   2740000   0.049843396   -0.29052892     0.035434453   -0.18033419     0.00083116021
   2741000   0.050443684   -0.29076152     0.035669096   -0.17943178     0.00092837739
   2742000   0.050010107   -0.2906415      0.036088428   -0.17954275     0.00011724436
   2743000   0.049794831   -0.29098028     0.035589653   -0.1807032      0.00099542577
   2744000   0.050393665   -0.29113627     0.035445518   -0.18010513    -0.00024028906
   2745000   0.050025705   -0.29099055     0.03541884    -0.18053799     3.092128e-05 
   2746000   0.050267347   -0.29074868     0.035317002   -0.18003552     0.00080158557
   2747000   0.04969659    -0.29085288     0.035216513   -0.18109629    -6.1613983e-05
   2748000   0.04988188    -0.29088354     0.035754343   -0.18031121    -3.5378688e-05
   2749000   0.050110539   -0.29114559     0.03569383    -0.1802908      0.00074611151
   2750000   0.049926972   -0.29062595     0.035938537   -0.17980179     0.00027447046
   2751000   0.049648067   -0.29097974     0.035847885   -0.18066456    -3.7120808e-05
   2752000   0.049746216   -0.29090076     0.035017126   -0.18126912     0.0008357223 
   2753000   0.050000194   -0.29117853     0.035373319   -0.18080976     0.0016985952 
   2754000   0.049982492   -0.29105104     0.036017021   -0.18006512    -0.00034509485
   2755000   0.050039643   -0.29064433     0.035644665   -0.17994504    -0.0003297429 
   2756000   0.05024107    -0.29118337     0.035741058   -0.18008557     7.2154186e-05
   2757000   0.049616638   -0.29100147     0.035592586   -0.18098873    -0.00039231755
   2758000   0.0498104     -0.29104329     0.035183499   -0.18114901     0.00045382346
   2759000   0.050124582   -0.29134464     0.03614095    -0.18002167     0.00063091182
   2760000   0.049777239   -0.29121671     0.036237942   -0.18031773     0.00079860004
   2761000   0.050406334   -0.29144735     0.036146024   -0.17969671     0.00018491666
   2762000   0.0501148     -0.2911249      0.035034422   -0.18092313     0.00016774262
   2763000   0.049886185   -0.29140819     0.035245072   -0.18133867     0.00098192552
   2764000   0.049805369   -0.29139984     0.035323514   -0.1813731      0.00013569655
   2765000   0.050042142   -0.29123831     0.035552301   -0.18062764     0.00010722366
   2766000   0.050187278   -0.29140077     0.035142505   -0.18098221    -0.00024866158
   2767000   0.049837417   -0.29170877     0.035684169   -0.1812733      0.0010709193 
   2768000   0.050083466   -0.29157247     0.03509374    -0.18135838     0.0001376894 
   2769000   0.050342212   -0.29124446     0.035587069   -0.18014895     0.0005154587 
   2770000   0.050264499   -0.29137594     0.036415463   -0.17956859     0.00016086639
   2771000   0.050269222   -0.29143547     0.035527864   -0.18050864     0.00048012554
   2772000   0.05100734    -0.29168577     0.035418384   -0.17976131     0.0001084467 
   2773000   0.049983413   -0.29169842     0.035603563   -0.18112457    -0.00019743385
   2774000   0.05001704    -0.29132858     0.035993359   -0.1803145      0.00047180143
   2775000   0.050088451   -0.29160351     0.035815835   -0.18065985    -0.0003928697 
   2776000   0.050281856   -0.29137535     0.035880149   -0.18007729     0.00074422154
   2777000   0.050696886   -0.29163895     0.035766092   -0.17983243     0.00030884502
   2778000   0.049602923   -0.29169104     0.035642073   -0.18164938    -0.00050118635
   2779000   0.049690118   -0.29153773     0.035254653   -0.18175271    -1.259605e-05 
   2780000   0.050041996   -0.29145012     0.035475335   -0.18091663     2.1426247e-05
   2781000   0.050214341   -0.29170407     0.03564934    -0.18073808    -0.00031332928
   2782000   0.049220101   -0.29159409     0.035515152   -0.18225355    -0.00013795154
   2783000   0.049484363   -0.29145376     0.035578513   -0.18165349     5.9826586e-05
   2784000   0.049654725   -0.29147576     0.035876177   -0.1811223      0.00056221799
   2785000   0.050023823   -0.29138652     0.035440218   -0.18091541     0.0012456504 
   2786000   0.049763149   -0.29131718     0.03566107    -0.1810162     -0.00019470813
   2787000   0.049716894   -0.29173722     0.035716903   -0.18144979     0.00030724858
   2788000   0.049774904   -0.2914717      0.035445579   -0.18136859    -1.3185501e-05
   2789000   0.050585343   -0.29146165     0.035525939   -0.18006259     0.0011240516 
   2790000   0.049851878   -0.29172756     0.035801303   -0.18115326    -1.6968206e-05
   2791000   0.04987702    -0.29166236     0.035629167   -0.18122249     0.00020232664
   2792000   0.049573321   -0.29166511     0.03586215    -0.18144778    -0.00015736153
   2793000   0.049894944   -0.29206769     0.035300797   -0.18192931     0.00029591639
   2794000   0.048855502   -0.29191635     0.035571766   -0.18306606     0.00035965376
   2795000   0.049571986   -0.2920876      0.035481752   -0.18225267    -3.6068111e-05
   2796000   0.049818908   -0.29162156     0.035727085   -0.18117093     0.0013311327 
   2797000   0.049611646   -0.29177092     0.036237817   -0.18112043    -0.00032949647
   2798000   0.049965226   -0.29215427     0.035324675   -0.1818866     -8.9793823e-05
   2799000   0.050082321   -0.29134168     0.035365784   -0.18085726     0.0012510419 
   2800000   0.050070494   -0.29150115     0.035697217   -0.18070304     0.00054579937
   2801000   0.050279567   -0.29164757     0.035561452   -0.18067164     0.00030017522
   2802000   0.049904744   -0.29143388     0.035053071   -0.18152852     0.00044382769
   2803000   0.049871347   -0.29189546     0.036045212   -0.18104805     0.00079624872
   2804000   0.049910935   -0.29204846     0.035657048   -0.18152984    -0.00020392184
   2805000   0.049422859   -0.29167313     0.035369272   -0.18217435     0.001066651  
   2806000   0.049846178   -0.29165665     0.034917      -0.18197521     0.00032839739
   2807000   0.049945779   -0.29187481     0.034988788   -0.18197218     0.00088877812
   2808000   0.049937504   -0.29199085     0.036023453   -0.18106598     1.4718244e-05
   2809000   0.049568885   -0.29149086     0.035274158   -0.18186817     0.0010853308 
   2810000   0.049859881   -0.29169832     0.035746438   -0.18116688     0.00046251602
   2811000   0.050067197   -0.29141842     0.035254457   -0.18106801    -0.00015308017
   2812000   0.050158308   -0.291999       0.035618288   -0.18114811    -0.00026670567
   2813000   0.050397327   -0.29206634     0.036206635   -0.18026859     0.00012831488
   2814000   0.050398238   -0.29207262     0.035601871   -0.18087827     0.00068608693
   2815000   0.050352734   -0.29199275     0.035576317   -0.1808922      0.00035101018
   2816000   0.050419372   -0.29176605     0.035600082   -0.18054179     0.00063930425
   2817000   0.050225779   -0.29195131     0.036024597   -0.18059291    -0.00011820465
   2818000   0.049857691   -0.29185961     0.035801082   -0.18127681     0.00024960541
   2819000   0.050405431   -0.2918729      0.035509988   -0.18075964     2.2686522e-05
   2820000   0.05014548    -0.29161385     0.03606326    -0.18033723     1.4521932e-06
   2821000   0.050147563   -0.29150771     0.0355782     -0.18071302     0.00062777534
   2822000   0.049917652   -0.29225876     0.035389435   -0.18199767     0.00030700624
   2823000   0.049953893   -0.29196964     0.035556255   -0.18148738    -0.00032326164
   2824000   0.049746225   -0.29189883     0.035652554   -0.18163175    -0.00027245371
   2825000   0.049874395   -0.29164577     0.034881686   -0.18195732     0.00014893268
   2826000   0.049569375   -0.29243543     0.035207163   -0.182879       0.0014198963 
   2827000   0.049899786   -0.29238465     0.03582827    -0.18171153     0.00062565087
   2828000   0.049368492   -0.29187795     0.035769698   -0.18206029     0.00063764731
   2829000   0.05043312    -0.29192436     0.035687346   -0.18059222     0.0011301666 
   2830000   0.049491637   -0.29212026     0.035218792   -0.1826688      0.000265239  
   2831000   0.050177856   -0.29199904     0.035639593   -0.18109752     0.00090061202
   2832000   0.049808081   -0.2916977      0.035455266   -0.18153514     1.5034915e-05
   2833000   0.04947979    -0.2918762      0.035990919   -0.18167038     0.00055001492
   2834000   0.049920897   -0.29232111     0.0355176     -0.181927      -0.00028676728
   2835000   0.050414767   -0.29221713     0.035945406   -0.18065446     0.00063339835
   2836000   0.050388794   -0.29253701     0.036062571   -0.18089613    -0.00071025418
   2837000   0.050154353   -0.29208323     0.035542412   -0.18131415     0.00032805815
   2838000   0.04998116    -0.29204644     0.035809125   -0.18127041     0.00012046267
   2839000   0.05034978    -0.292207       0.035370812   -0.18131639     0.00070532468
   2840000   0.050266941   -0.29222348     0.035589425   -0.18123851    -0.00055452081
   2841000   0.050231431   -0.29170078     0.035615455   -0.18074304     0.00058713828
   2842000   0.049976451   -0.29212832     0.035563614   -0.18160486     0.00040434868
   2843000   0.050177259   -0.29233428     0.034912398   -0.18216084    -0.0001940101 
   2844000   0.049769949   -0.29240374     0.035987876   -0.18176576     0.0011820363 
   2845000   0.049929702   -0.29232807     0.035954728   -0.18148362    -0.00064388665
   2846000   0.050317989   -0.29242901     0.035296308   -0.18166058     0.00037407796
   2847000   0.049527223   -0.29207453     0.034975477   -0.18281301     9.740576e-05 
   2848000   0.050440408   -0.29290095     0.034827733   -0.18241748     9.3127449e-05
   2849000   0.049919734   -0.29254832     0.034881483   -0.18279207     0.00060758161
   2850000   0.050161237   -0.29262489     0.03534154    -0.18204635     0.00067474186
   2851000   0.049748626   -0.2927345      0.035598908   -0.18251747     0.00038858707
   2852000   0.050157493   -0.29259555     0.035359851   -0.18200432    -0.00054608466
   2853000   0.050310395   -0.29235463     0.035427758   -0.18146615    -2.83382e-05  
   2854000   0.049781467   -0.2921856      0.035708895   -0.18180932     0.000725953  
   2855000   0.049511855   -0.29259471     0.035951943   -0.18237978    -0.00079170757
   2856000   0.050265345   -0.29242664     0.035659072   -0.18137441     0.00043409151
   2857000   0.050417976   -0.2924797      0.035760536   -0.18109708     0.001178738  
   2858000   0.049919671   -0.29183315     0.035370752   -0.18158772     0.00025309455
   2859000   0.050228285   -0.29201527     0.035010876   -0.18166683    -0.00021945902
   2860000   0.049914784   -0.29243264     0.035432859   -0.18213243     0.00041039196
   2861000   0.049888911   -0.29274515     0.035708181   -0.18220843     0.00024520501
   2862000   0.050123168   -0.29265856     0.035225395   -0.18225326    -7.4633476e-05
   2863000   0.049443571   -0.29245892     0.035317159   -0.18298119    -0.00018874799
   2864000   0.049447256   -0.29255093     0.035553225   -0.18283161    -4.9352386e-05
   2865000   0.049398352   -0.29233929     0.035917106   -0.18232944    -0.00039903286
   2866000   0.050004408   -0.29252642     0.035851571   -0.18167308    -0.00030015493
   2867000   0.050315507   -0.29232845     0.035809529   -0.18105053     0.00016576061
   2868000   0.050759352   -0.29212589     0.035448477   -0.18054329    -2.4039234e-05
   2869000   0.049987401   -0.29251171     0.035895987   -0.18163946     0.00026271389
   2870000   0.049980982   -0.29254172     0.035480334   -0.18209475     0.0010118306 
   2871000   0.049417208   -0.29261529     0.03555938    -0.18293488     0.00040380804
   2872000   0.049784654   -0.29228187     0.035451222   -0.18215848     4.2914439e-05
   2873000   0.049413816   -0.29231909     0.035299644   -0.18290351     9.9832582e-05
   2874000   0.050310947   -0.29262283     0.035609761   -0.18155152    -9.8283757e-05
   2875000   0.049945847   -0.29226417     0.035825952   -0.18152428     0.00028304901
   2876000   0.050242174   -0.29242134     0.035568321   -0.18149462     0.0004567589 
   2877000   0.050244169   -0.29276348     0.035813369   -0.18158872     0.00018745895
   2878000   0.050210481   -0.29253339     0.035297361   -0.18192517     0.0016809337 
   2879000   0.049508508   -0.29261986     0.035142547   -0.18321934     0.0011842089 
   2880000   0.05046826    -0.29288245     0.035588032   -0.18159692     0.00054363566
   2881000   0.049911045   -0.2926877      0.034972005   -0.18285396    -0.00027301361
   2882000   0.050059272   -0.29274446     0.035633285   -0.18202711    -0.00051598813
   2883000   0.04980393    -0.29271259     0.035704472   -0.18230704    -0.00013400064
   2884000   0.050288918   -0.29303133     0.034956051   -0.18264677    -0.00014072346
   2885000   0.049749824   -0.29275046     0.035471137   -0.1826594      0.00053294454
   2886000   0.04960907    -0.29272376     0.035681357   -0.1826336     -0.00023432243
   2887000   0.050312603   -0.29288746     0.035445005   -0.18197842     0.00030913131
   2888000   0.049801607   -0.29290028     0.035338135   -0.18286455     0.001416436  
   2889000   0.049934317   -0.29298222     0.035482488   -0.18260309     0.00029195581
   2890000   0.050080675   -0.29266187     0.035536795   -0.18200891    -0.00041450344
   2891000   0.049901696   -0.29300776     0.035931125   -0.18222892    -0.00014834948
   2892000   0.050423965   -0.29315894     0.035651786   -0.18187608     0.00011749527
   2893000   0.050161983   -0.2927475      0.035854453   -0.18165493     0.00064089132
   2894000   0.050064164   -0.29252378     0.036069826   -0.18136255    -0.00047274506
   2895000   0.050191923   -0.29311063     0.035829556   -0.18199805     0.00036461751
   2896000   0.04986385    -0.29301125     0.035964346   -0.18225596    -0.00018226371
   2897000   0.050126646   -0.29281908     0.036056374   -0.18157759     0.0011742966 
   2898000   0.050410619   -0.29268929     0.035708371   -0.18136987     0.00084587942
   2899000   0.049959665   -0.29293227     0.035766624   -0.18223099     6.7234867e-05
   2900000   0.049880658   -0.29281131     0.035707656   -0.18228749     0.00023721857
   2901000   0.049659788   -0.29263929     0.035571834   -0.18258258     0.00024240117
   2902000   0.049604426   -0.29275238     0.035255733   -0.18309481     0.00058196837
   2903000   0.049639814   -0.29302904     0.035442649   -0.18313147     0.00074402788
   2904000   0.049907257   -0.29287238     0.035929611   -0.18208671     8.0716563e-05
   2905000   0.050278271   -0.29246582     0.036049674   -0.1810036      0.00046059196
   2906000   0.049780904   -0.29264541     0.036077668   -0.1819012      0.00033119371
   2907000   0.050422015   -0.2931392      0.035298785   -0.18221228     0.00025827576
   2908000   0.049524229   -0.29309826     0.034881772   -0.18393494     0.00067679335
   2909000   0.049362483   -0.29298982     0.035398015   -0.18355286     0.00025066786
   2910000   0.049453527   -0.29302532     0.035174347   -0.18367547     0.0003100667 
   2911000   0.050090648   -0.29301693     0.035554376   -0.18233143    -0.00038762957
   2912000   0.049633867   -0.2928031      0.035009083   -0.18334802     0.00082324852
   2913000   0.049982357   -0.29296548     0.035002142   -0.18299464     0.00088586699
   2914000   0.049488881   -0.2931702      0.035691333   -0.18325033     0.00052933792
   2915000   0.049609719   -0.29338134     0.035708808   -0.18326276    -9.5959586e-05
   2916000   0.050218447   -0.29330663     0.035239787   -0.18274404     0.00041852026
   2917000   0.050074208   -0.29305425     0.035368516   -0.18257926     0.00030548007
   2918000   0.050228077   -0.29275784     0.0354428     -0.18197779     1.0636038e-05
   2919000   0.049890447   -0.29307696     0.035816162   -0.18242996     0.0001889589 
   2920000   0.049874139   -0.29321296     0.036026632   -0.18237995     0.00082393038
   2921000   0.050084286   -0.29331163     0.035539585   -0.18265047    -0.00028565462
   2922000   0.050069604   -0.29282879     0.035486599   -0.18224263     0.00069855383
   2923000   0.050113365   -0.2930242      0.035135444   -0.18272356     3.7116285e-05
   2924000   0.04979528    -0.29325313     0.035759719   -0.18280531    -0.0003411155 
   2925000   0.049328788   -0.29299215     0.035424606   -0.18357914     0.00019808926
   2926000   0.050353665   -0.29345923     0.035054985   -0.18287862     0.00074004207
   2927000   0.049928444   -0.29321294     0.035205062   -0.18312004     0.00023383181
   2928000   0.049499469   -0.29310069     0.035425494   -0.18343078    -0.0004623608 
   2929000   0.049479482   -0.29313305     0.035888366   -0.18303024     0.00071776281
   2930000   0.050038292   -0.29322725     0.035072285   -0.18310237    -0.00049479971
   2931000   0.049683246   -0.29348999     0.035687882   -0.18328204    -0.00077158575
   2932000   0.049626583   -0.29299589     0.035380336   -0.18318048     0.00025208289
   2933000   0.049657019   -0.29319663     0.035858734   -0.18285718    -3.5695412e-05
   2934000   0.049290271   -0.29337331     0.035317404   -0.18412527     0.00046249581
   2935000   0.050205853   -0.29318069     0.035870791   -0.18200598     0.00080209925
   2936000   0.051039761   -0.29329981     0.035270948   -0.18147416     0.00076207645
   2937000   0.050095912   -0.29377898     0.03540703    -0.18323293     0.00052626718
   2938000   0.049915381   -0.29345891     0.034783399   -0.18380727    -0.00061917489
   2939000   0.049112039   -0.29326706     0.035362381   -0.18424137     0.00052502709
   2940000   0.049680769   -0.29396443     0.035765768   -0.18368232     0.00052330388
   2941000   0.050082026   -0.29366861     0.035675679   -0.18287474     0.00053071755
   2942000   0.049729958   -0.29339198     0.035343262   -0.18345859     0.00062781837
   2943000   0.049966092   -0.29380091     0.035965781   -0.18289083    -0.00046930449
   2944000   0.050091663   -0.2936926      0.034796961   -0.18376299     0.0012066683 
   2945000   0.049932452   -0.29333015     0.035838836   -0.18259747    -0.00037065428
   2946000   0.050549263   -0.29355714     0.035253946   -0.18248419     0.00073533758
   2947000   0.050191832   -0.293846       0.035162819   -0.18340029    -0.00023268978
   2948000   0.049816383   -0.29361991     0.034953737   -0.18394641     0.00012390793
   2949000   0.049840402   -0.29365254     0.035617338   -0.18327942    -0.00018271372
   2950000   0.050280651   -0.29369404     0.03568198    -0.18259595     0.00046769752
   2951000   0.050310175   -0.29354394     0.035215463   -0.18286808     0.0014285764 
   2952000   0.049735911   -0.29366963     0.03585909    -0.18321149     5.4683244e-05
   2953000   0.050028886   -0.29367166     0.035082655   -0.18355051     0.00016918528
   2954000   0.049342557   -0.29352173     0.035728124   -0.18378455    -3.2303474e-05
   2955000   0.049687873   -0.29348061     0.035384721   -0.18356889     0.00099192062
   2956000   0.049958841   -0.29377145     0.035556202   -0.18328182     0.00033125453
   2957000   0.049519073   -0.29388546     0.036084249   -0.1835274     -1.2590959e-06
   2958000   0.049962141   -0.29339861     0.035682226   -0.182778       1.4568994e-05
   2959000   0.050213223   -0.29360415     0.035334736   -0.18295444     0.00038742186
   2960000   0.050243796   -0.29348167     0.03591274    -0.1822081      0.00030240115
   2961000   0.050745109   -0.29317055     0.035397236   -0.18166056     0.00027114557
   2962000   0.049889896   -0.29390945     0.035867378   -0.18321205     6.1174344e-05
   2963000   0.050258762   -0.29405837     0.03542672    -0.18324837     0.00061212487
   2964000   0.050129587   -0.293586       0.035346722   -0.18304975    -0.00040316721
   2965000   0.050035761   -0.2936868      0.035060904   -0.1835771      0.00082543517
   2966000   0.049794514   -0.29408391     0.035319819   -0.18407714     0.00075874269
   2967000   0.049741555   -0.29340514     0.03473143    -0.18406619     2.4598031e-05
   2968000   0.050024328   -0.2940992      0.035692161   -0.18337539    -0.00013199145
   2969000   0.049996641   -0.29381764     0.035633166   -0.18319435    -0.00029127483
   2970000   0.049416837   -0.29366251     0.035691247   -0.18385079    -0.0004997041 
   2971000   0.049977953   -0.29380915     0.035321221   -0.18352584    -0.00015289873
   2972000   0.050203853   -0.29370127     0.035512077   -0.18288827    -0.00039410216
   2973000   0.050285338   -0.29359839     0.03559447    -0.18258078    -8.3604939e-05
   2974000   0.050086446   -0.29371476     0.036068912   -0.18252102     0.00051873545
   2975000   0.050208946   -0.29373687     0.035751325   -0.18267699    -0.00035451049
   2976000   0.04996868    -0.29334458     0.035935463   -0.18246094     0.00033572323
   2977000   0.050405048   -0.29360537     0.035603299   -0.18239938     0.00035813293
   2978000   0.049930641   -0.29394282     0.035637596   -0.1834141     -0.00011987188
   2979000   0.049897101   -0.29385365     0.035552024   -0.1834608     -0.00028542011
   2980000   0.050270507   -0.29403368     0.035668435   -0.18296435     1.1307379e-05
   2981000   0.049796563   -0.2938542      0.03579936    -0.18336482    -0.00067331463
   2982000   0.049809753   -0.29378544     0.035552771   -0.18352286     0.00072137574
   2983000   0.050167842   -0.2937343      0.035352486   -0.1831349      0.0010263306 
   2984000   0.050277227   -0.29405262     0.035568445   -0.1830732     -0.00051431915
   2985000   0.049383948   -0.29339866     0.035435993   -0.18389152    -0.00064809291
   2986000   0.050089172   -0.29410036     0.035517149   -0.1834543     -0.00056879789
   2987000   0.05003647    -0.29403117     0.035850464   -0.18313084     0.00051634375
   2988000   0.050315706   -0.2938607      0.03551963    -0.18287238     0.00011130989
   2989000   0.049837086   -0.29374896     0.035110482   -0.18388768     0.00012744275
   2990000   0.05011545    -0.29426378     0.035869766   -0.18322568    -4.0019419e-05
   2991000   0.049729176   -0.29369379     0.035493468   -0.18361137     0.00028300859
   2992000   0.050539059   -0.29402745     0.035468913   -0.18275484     0.00040411635
   2993000   0.049969025   -0.29397779     0.035690851   -0.18333824     0.00020286002
   2994000   0.049529709   -0.29387793     0.035741943   -0.18384621     0.00080964696
   2995000   0.050374109   -0.29361451     0.035952973   -0.18210525     0.00054735568
   2996000   0.050161157   -0.29429206     0.035784259   -0.18327092    -5.2940283e-05
   2997000   0.050133222   -0.29375001     0.035432222   -0.18312281     0.00063042164
   2998000   0.050394835   -0.29400972     0.036361133   -0.18206121    -9.9230804e-05
   2999000   0.050340086   -0.29394118     0.036116059   -0.18231986     0.00060546602
   3000000   0.050010626   -0.29386463     0.036043308   -0.18281022    -0.00074780999
   3001000   0.050384962   -0.2942571      0.035711417   -0.18297311     4.8334807e-05
   3002000   0.050381683   -0.29419943     0.036124224   -0.18250756     0.00026734708
   3003000   0.049669281   -0.29364814     0.035189836   -0.18395919     0.00067842156
   3004000   0.049581823   -0.29417861     0.035501755   -0.18430892     0.0004378115 
   3005000   0.050196014   -0.29444218     0.035126891   -0.18402613    -6.7185418e-05
   3006000   0.04968317    -0.29435962     0.03558438    -0.18425529     6.1563706e-05
   3007000   0.049903089   -0.29387228     0.035384253   -0.18363822     0.00021219608
   3008000   0.049986798   -0.29409419     0.035138856   -0.18397998     0.00094571534
   3009000   0.050189568   -0.29468938     0.036069587   -0.1833403     -6.2706838e-05
   3010000   0.050206825   -0.29468693     0.035584595   -0.18379696    -0.00024549334
   3011000   0.049409516   -0.29451555     0.035244778   -0.18516128     0.00018585824
   3012000   0.049995852   -0.29463652     0.035368516   -0.18427907    -0.00011719784
   3013000   0.050132329   -0.29465157     0.035539943   -0.18391798    -0.00024997193
   3014000   0.04962067    -0.29466879     0.035324293   -0.1849183      0.0009478396 
   3015000   0.049811269   -0.29456138     0.036170941   -0.18367836    -0.00085084941
   3016000   0.04970615    -0.29420957     0.035445472   -0.18420969     0.0011340899 
   3017000   0.050078432   -0.29420147     0.035445701   -0.18364297     0.00044161216
   3018000   0.050800502   -0.29433184     0.036392832   -0.18174317    -0.00035925558
   3019000   0.049659241   -0.29418815     0.03580492    -0.18389917     0.00053748688
   3020000   0.049937047   -0.29424292     0.036180061   -0.18316212    -0.00073082508
   3021000   0.050035394   -0.29448642     0.035813059   -0.18362511    -0.00017884383
   3022000   0.050529594   -0.29442743     0.035847005   -0.18279093     0.00094648699
   3023000   0.049984888   -0.29420453     0.035899452   -0.18333259     4.9956962e-05
   3024000   0.049898101   -0.29408391     0.036285805   -0.18295579     0.00041695324
   3025000   0.049722975   -0.29416166     0.035930514   -0.18365149     0.00018046227
   3026000   0.050507031   -0.29464988     0.035731118   -0.18316311    -5.5381129e-05
   3027000   0.049965589   -0.29448162     0.035504591   -0.18403348     0.00017813303
   3028000   0.050173295   -0.29445724     0.035142832   -0.18405932     0.00019294603
   3029000   0.050505477   -0.29477909     0.035499208   -0.18352655     0.00091922339
   3030000   0.04989081    -0.29465468     0.035614713   -0.18420858     0.00022575255
   3031000   0.050589255   -0.29472236     0.035550479   -0.18329289     5.193037e-05 
   3032000   0.049883791   -0.29460835     0.03534408    -0.18444341     0.0010990442 
   3033000   0.050055488   -0.29490703     0.03574425    -0.18408439    -0.00024020459
   3034000   0.050191638   -0.29482648     0.035399782   -0.1841441     -0.00054836712
   3035000   0.050045764   -0.29494416     0.035812674   -0.18406768    -2.9353485e-05
   3036000   0.050119699   -0.29480061     0.035946454   -0.18367946    -0.00011912795
   3037000   0.050704053   -0.29454989     0.035126186   -0.18337253     0.0010837021 
   3038000   0.050344497   -0.29480733     0.035668546   -0.18362691     0.00077833742
   3039000   0.050094847   -0.29473721     0.035384121   -0.18421566    -9.1609399e-05
   3040000   0.049504486   -0.29498517     0.035817999   -0.18491523     0.00092152036
   3041000   0.04997193    -0.29499281     0.034902568   -0.18513718    -1.3900524e-05
   3042000   0.049987153   -0.29525258     0.03521959    -0.1850571      0.00042161562
   3043000   0.050197526   -0.29497443     0.03567841    -0.18400459    -0.00013609648
   3044000   0.050039252   -0.29474937     0.035556913   -0.18413843    -0.00014152316
   3045000   0.049949149   -0.29504622     0.035565271   -0.18456206     0.00066962601
   3046000   0.050167356   -0.29469781     0.035734819   -0.18371681     0.0015774663 
   3047000   0.050047503   -0.29478941     0.035516989   -0.18420601     0.00077811577
   3048000   0.050232436   -0.29457461     0.035497396   -0.18373342    -7.8382299e-05
   3049000   0.050264367   -0.29489963     0.035847226   -0.18366071    -0.00026700176
   3050000   0.04976453    -0.29528711     0.035385413   -0.18525972     0.00046060061
   3051000   0.04957366    -0.29508728     0.035660937   -0.18507065    -0.00030042736
   3052000   0.049974282   -0.29510661     0.035365207   -0.18478482    -0.0010121989 
   3053000   0.050085113   -0.29530596     0.035437173   -0.18474596    -0.00020565948
   3054000   0.049932642   -0.2950856      0.036103996   -0.18408748    -7.6784196e-05
   3055000   0.049939665   -0.29511622     0.03577056    -0.18444099     4.1111366e-06
   3056000   0.049600369   -0.2952723      0.035857841   -0.18501871    -0.00075332463
   3057000   0.049960571   -0.29504286     0.035428348   -0.18467849     0.00040704595
   3058000   0.050250722   -0.2950811      0.035519264   -0.18419061    -2.6951613e-05
   3059000   0.050011744   -0.29471812     0.036048234   -0.18365711     0.00017433127
   3060000   0.049661232   -0.29528028     0.03544577    -0.18534747    -0.00042954261
   3061000   0.050286741   -0.29548146     0.035796594   -0.18425962    -0.00079062778
   3062000   0.050215148   -0.2951682      0.035579027   -0.18427131     0.00043783648
   3063000   0.049996538   -0.29542807     0.035761546   -0.18467655     0.00047176135
   3064000   0.049983447   -0.29541417     0.03542324    -0.1850206      0.0013183807 
   3065000   0.0498721     -0.2953872      0.034852572   -0.1857313      0.0010707914 
   3066000   0.050216312   -0.29537782     0.035463397   -0.18459482    -8.4396262e-06
   3067000   0.049751205   -0.29534359     0.035919711   -0.18480189    -0.00056421803
   3068000   0.049779775   -0.29518161     0.035648603   -0.18486816     0.00053305543
   3069000   0.050139301   -0.29549848     0.035774775   -0.1845196      0.00075437861
   3070000   0.050424456   -0.29541287     0.036198601   -0.18358247     0.0009972306 
   3071000   0.050296669   -0.29548126     0.035269542   -0.18477158     0.00050020993
   3072000   0.049817887   -0.29540403     0.034963936   -0.18571808     0.001017644  
   3073000   0.050088747   -0.29507261     0.035353449   -0.18459089     0.00051244372
   3074000   0.049984091   -0.29550895     0.035760071   -0.18477758    -0.00042238544
   3075000   0.049305538   -0.29541513     0.035209706   -0.18625189     0.00010577343
   3076000   0.049403787   -0.29500447     0.035369621   -0.18553395     0.00025695384
   3077000   0.049552992   -0.29547425     0.035606717   -0.18554284    -7.9766734e-05
   3078000   0.050406381   -0.29528988     0.036179262   -0.18350593     0.00022292688
   3079000   0.050196189   -0.29532334     0.035498852   -0.18453506     0.0008541246 
   3080000   0.049699813   -0.2957772      0.035127573   -0.18610472     0.00074617186
   3081000   0.050094328   -0.29579305     0.035754977   -0.18490143     0.00051847247
   3082000   0.050162548   -0.29526125     0.035676296   -0.18434599     0.00089007463
   3083000   0.049980483   -0.29527543     0.035070426   -0.18523911     0.00071480727
   3084000   0.05023992    -0.29490967     0.035355071   -0.18419958     0.00084909387
   3085000   0.050009873   -0.295591       0.036061817   -0.18451921    -0.00020502495
   3086000   0.049857737   -0.29548182     0.035464202   -0.18523583     0.0004447933 
   3087000   0.050143805   -0.29535705     0.034942002   -0.18520419    -0.00066270402
   3088000   0.049779973   -0.29544413     0.035454191   -0.18532479     0.0014152403 
   3089000   0.049455006   -0.29542876     0.03523676    -0.18601428     0.00073235928
   3090000   0.05045974    -0.29582424     0.035331181   -0.18480833     0.00056021418
   3091000   0.050377747   -0.29518193     0.035604441   -0.18401574     0.00070147704
   3092000   0.050921351   -0.2953777      0.036062891   -0.18293771     4.9863741e-06
   3093000   0.050505786   -0.29501396     0.036378132   -0.18288204    -0.00042548054
   3094000   0.049983181   -0.29495248     0.035595098   -0.18438745     0.00088427927
   3095000   0.050230031   -0.29572323     0.035190692   -0.18519236     0.00053802535
   3096000   0.049718721   -0.29558559     0.035148674   -0.18586364     8.6974807e-05
   3097000   0.049613591   -0.29598387     0.035898198   -0.18567009     0.00013124919
   3098000   0.050122947   -0.29563454     0.035437141   -0.18501783     0.00028694383
   3099000   0.049888445   -0.29570135     0.035844401   -0.18502911    -9.6346897e-05
   3100000   0.049806948   -0.29578699     0.035614279   -0.18546711     0.00016757901
   3101000   0.049636549   -0.29597488     0.035437966   -0.1860869      0.00059391757
   3102000   0.050180048   -0.29573179     0.035928576   -0.184538       0.00027425257
   3103000   0.050374907   -0.29552084     0.035766559   -0.1841968     -7.7497435e-05
   3104000   0.050210956   -0.29567061     0.036139217   -0.18421981     0.00049828488
   3105000   0.050478916   -0.29570943     0.035236675   -0.18475926     0.00078852139
   3106000   0.050396695   -0.29585802     0.035857532   -0.18441032     0.0001443623 
   3107000   0.049378121   -0.29564436     0.035869631   -0.18571232    -0.00038266211
   3108000   0.050066449   -0.2959202      0.035861816   -0.18496355     0.00075235367
   3109000   0.050002755   -0.29589358     0.035422886   -0.18547141     0.00043215607
   3110000   0.050067016   -0.29558808     0.035551752   -0.18494065     0.00036688146
   3111000   0.050241258   -0.29605592     0.035709067   -0.18498983    -5.6777937e-05
   3112000   0.050359933   -0.29598903     0.03614945    -0.18430455     0.00015010947
   3113000   0.050499033   -0.29616057     0.035869837   -0.18454707    -0.0003085756 
   3114000   0.050598933   -0.29591279     0.035603538   -0.18441575     0.00042785828
   3115000   0.050291528   -0.29593022     0.036102301   -0.18439549     0.0009729753 
   3116000   0.050979787   -0.29587723     0.034998686   -0.1844138      0.0010218817 
   3117000   0.049945313   -0.2959276      0.035996738   -0.18501773     0.00041683542
   3118000   0.050173264   -0.29612172     0.035496694   -0.18536998     0.00087471467
   3119000   0.049609766   -0.29612723     0.035097278   -0.1866201      0.00088553598
   3120000   0.050220799   -0.29606825     0.034926231   -0.18581568     0.00057871177
   3121000   0.049140487   -0.29591336     0.035979681   -0.18622771    -0.00070674151
   3122000   0.049986638   -0.29610308     0.035601071   -0.18552689    -0.00025110666
   3123000   0.05036153    -0.29606334     0.035620233   -0.18490569     0.0012910653 
   3124000   0.049554601   -0.29623896     0.03558069    -0.18633117     0.00021279413
   3125000   0.050164898   -0.29629697     0.035323053   -0.18573143     0.00086146616
   3126000   0.050153824   -0.29599279     0.03587864    -0.18488827     0.00011745089
   3127000   0.050478428   -0.29612401     0.035810695   -0.18460056    -0.00026958753
   3128000   0.049984146   -0.29617237     0.035458389   -0.1857426     -5.2611027e-05
   3129000   0.049981491   -0.29608153     0.035295724   -0.18581841     0.00037724579
   3130000   0.049686885   -0.29597842     0.035992684   -0.18546021     0.00019532695
   3131000   0.049893899   -0.29636876     0.035633958   -0.18589878     0.00071154266
   3132000   0.04965506    -0.2961361      0.035939674   -0.18571865     0.00016791313
   3133000   0.049685292   -0.29576777     0.035408268   -0.18583637     9.1401561e-05
   3134000   0.04983032    -0.29646596     0.035910885   -0.18581442    -0.0003924562 
   3135000   0.049319225   -0.29608347     0.035925479   -0.18618392     0.0013297334 
   3136000   0.050024847   -0.29602194     0.03591614    -0.18507337     0.00067636915
   3137000   0.050339932   -0.29628335     0.036049319   -0.18472901    -0.0010944487 
   3138000   0.050438596   -0.29651063     0.035473325   -0.18538429     0.00053814903
   3139000   0.050178568   -0.29679375     0.035859115   -0.18567164     5.0023627e-05
   3140000   0.050239046   -0.29653854     0.035872285   -0.18531255     0.00012490405
   3141000   0.050006431   -0.29581372     0.035500679   -0.18530824     0.00033198321
   3142000   0.05026118    -0.29621916     0.035389922   -0.18544233     0.00014788001
   3143000   0.049643945   -0.29657568     0.035607789   -0.18650678    -0.00018790567
   3144000   0.049636934   -0.29681749     0.035468224   -0.18689866    -0.00025093677
   3145000   0.049840846   -0.29631692     0.035253399   -0.18630708     0.00096787484
   3146000   0.049556017   -0.29645733     0.035547191   -0.18658091     0.00125155   
   3147000   0.049580417   -0.29611981     0.035359169   -0.18639482    -0.00016247562
   3148000   0.050128532   -0.29656225     0.035705677   -0.18566863     0.00076952437
   3149000   0.050393877   -0.29698225     0.035476224   -0.18592009    -0.00035912086
   3150000   0.050171284   -0.29680772     0.035380949   -0.1861747      0.00078758784
   3151000   0.050453268   -0.2967859      0.035031622   -0.18607926     0.00062155946
   3152000   0.050142695   -0.29678687     0.035752172   -0.18582551     0.00093741205
   3153000   0.049311827   -0.29705703     0.036160648   -0.18693341    -0.00031302886
   3154000   0.050160513   -0.29707224     0.035744924   -0.1860914     -0.00078914895
   3155000   0.050101461   -0.29703937     0.035697658   -0.18619437     0.00026270344
   3156000   0.049710735   -0.29717914     0.035849118   -0.18676873    -0.0011043225 
   3157000   0.050451763   -0.29662636     0.035412955   -0.18554064     0.00054131926
   3158000   0.050061488   -0.29696764     0.035905749   -0.1859745      0.00045991509
   3159000   0.050397024   -0.29720659     0.035616307   -0.18599963     2.0240313e-05
   3160000   0.049646412   -0.29682021     0.035276271   -0.18707913     0.00097534985
   3161000   0.049897019   -0.29709548     0.035354419   -0.18690036    -0.0004174121 
   3162000   0.049758615   -0.29724143     0.035473118   -0.1871352      0.00033945809
   3163000   0.050620047   -0.29745233     0.034990864   -0.18653629    -0.0005648707 
   3164000   0.049650612   -0.29702787     0.035773818   -0.18678294     0.00076512197
   3165000   0.050290238   -0.29732914     0.035385074   -0.18651358     0.00025067858
   3166000   0.049965324   -0.29734486     0.035549243   -0.18685246    -0.0012570349 
   3167000   0.050045565   -0.29715455     0.035771965   -0.18631909     0.0009826062 
   3168000   0.049963139   -0.29733177     0.035690553   -0.18670135     0.00063229629
   3169000   0.050477854   -0.29714508     0.035801177   -0.185632      -0.00013000098
   3170000   0.049634651   -0.29704431     0.035749915   -0.18684723    -0.00084370058
   3171000   0.05002086    -0.29729931     0.035100182   -0.18717268     0.00032401308
   3172000   0.049912737   -0.29716801     0.035970926   -0.18633281     0.00017747521
   3173000   0.050292352   -0.29694333     0.035312669   -0.186197      -0.00036682154
   3174000   0.050143766   -0.29745691     0.036259598   -0.18598652     0.00034337552
   3175000   0.049897024   -0.29721615     0.035357586   -0.18701785     1.6815672e-05
   3176000   0.049779491   -0.29725535     0.036031991   -0.18655894     0.00039817765
   3177000   0.050231086   -0.29733091     0.035324212   -0.18666493     0.00072261213
   3178000   0.050240313   -0.2973779      0.0358939     -0.18612839    -0.00051123614
   3179000   0.050566757   -0.29725003     0.035959845   -0.18544495    -0.00019002407
   3180000   0.050269859   -0.29703846     0.035861916   -0.18577662    -9.4101256e-05
   3181000   0.050127979   -0.29745643     0.035025773   -0.18724353     0.0006343226 
   3182000   0.049573361   -0.29744833     0.035054422   -0.18803866     0.0007101943 
   3183000   0.049708211   -0.29728079     0.035016326   -0.18770695     0.00026909308
   3184000   0.049976501   -0.29732852     0.035583263   -0.18678534     0.0012155871 
   3185000   0.049858558   -0.29712949     0.035228025   -0.18711846     0.00055704369
   3186000   0.049687512   -0.29778128     0.03524746    -0.18800736    -0.0011679253 
   3187000   0.049956278   -0.29707721     0.035946157   -0.18620147     0.0010406377 
   3188000   0.050286779   -0.29746644     0.035332129   -0.18670901     0.00042068304
   3189000   0.049441173   -0.29758602     0.035362177   -0.18806687    -0.00037634189
   3190000   0.049670567   -0.29728567     0.035019074   -0.18776555     0.0014410677 
   3191000   0.050065103   -0.29759606     0.035442808   -0.18706045    -0.00026373169
   3192000   0.050073203   -0.297529       0.034939264   -0.18748477     0.00040187816
   3193000   0.049436352   -0.29771199     0.035843817   -0.18771843    -0.00054267607
   3194000   0.050426561   -0.29738868     0.035643641   -0.18611008     0.00053498696
   3195000   0.050105309   -0.29753005     0.035472099   -0.18690484     0.00054007314
   3196000   0.049961543   -0.2975127      0.035676985   -0.18689824    -0.00042063388
   3197000   0.049719719   -0.29752779     0.035302485   -0.18765054     7.748974e-05 
   3198000   0.049997607   -0.29742311     0.036057707   -0.18637384    -8.8562381e-05
   3199000   0.04996035    -0.29726159     0.035618915   -0.18670698    -0.00023462555
   3200000   0.05009066    -0.29719671     0.035938246   -0.18612732     0.00062308757
   3201000   0.051009077   -0.29759109     0.035246497   -0.18583592     2.3021361e-06
   3202000   0.050192376   -0.29734277     0.035497513   -0.18656155     0.00015044026
   3203000   0.049901503   -0.29769443     0.035163419   -0.18768359     0.00065051526
   3204000   0.04979769    -0.29737045     0.035607652   -0.18707108    -0.000502213  
   3205000   0.049707814   -0.29759926     0.035011452   -0.1880309      0.00049756228
   3206000   0.049969619   -0.29747288     0.035793131   -0.18673016     0.00099396549
   3207000   0.050110325   -0.29765428     0.035330443   -0.1871632      0.00024972998
   3208000   0.04989955    -0.29756487     0.035966502   -0.18675387     7.1495692e-05
   3209000   0.049709531   -0.29717624     0.035557471   -0.18705928    -0.00048035381
   3210000   0.050377142   -0.2977143      0.035927086   -0.18622638    -0.00024032426
   3211000   0.049976427   -0.29738839     0.035657356   -0.18677123     0.0011552975 
   3212000   0.049331392   -0.29733193     0.035880136   -0.18745948    -0.0002732215 
   3213000   0.050244957   -0.29780663     0.035613296   -0.18683076    -2.7685064e-05
   3214000   0.050166623   -0.29778254     0.035457759   -0.1870797      0.00011003475
   3215000   0.049522464   -0.29777581     0.035721486   -0.18777542    -0.00015865826
   3216000   0.049946347   -0.29778918     0.035801856   -0.18707264     0.00078988804
   3217000   0.049984804   -0.29785639     0.035844535   -0.18703948    -4.6980357e-05
   3218000   0.049654105   -0.29734625     0.035795765   -0.18707413    -0.00085140256
   3219000   0.04998083    -0.29718962     0.035706101   -0.18651711    -0.0004038747 
   3220000   0.050031783   -0.29756016     0.035447302   -0.18707003     0.000771073  
   3221000   0.050249671   -0.29758106     0.0356053     -0.18660612    -0.0004444568 
   3222000   0.049636192   -0.29777293     0.035445787   -0.18787765     0.00017059864
   3223000   0.0496593     -0.29778237     0.034881279   -0.18841695     0.00012116635
   3224000   0.04989911    -0.29760348     0.034905227   -0.18785442     0.0008608962 
   3225000   0.049871178   -0.29779077     0.035536589   -0.18745224     0.00024874116
   3226000   0.049732805   -0.29767599     0.035608268   -0.18747332    -0.00046173385
   3227000   0.05021568    -0.29734592     0.035943069   -0.18608419     0.00019339074
   3228000   0.0502734     -0.29772628     0.03564825    -0.1866728     -0.00032885058
   3229000   0.050642041   -0.29744123     0.035641365   -0.1858417      6.8098741e-05
   3230000   0.050123851   -0.29751744     0.035669326   -0.18666719    -0.00013673579
   3231000   0.050399866   -0.297591       0.035436551   -0.18655953     0.00013806404
   3232000   0.050424363   -0.29789125     0.035570533   -0.18668905     0.00019460352
   3233000   0.050039977   -0.29755395     0.035634221   -0.1868646      0.00049071053
   3234000   0.049775722   -0.2981852      0.035077409   -0.18844903    -8.9108844e-05
   3235000   0.049816702   -0.29797018     0.035104641   -0.18814531    -0.00013297814
   3236000   0.050288433   -0.29811451     0.035665126   -0.1870216      0.00055840553
   3237000   0.050205952   -0.29750185     0.03573921    -0.18645857     0.0008489003 
   3238000   0.050328034   -0.29762217     0.035425879   -0.18670911     0.00052694184
   3239000   0.049791804   -0.29798421     0.036368898   -0.18693243    -0.00019970395
   3240000   0.050203305   -0.29781693     0.035229935   -0.18728689    -0.00034815941
   3241000   0.049652507   -0.29780347     0.035411423   -0.18791809     0.00029441271
   3242000   0.049794889   -0.29773862     0.035606233   -0.18744488     0.00048650236
   3243000   0.049466928   -0.29788264     0.034988197   -0.18869884     0.00072943553
   3244000   0.049688432   -0.29804949     0.035548929   -0.18797272     0.00034792975
   3245000   0.049935117   -0.29799651     0.035219108   -0.18787956    -0.00025325761
   3246000   0.049531011   -0.29817407     0.035851212   -0.18803113    -0.00045312589
   3247000   0.049494792   -0.29802733     0.03569934    -0.18809059     0.00072559118
   3248000   0.050187117   -0.298031       0.035375885   -0.18737929     0.00056952133
   3249000   0.049892317   -0.29834104     0.035904244   -0.18760315    -0.00041117742
   3250000   0.050069766   -0.29852756     0.035688745   -0.18773901    -7.1714484e-05
   3251000   0.050692129   -0.29839274     0.035126707   -0.18723275     0.00048307593
   3252000   0.049624883   -0.29849745     0.035981252   -0.18808368     0.00065252384
   3253000   0.050070989   -0.29823394     0.03554137    -0.18759093    -0.00043219967
   3254000   0.049873474   -0.29838684     0.035465223   -0.18811624    -9.9396953e-05
   3255000   0.050412073   -0.29821804     0.035390903   -0.1872139     -3.1291362e-05
   3256000   0.049997201   -0.2977682      0.035508877   -0.18726836     0.00046016463
   3257000   0.049942832   -0.29851708     0.035295812   -0.18831186    -0.00018045211
   3258000   0.049704216   -0.29857724     0.035543948   -0.18848177     6.3719783e-05
   3259000   0.049986151   -0.29836147     0.035878995   -0.18750809     3.7095207e-05
   3260000   0.050038116   -0.29828739     0.035329092   -0.18790596    -0.00015551197
   3261000   0.050331295   -0.29807676     0.035974328   -0.18661036     0.00033528908
   3262000   0.049790555   -0.29799977     0.035694557   -0.1876242     -0.00032581815
   3263000   0.049856821   -0.2983367      0.035647824   -0.18790847    -0.00034255317
   3264000   0.050327191   -0.29856497     0.035678848   -0.18740021     0.00048642625
   3265000   0.049856283   -0.29819361     0.035413879   -0.18800013     0.00026122986
   3266000   0.050144835   -0.29835795     0.035660947   -0.18748461     0.00069764962
   3267000   0.050268366   -0.29838875     0.035222103   -0.18776896     0.00014947624
   3268000   0.049682733   -0.29819048     0.036270413   -0.18740077    -5.2573076e-05
   3269000   0.050703863   -0.29839576     0.035767913   -0.18657696     0.00012477984
   3270000   0.050264574   -0.29836737     0.036082686   -0.18689269    -0.000182479  
   3271000   0.050054281   -0.2982293      0.035100316   -0.18805241     0.00033021368
   3272000   0.049802547   -0.29833916     0.035763782   -0.18787638    -0.00062424489
   3273000   0.049614935   -0.29841315     0.035227184   -0.18876836     0.0008423185 
   3274000   0.049442276   -0.29799935     0.036325242   -0.18751548     1.4359156e-05
   3275000   0.050086583   -0.29828813     0.035833197   -0.1873299     -0.00012470835
   3276000   0.050591726   -0.29816105     0.035546709   -0.18673165     0.00026130612
   3277000   0.049965424   -0.29810581     0.035421407   -0.1877411      0.00014268133
   3278000   0.049668053   -0.2984171      0.035815349   -0.18810448    -0.0002660526 
   3279000   0.049908846   -0.29837622     0.035437654   -0.18808012     0.0010512177 
   3280000   0.049528596   -0.29827006     0.036507757   -0.1874742     -0.00047543438
   3281000   0.050415959   -0.29841732     0.03557854    -0.18721972     0.00063843031
   3282000   0.049789901   -0.29854041     0.035139223   -0.18872115    -0.0011728569 
   3283000   0.050235495   -0.29865891     0.035783212   -0.18752731     0.00022566097
   3284000   0.049833645   -0.29849699     0.035315274   -0.18843607     0.00013657225
   3285000   0.04999288    -0.29843104     0.035882856   -0.1875637     -0.00027184757
   3286000   0.050308315   -0.29836879     0.035718716   -0.18719247     0.0007074835 
   3287000   0.050199943   -0.29811431     0.03588562    -0.18693363     0.00017423286
   3288000   0.049419637   -0.29830411     0.035923996   -0.18825544    -0.0003782376 
   3289000   0.04992357    -0.29835742     0.035735576   -0.18774132     0.00079694835
   3290000   0.050210149   -0.2983981      0.035558277   -0.18752946     7.4937208e-06
   3291000   0.049900883   -0.29849519     0.035294718   -0.18835398     0.00010705193
   3292000   0.049845342   -0.29853339     0.035601085   -0.18816911    -0.00018513436
   3293000   0.050007632   -0.29865095     0.035539882   -0.18810446    -0.00014476644
   3294000   0.050258809   -0.29859025     0.035508483   -0.18769842     0.00050445472
   3295000   0.049630817   -0.29809504     0.035745148   -0.18790847     0.00032073032
   3296000   0.050125397   -0.29833368     0.035727879   -0.18742256     0.00050785192
   3297000   0.050103879   -0.29874777     0.035712536   -0.18788426     0.00019016192
   3298000   0.050418603   -0.29869541     0.0355236     -0.18754878     0.00072979649
   3299000   0.04983226    -0.29837022     0.035226386   -0.18840027     0.00024042392
   3300000   0.050039007   -0.29867563     0.035486279   -0.18813569     0.00080419638
   3301000   0.049816374   -0.2985655      0.035131032   -0.18871473     0.00035784527
   3302000   0.050167624   -0.29840458     0.035913169   -0.18724483    -0.00038010342
   3303000   0.050223595   -0.29860703     0.03553865    -0.18773785     0.00016087516
   3304000   0.049753788   -0.29840012     0.035600067   -0.18817419     0.00022768141
   3305000   0.049808202   -0.2988952      0.036179913   -0.1880078      0.00011563003
   3306000   0.050347254   -0.29861716     0.035550019   -0.18755114     0.00025751085
   3307000   0.049903787   -0.29843715     0.034835604   -0.18875069    -3.1047832e-05
   3308000   0.049584361   -0.29853845     0.035175901   -0.18899081     0.00081942832
   3309000   0.05022261    -0.29873893     0.035479643   -0.18793023     0.00042004944
   3310000   0.050424307   -0.29885555     0.035898751   -0.18732521     0.00024422668
   3311000   0.049922507   -0.29862687     0.03635388    -0.18739406     0.0003000202 
   3312000   0.049999592   -0.29863394     0.035694075   -0.18794531    -0.00039212024
   3313000   0.050072846   -0.29838103     0.036053745   -0.18722286     0.00014099682
   3314000   0.050873413   -0.29849259     0.0356317     -0.18655569    -9.3899382e-06
   3315000   0.049911236   -0.29853756     0.034877519   -0.18879802    -0.00062001409
   3316000   0.049870553   -0.29874744     0.035717476   -0.18822896    -0.0014308669 
   3317000   0.049697893   -0.29856506     0.03564157    -0.18838146     0.00042355299
   3318000   0.049480786   -0.2986362      0.03560917    -0.18881064     0.00044505041
   3319000   0.049602709   -0.29835389     0.0354242     -0.18853042    -8.7402604e-05
   3320000   0.049651329   -0.29858345     0.035441533   -0.18866973     0.00031739087
   3321000   0.050352588   -0.29891485     0.035287243   -0.1881036      0.00076714466
   3322000   0.049855504   -0.29896833     0.035519221   -0.18867068    -0.00053144761
   3323000   0.050445434   -0.29911702     0.035219699   -0.18823405     0.00058852259
   3324000   0.049754443   -0.29864277     0.035795215   -0.18822071     0.00051281594
   3325000   0.049796517   -0.29866092     0.035767353   -0.18820361    -0.00079937128
   3326000   0.049954118   -0.29848458     0.035255587   -0.18830265     0.00013120113
   3327000   0.049941791   -0.29851811     0.035640571   -0.18796969     0.0015180543 
   3328000   0.050251084   -0.29832065     0.035420043   -0.18752885     0.00045763486
   3329000   0.049845993   -0.29865819     0.035718836   -0.18817519     0.00037894194
   3330000   0.050269171   -0.29844129     0.035311676   -0.18773072     0.00068322783
   3331000   0.050087063   -0.298337       0.036000398   -0.18721085     0.00045203521
   3332000   0.05048298    -0.29885771     0.036392565   -0.18674556     0.00022283177
   3333000   0.04999719    -0.2988115      0.035930879   -0.18788967    -0.0005597575 
   3334000   0.049980211   -0.29852839     0.035780917   -0.187782       0.00019239636
   3335000   0.050054901   -0.29877231     0.035363361   -0.18833144     0.00073877534
   3336000   0.050138267   -0.29831986     0.035377571   -0.18773974     0.00024318384
   3337000   0.049933896   -0.29831001     0.03587091    -0.18754309    -0.00043399491
   3338000   0.049821445   -0.29848254     0.036192856   -0.18756234     0.00012308338
   3339000   0.050179822   -0.29891864     0.035497671   -0.1881561      8.4378691e-05
   3340000   0.050238244   -0.298921       0.035817099   -0.1877514      0.00063800954
   3341000   0.049796323   -0.29852278     0.035955645   -0.18787747    -0.00022724139
   3342000   0.04973081    -0.29817701     0.035407274   -0.18817834     0.00025132949
   3343000   0.049603144   -0.29904583     0.035748129   -0.18889779     0.00011649857
   3344000   0.049827303   -0.29865901     0.035886514   -0.18803637    -0.00041871208
   3345000   0.049781493   -0.29909371     0.03566964    -0.18875665    -0.00047256159
   3346000   0.049932415   -0.29830187     0.035349401   -0.18805868     6.826518e-05 
   3347000   0.050054713   -0.29889325     0.035523188   -0.18829284     0.00091735981
   3348000   0.049800095   -0.29874264     0.03489014    -0.18915718    -0.00062499021
   3349000   0.049563661   -0.29870065     0.035758172   -0.18860178    -0.00086853513
   3350000   0.049351876   -0.29862953     0.035159403   -0.18944709     0.00027205162
   3351000   0.050311718   -0.29858295     0.035700636   -0.18741961    -2.3910313e-06
   3352000   0.050153262   -0.29860261     0.03573002    -0.18764755     0.0002831904 
   3353000   0.049607337   -0.29853987     0.035609675   -0.188524       0.00037700114
   3354000   0.050423874   -0.29861073     0.035567848   -0.18741195    -0.000145356  
   3355000   0.049329451   -0.29847188     0.035518594   -0.18896388    -0.00028657262
   3356000   0.049862993   -0.29882274     0.035361338   -0.18867174     0.00075204979
   3357000   0.050100847   -0.29853213     0.034944316   -0.18844139     0.00080021362
   3358000   0.050389627   -0.29899012     0.03552895    -0.18788161     0.0012699263 
   3359000   0.050024082   -0.29874378     0.035928176   -0.18778432    -8.9961074e-05
   3360000   0.050118258   -0.29857628     0.03550731    -0.18789644     0.00077820549
   3361000   0.049617767   -0.2985715      0.036129904   -0.18801974     0.00019207002
   3362000   0.049453266   -0.29849467     0.035529682   -0.18878987     0.00010258931
   3363000   0.049996486   -0.29859806     0.035921081   -0.18768709     0.00098590712
   3364000   0.049838014   -0.29875625     0.035318959   -0.18868509     0.00050024599
   3365000   0.049915951   -0.29879996     0.035972884   -0.18795798     0.00023843874
   3366000   0.050445667   -0.29855504     0.035855879   -0.18703554     0.00014573008
   3367000   0.049850224   -0.29861231     0.035528584   -0.18831321     0.00025717737
   3368000   0.050399364   -0.29887077     0.035685635   -0.18759097     0.00097193917
   3369000   0.049223604   -0.29851253     0.035299248   -0.18938264     0.00043959925
   3370000   0.049758637   -0.2988349      0.035228276   -0.18897349    -0.00059299953
   3371000   0.049620178   -0.29870183     0.035174146   -0.18910222     0.0014923654 
   3372000   0.049468866   -0.29869687     0.035538392   -0.18895997     0.0010450431 
   3373000   0.050483639   -0.29895201     0.035567559   -0.18766387    -7.1793674e-05
   3374000   0.049866611   -0.29887775     0.03555535    -0.1885273     -8.8234437e-06
   3375000   0.049413018   -0.29848103     0.035325417   -0.18904087     0.00066736147
   3376000   0.050361389   -0.29893437     0.035287737   -0.18810943     0.00025345829
   3377000   0.050168965   -0.29855833     0.035539534   -0.18777021     0.00028791149
   3378000   0.050341325   -0.2987977      0.035844645   -0.18744594     0.00011068348
   3379000   0.050100146   -0.29886019     0.035679916   -0.1880349      0.00021421475
   3380000   0.049928367   -0.29952123     0.035587832   -0.18904567    -0.00057873963
   3381000   0.049721446   -0.29886388     0.035462045   -0.18882447     0.00095554866
   3382000   0.050210776   -0.29910502     0.035747248   -0.18804647    -0.00061412726
   3383000   0.050092361   -0.29919354     0.035299249   -0.1887606      0.00046944404
   3384000   0.049869189   -0.29879184     0.035294205   -0.18869868     0.00069514456
   3385000   0.050318487   -0.29903594     0.035801341   -0.18776174    -0.00016272222
   3386000   0.05001502    -0.29894324     0.035490997   -0.18843456     0.00075557622
   3387000   0.050247404   -0.29898829     0.035078728   -0.18854332     0.0004307627 
   3388000   0.049704536   -0.29891131     0.035457453   -0.18890187    -0.00072047413
   3389000   0.049816568   -0.29897956     0.035592212   -0.18866732     0.00096345869
   3390000   0.050185133   -0.29865584     0.034680369   -0.18870263     5.0233621e-05
   3391000   0.049343144   -0.29915367     0.035243293   -0.18990043     3.540278e-05 
   3392000   0.049892447   -0.29913029     0.035561658   -0.18873479     0.00055547205
   3393000   0.049956035   -0.29893779     0.035764371   -0.1882442     -0.00014681676
   3394000   0.050279637   -0.29911947     0.035479133   -0.18822574     0.00014635131
   3395000   0.049912455   -0.29938653     0.036094499   -0.18842817     1.6097013e-05
   3396000   0.050191912   -0.29867957     0.034849839   -0.18854672     0.00054971355
   3397000   0.05015542    -0.29953178     0.035723176   -0.18858032     0.00034895208
   3398000   0.050084588   -0.29921956     0.036155079   -0.18794245    -3.0015981e-06
   3399000   0.049991218   -0.29912032     0.035385406   -0.18875292     0.0013355051 
   3400000   0.050063157   -0.29919046     0.035235428   -0.18886515     8.0078938e-05
   3401000   0.050248443   -0.29899663     0.035832356   -0.18779648    -0.00070302295
   3402000   0.050365505   -0.29866057     0.036069771   -0.18704742     0.00070091267
   3403000   0.050084939   -0.29911372     0.03553748    -0.18845368     0.00013716781
   3404000   0.050461904   -0.29953473     0.035647275   -0.18819949    -4.1643012e-05
   3405000   0.050410251   -0.29915296     0.03538019    -0.18816227     5.225852e-05 
   3406000   0.050342968   -0.29876841     0.036090022   -0.1871688      0.00057594987
   3407000   0.049941421   -0.29877277     0.035528135   -0.18833734     9.2696248e-05
   3408000   0.049936642   -0.29893826     0.035945442   -0.18809268    -0.00025331655
   3409000   0.049857703   -0.29898229     0.036134152   -0.18806641    -0.00046204911
   3410000   0.050062487   -0.29941647     0.035795391   -0.18853219    -0.00038313197
   3411000   0.04991774    -0.29935772     0.03572062    -0.18876532     0.00097571923
   3412000   0.050398616   -0.2993086      0.035786082   -0.18792947    -0.00030081367
   3413000   0.050009789   -0.29918816     0.035245131   -0.18893319    -0.00033035232
   3414000   0.049577442   -0.29923127     0.035741421   -0.18912848     0.00075250296
   3415000   0.050063857   -0.29898383     0.035505475   -0.18838741     0.0008751492 
   3416000   0.050234047   -0.29868133     0.034916842   -0.18841828     0.00076684257
   3417000   0.049482175   -0.29906031     0.036019639   -0.1888222     -0.00029175508
   3418000   0.050044864   -0.29898963     0.035621854   -0.18830532     0.00057406383
   3419000   0.049816622   -0.29894042     0.035947035   -0.18827327     0.00020471619
   3420000   0.051094594   -0.29915976     0.035571332   -0.18695148     0.00045160342
   3421000   0.050482932   -0.29893645     0.035673193   -0.18754374     0.00019440215
   3422000   0.050206815   -0.29904409     0.035604053   -0.18813467    -1.5005226e-05
   3423000   0.050173567   -0.29926529     0.035811608   -0.18819819     0.00078952555
   3424000   0.049707403   -0.29929082     0.035652361   -0.18908216    -0.00020930737
   3425000   0.04969781    -0.29937815     0.035589683   -0.18924656    -1.4218164e-05
   3426000   0.049855961   -0.299548       0.034641709   -0.19012718     0.0015264525 
   3427000   0.050054564   -0.2989761      0.035469529   -0.18842957     0.000579181  
   3428000   0.0498606     -0.2989771      0.035380292   -0.18881074     0.00022435742
   3429000   0.049790195   -0.29943811     0.035591066   -0.18916657     0.00032585308
   3430000   0.05034992    -0.29940681     0.03546157    -0.18842523     0.0011780364 
   3431000   0.049552132   -0.29910585     0.035080655   -0.18970179    -0.00018029162
   3432000   0.049765413   -0.29879691     0.03523983    -0.18891378     0.00055845175
   3433000   0.050154018   -0.29899175     0.035747473   -0.1880181     -0.00030425706
   3434000   0.050108174   -0.29952828     0.036059011   -0.18831186    -0.00064184817
   3435000   0.049681386   -0.29924275     0.035468775   -0.1892567     -0.00042103727
   3436000   0.049938848   -0.29908931     0.034991025   -0.18919484     0.00062532933
   3437000   0.050563595   -0.29952135     0.035493439   -0.18818742    -0.00021039542
   3438000   0.049913565   -0.29932358     0.036051885   -0.18840618     0.00059909678
   3439000   0.050368381   -0.29939745     0.035646502   -0.18820325     0.0011198071 
   3440000   0.050421685   -0.29886513     0.035894137   -0.18734335     0.00052355113
   3441000   0.050465388   -0.29966979     0.036529052   -0.18744754     1.6837706e-05
   3442000   0.050119571   -0.29929602     0.035891423   -0.18823009     0.00049400924
   3443000   0.050064197   -0.2993288      0.035837909   -0.18839944    -0.00034157448
   3444000   0.049931933   -0.29961716     0.035174616   -0.18954948    -0.00020550618
   3445000   0.049968986   -0.29936838     0.035829007   -0.18859073    -0.00049470034
   3446000   0.04992958    -0.2997677      0.03555686    -0.1893213      0.00096353965
   3447000   0.050002891   -0.29986188     0.035075855   -0.18978653    -0.00042461117
   3448000   0.049577835   -0.29974752     0.035671348   -0.18971422    -0.00070121521
   3449000   0.049907085   -0.2995761      0.035580809   -0.18913949     0.00043249546
   3450000   0.050313222   -0.29977361     0.035627442   -0.18868121     0.00082730682
   3451000   0.050150668   -0.29937045     0.035235563   -0.18891374     0.0003934851 
   3452000   0.049526421   -0.29958938     0.035177229   -0.19012731     0.00011573897
   3453000   0.050035463   -0.29937171     0.035695304   -0.18862805     0.00069130355
   3454000   0.049701021   -0.29956459     0.036253029   -0.18876484    -0.00029894169
   3455000   0.050407482   -0.29982785     0.035786233   -0.18843527    -0.00025872616
   3456000   0.050159939   -0.2996349      0.036639261   -0.18776059     0.00015328773
   3457000   0.049984637   -0.29958423     0.035531241   -0.18908087    -0.00022358468
   3458000   0.050237755   -0.29954696     0.035381156   -0.18881403     0.00026879315
   3459000   0.049978868   -0.29964419     0.035815353   -0.18886538     0.00011808517
   3460000   0.050048274   -0.29977386     0.035457235   -0.18924906     0.00027260919
   3461000   0.049418631   -0.29977514     0.035491848   -0.19016013     0.00015680568
   3462000   0.049769947   -0.29982275     0.03549945    -0.1896732      4.4691701e-05
   3463000   0.050176248   -0.29958131     0.03626013    -0.18806166    -1.6819654e-05
   3464000   0.049957985   -0.29948588     0.036126889   -0.18842685     0.00015202061
   3465000   0.050380787   -0.30001189     0.035943761   -0.18850183    -0.0003801136 
   3466000   0.050283823   -0.29988178     0.035674108   -0.1887868      0.00011917482
   3467000   0.050088789   -0.29967823     0.036035833   -0.18851406     0.00016158514
   3468000   0.050228259   -0.29932779     0.035957922   -0.18803234     0.00065852847
   3469000   0.04998244    -0.29951717     0.035457861   -0.18909048     0.00069415975
   3470000   0.050009448   -0.29964805     0.036478645   -0.18816007    -0.00042566309
   3471000   0.050228332   -0.2995831      0.036094326   -0.18815113     0.00022415267
   3472000   0.050210074   -0.29977418     0.035698141   -0.18876578     0.00034725692
   3473000   0.050304569   -0.29987775     0.035621964   -0.1888038      0.00016988312
   3474000   0.049965702   -0.29969658     0.035730859   -0.189022      -0.00048724374
   3475000   0.050057311   -0.30022493     0.035776909   -0.1893669     -0.00014933857
   3476000   0.049827803   -0.29972516     0.03497749    -0.19001079     0.00010854358
   3477000   0.049804061   -0.29983614     0.035453757   -0.18968111     0.00014081712
   3478000   0.049609076   -0.29955795     0.035185166   -0.18996397     0.0003856366 
   3479000   0.050159003   -0.29956248     0.035315025   -0.18901381     0.0011021988 
   3480000   0.050091256   -0.29995574     0.035500515   -0.18932319     0.00061595307
   3481000   0.050128905   -0.29987575     0.035943412   -0.18874383     0.00075001956
   3482000   0.049839925   -0.29995822     0.035348524   -0.18985463     0.00067191765
   3483000   0.050045243   -0.30026335     0.035574494   -0.18962583    -0.00046609339
   3484000   0.050451703   -0.30033687     0.03560159    -0.18906261    -0.00086969186
   3485000   0.0499335     -0.29979815     0.035663975   -0.18923875     0.00031734156
   3486000   0.050703949   -0.2998746      0.035504338   -0.18831925    -0.00026509804
   3487000   0.049537442   -0.2998966      0.035509733   -0.1900855      0.00062471443
   3488000   0.049714893   -0.30058245     0.035732798   -0.19028213     0.00020402215
   3489000   0.049575281   -0.30012208     0.035450231   -0.19031373     0.00015056506
   3490000   0.049451033   -0.30002904     0.035505144   -0.19035213     0.00083095486
   3491000   0.049874814   -0.30024321     0.035783597   -0.18965222    -0.0004133053 
   3492000   0.050389089   -0.30016304     0.035070904   -0.18951338     0.00099287062
   3493000   0.049754273   -0.30044286     0.035352094   -0.19046417     0.00041642389
   3494000   0.049773354   -0.29998691     0.035625399   -0.1897063      0.00042765641
   3495000   0.050121318   -0.30003802     0.035752625   -0.18910827    -0.00012542578
   3496000   0.049855079   -0.30025618     0.035202418   -0.19027597     0.00073020729
   3497000   0.050255938   -0.30021434     0.035675972   -0.18915932    -8.3284118e-05
   3498000   0.050051155   -0.30040701     0.035510693   -0.18982442    -8.2443164e-05
   3499000   0.049983612   -0.29981927     0.035798905   -0.18904979    -6.4198096e-05
   3500000   0.050173946   -0.30024489     0.035782018   -0.18920681     0.00011248115
   3501000   0.049403939   -0.29977274     0.03632046    -0.18935115     0.00035079535
   3502000   0.050131101   -0.30015354     0.035570316   -0.18939142     0.00057428969
   3503000   0.050648113   -0.29996003     0.0349327     -0.18906006     0.00023130009
   3504000   0.05008112    -0.30031592     0.035666626   -0.18953246    -0.00099733572
   3505000   0.050513017   -0.30029879     0.035846818   -0.18868734     0.00055742479
   3506000   0.050152418   -0.3003555      0.035843852   -0.18928788     9.1279692e-05
   3507000   0.049997697   -0.30015462     0.035821904   -0.18934101     0.00092682703
   3508000   0.050293888   -0.30044228     0.035808866   -0.18919745     0.00024409494
   3509000   0.050171893   -0.30034932     0.035492221   -0.18960412     0.00023624749
   3510000   0.049708415   -0.30026959     0.03501959    -0.19069219     0.0001535457 
   3511000   0.049911182   -0.30055824     0.035253517   -0.19044278     0.0008110565 
   3512000   0.049523013   -0.30015243     0.035643132   -0.19022957     0.00059500044
   3513000   0.049886072   -0.30054401     0.035567217   -0.19015252    -0.00012881731
   3514000   0.050528678   -0.30033558     0.03568877    -0.18885868     0.00020339576
   3515000   0.050413034   -0.30044555     0.035314425   -0.18951646     0.0011110305 
   3516000   0.049779208   -0.30025185     0.035710024   -0.18987783     9.4351333e-05
   3517000   0.05018059    -0.30057514     0.035298471   -0.19001064     0.00068951484
   3518000   0.049900156   -0.30048458     0.035518162   -0.19012101     7.1702406e-06
   3519000   0.049186037   -0.29994197     0.035456189   -0.19071149     0.00073875075
   3520000   0.049424621   -0.30022185     0.035748292   -0.19034141    -0.00056980893
   3521000   0.050046687   -0.30055357     0.035877517   -0.18961087    -9.1749241e-05
   3522000   0.050135736   -0.30048205     0.0357782     -0.1895051      0.00061477313
   3523000   0.050005023   -0.30020834     0.036151685   -0.18905396     0.0014834011 
   3524000   0.049915376   -0.29999303     0.035779698   -0.1893451     -0.00022240728
   3525000   0.049990186   -0.29990863     0.035555864   -0.18937233     0.00060694624
   3526000   0.050088705   -0.29996436     0.035152299   -0.18968385     0.00048840147
   3527000   0.050099684   -0.30040687     0.03537306    -0.18988913     0.001524235  
   3528000   0.04986083    -0.30030583     0.035594819   -0.18992459     0.00053319714
   3529000   0.049684247   -0.30061235     0.035293945   -0.19079684     0.00043594638
   3530000   0.050155889   -0.30035014     0.035527778   -0.18959338     0.00037382477
   3531000   0.050046452   -0.30064833     0.035982553   -0.18960094    -0.0006436545 
   3532000   0.049647124   -0.30076255     0.035405917   -0.19089075     0.00073553831
   3533000   0.050532604   -0.30045821     0.0349698     -0.18969439     0.00054227128
   3534000   0.050045597   -0.30053005     0.035556695   -0.1899098      0.0013540864 
   3535000   0.049301873   -0.3005943      0.035907837   -0.19073842     0.00029795271
   3536000   0.050258633   -0.30097159     0.035788838   -0.18979966     0.00060822595
   3537000   0.050106402   -0.3007273      0.035883717   -0.18968883    -0.00035532046
   3538000   0.050160108   -0.30064928     0.035811164   -0.18960281    -0.00039718203
   3539000   0.050150528   -0.30019526     0.035183723   -0.1897906      0.00042096575
   3540000   0.050151474   -0.30058083     0.035851871   -0.18950661     0.00023369438
   3541000   0.049868695   -0.30090412     0.035475978   -0.19062992    -0.0003687147 
   3542000   0.049730059   -0.30078325     0.035434613   -0.19075836     0.00054990696
   3543000   0.049748914   -0.3005797      0.036407761   -0.18955339     0.00023275518
   3544000   0.049626876   -0.30068242     0.035987529   -0.19025938     0.0012824463 
   3545000   0.049964485   -0.30076585     0.035833715   -0.18999024    -0.00030006619
   3546000   0.05013262    -0.30066803     0.035805987   -0.18966797     0.00090751052
   3547000   0.050183025   -0.30075361     0.035663613   -0.18982032     0.00046594305
   3548000   0.050017429   -0.30050847     0.035697983   -0.18978919     0.00081977396
   3549000   0.049795492   -0.30082145     0.035888776   -0.19024425     0.00019316296
   3550000   0.049460504   -0.30075903     0.036015286   -0.19055778    -0.00072384979
   3551000   0.049243723   -0.30067009     0.035637257   -0.19117202     0.00044036625
   3552000   0.050383359   -0.30092898     0.035279648   -0.19007917    -0.00050558255
   3553000   0.049662165   -0.30097466     0.035865673   -0.19062054     0.00013047098
   3554000   0.049808236   -0.30112101     0.035976351   -0.19043712    -0.00067469209
   3555000   0.049664      -0.30096099     0.035341406   -0.19112839     8.5368629e-05
   3556000   0.050257094   -0.30077313     0.035777078   -0.18961527    -0.00029823223
   3557000   0.050097063   -0.30086005     0.035335803   -0.1903835      0.00038670367
   3558000   0.050280385   -0.30104137     0.03575317    -0.18987249    -5.5424709e-05
   3559000   0.050208829   -0.30075879     0.035407754   -0.19004266     0.00048111698
   3560000   0.049983191   -0.30051792     0.0359899     -0.18955807    -0.00051600426
   3561000   0.049878588   -0.30122123     0.035330529   -0.19107765    -7.7142789e-05
   3562000   0.050142546   -0.30096263     0.035422107   -0.19033155     6.4119508e-05
   3563000   0.049626053   -0.30100894     0.035653716   -0.19092095    -2.2944574e-06
   3564000   0.050387382   -0.30103521     0.035955177   -0.18950383     0.00027304538
   3565000   0.049546369   -0.30039245     0.035716532   -0.19036116     0.00032861308
   3566000   0.050544071   -0.30064691     0.035700716   -0.18913498    -0.0001083366 
   3567000   0.050481428   -0.30126574     0.035823908   -0.18972458    -0.00018097652
   3568000   0.0501819     -0.30098824     0.035539373   -0.19018088    -0.00058589647
   3569000   0.050335423   -0.30108563     0.035569851   -0.19001751     0.00030420461
   3570000   0.050325787   -0.30078826     0.035377968   -0.18992648     0.00074754112
   3571000   0.050228096   -0.30088293     0.035953015   -0.18959264     0.00036862396
   3572000   0.05009234    -0.30103896     0.035750728   -0.19015456     0.00022846201
   3573000   0.04979474    -0.30094563     0.035630855   -0.19062749     0.00065010167
   3574000   0.050236143   -0.30103716     0.035575158   -0.19011265     0.00027199967
   3575000   0.05012836    -0.30114991     0.035348623   -0.1906136      0.00048425364
   3576000   0.049892285   -0.30075584     0.035202986   -0.19071925     0.0012035268 
   3577000   0.04997521    -0.30118501     0.034779293   -0.19144774    -0.00045193832
   3578000   0.049457289   -0.30096683     0.036004382   -0.1907813     -0.00044467565
   3579000   0.050135134   -0.30129607     0.035500635   -0.19059759    -0.00019745638
   3580000   0.050177953   -0.30130214     0.035355446   -0.19068462    -5.8975532e-05
   3581000   0.049900775   -0.30127413     0.035157756   -0.19127004     8.8409353e-05
   3582000   0.049219517   -0.30145472     0.035604994   -0.19202521     0.00045262881
   3583000   0.050153124   -0.30096392     0.035262731   -0.19047635     0.00065232893
   3584000   0.050116822   -0.30139572     0.036176237   -0.1900491     -3.6740775e-05
   3585000   0.050551215   -0.30093842     0.036099145   -0.18901735     0.00087291165
   3586000   0.050144653   -0.30109373     0.035488392   -0.19039321     0.00054564476
   3587000   0.049734596   -0.30119392     0.035513509   -0.19108333     0.00045357428
   3588000   0.049997287   -0.30104541     0.035590929   -0.19046339    -0.00020657665
   3589000   0.050312045   -0.30061894     0.035486402   -0.18966934     0.00012854506
   3590000   0.050211749   -0.30127636     0.036094876   -0.18986872     0.000133173  
   3591000   0.05031618    -0.30106413     0.036037774   -0.18955696     0.0010398354 
   3592000   0.050974101   -0.30124672     0.03604211    -0.18874839    -0.00046151198
   3593000   0.050318276   -0.30118474     0.035490808   -0.19022138     0.00070169106
   3594000   0.049470561   -0.30085643     0.035588419   -0.19106696     8.6275279e-05
   3595000   0.049986611   -0.30090636     0.035648316   -0.19028297     0.0003879987 
   3596000   0.050643082   -0.30108397     0.034807403   -0.19031684     0.0011171794 
   3597000   0.050523765   -0.30120685     0.035714305   -0.18971179     0.00023943499
   3598000   0.049963845   -0.30130137     0.036107273   -0.19025316     0.00037933945
   3599000   0.050290354   -0.3014953      0.036037175   -0.19002746     0.00015068911
   3600000   0.050035708   -0.30125122     0.036603965   -0.18959853    -0.00014625665
   3601000   0.050644359   -0.30146102     0.036029442   -0.18946994    -5.1887572e-05
   3602000   0.049527958   -0.30099108     0.035732853   -0.19097108     0.00080003178
   3603000   0.049886171   -0.30082129     0.036100922   -0.18989594    -0.00079324468
   3604000   0.050251758   -0.30093886     0.035018294   -0.1905478      0.00051404027
   3605000   0.050086675   -0.30154531     0.036054402   -0.19036574     0.00030869883
   3606000   0.049498265   -0.3012054      0.035563342   -0.19139945     0.00022508248
   3607000   0.050275433   -0.30147812     0.035417242   -0.19065259    -0.00014422431
   3608000   0.049990146   -0.30173989     0.034695706   -0.19206381     0.00031835886
   3609000   0.049882372   -0.30133991     0.034739709   -0.19178147    -0.00023890157
   3610000   0.049408704   -0.30136071     0.035476797   -0.19177564     5.3503508e-05
   3611000   0.049869521   -0.30114671     0.035356145   -0.19099111     2.4304552e-05
   3612000   0.049229312   -0.30103287     0.035523361   -0.19167031     0.00075344405
   3613000   0.049946545   -0.30153094     0.035419081   -0.19119688     7.448577e-05 
   3614000   0.05041734    -0.30163362     0.035365538   -0.19064695     0.00083636647
   3615000   0.050457364   -0.30179519     0.035871782   -0.19024225    -1.835529e-05 
   3616000   0.050375263   -0.3013716      0.035674942   -0.19013864    -0.00020581592
   3617000   0.050046907   -0.30124404     0.035010816   -0.19116771     0.00046522993
   3618000   0.049732701   -0.30149259     0.035728141   -0.19117021    -0.0001245629 
   3619000   0.049696022   -0.30138256     0.035551011   -0.19129232    -0.00049422126
   3620000   0.04979086    -0.30159799     0.035880267   -0.19103625     0.00019999175
   3621000   0.049493192   -0.30147315     0.035546633   -0.19169152     0.00066026015
   3622000   0.049906773   -0.30187664     0.035350164   -0.19167114     0.00022423712
   3623000   0.04965088    -0.30178336     0.035323403   -0.19198844     0.00047546641
   3624000   0.049763226   -0.30140602     0.036005122   -0.19076087     0.00043220629
   3625000   0.049892703   -0.30142127     0.035617831   -0.19096921    -0.00028983111
   3626000   0.049891862   -0.30142778     0.035222949   -0.19137187     6.0762841e-05
   3627000   0.049486034   -0.30140393     0.03553275    -0.19164691     1.3797436e-05
   3628000   0.050049614   -0.30184473     0.03548702    -0.19128813     0.00019445817
   3629000   0.050094086   -0.30164454     0.035501665   -0.19100659    -0.00063992803
   3630000   0.049891488   -0.30112209     0.035484309   -0.19080538     0.0009392226 
   3631000   0.049801735   -0.3016566      0.035483188   -0.19147563    -0.00012179308
   3632000   0.049889928   -0.30157809     0.035315474   -0.19143256     0.00013447763
   3633000   0.050103061   -0.30179658     0.035675244   -0.1909716      0.00017985893
   3634000   0.050664005   -0.30164562     0.035589113   -0.1900654     -5.8418406e-05
   3635000   0.050202974   -0.3017043      0.035799685   -0.19060501     0.00078556402
   3636000   0.050220272   -0.30144519     0.035681169   -0.19043847     0.00030411688
   3637000   0.050273415   -0.3015827      0.035798742   -0.1903787     -0.00025682374
   3638000   0.049646976   -0.30167196     0.036238813   -0.19096748    -0.00054723348
   3639000   0.049288025   -0.30156375     0.036097305   -0.19153918    -0.00064880345
   3640000   0.049619772   -0.30199882     0.035858028   -0.19171593     0.00043086091
   3641000   0.049797499   -0.30182457     0.035407136   -0.191726       0.00033500171
   3642000   0.049940152   -0.30153263     0.035908076   -0.19071916    -0.0008536572 
   3643000   0.05030092    -0.30140775     0.035360212   -0.19060103    -0.00045620943
   3644000   0.050125951   -0.30187237     0.035475048   -0.19121325    -0.0008126142 
   3645000   0.050317176   -0.30163978     0.035325872   -0.19084301    -0.00027721673
   3646000   0.050066623   -0.30184398     0.036230844   -0.19051805    -0.000750135  
   3647000   0.05007224    -0.30174398     0.035867543   -0.19077292    -0.00049952329
   3648000   0.049769949   -0.30151007     0.034731771   -0.1921282      0.0010256638 
   3649000   0.049628267   -0.30191305     0.03519869    -0.19227676    -0.00087029667
   3650000   0.050077605   -0.30228009     0.03571596    -0.19145257     0.00010748826
   3651000   0.049794706   -0.30163107     0.035758222   -0.19118561     0.00067107619
   3652000   0.049820923   -0.30174566     0.035497208   -0.19152189    -0.00043010858
   3653000   0.04999997    -0.30154525     0.035373471   -0.19117666     0.00096586561
   3654000   0.049428924   -0.30223301     0.035687034   -0.19240737    -0.00041577874
   3655000   0.050247454   -0.30210944     0.035016788   -0.19172633     6.1673089e-05
   3656000   0.05012385    -0.30182765     0.035383643   -0.19126308    -0.00037259092
   3657000   0.049724724   -0.30205228     0.036094153   -0.19137585     4.9821778e-05
   3658000   0.049968073   -0.30175197     0.035754888   -0.19104981    -0.00071650722
   3659000   0.049964931   -0.30180503     0.03544572    -0.19141675     0.00022860209
   3660000   0.049404589   -0.30185294     0.035221613   -0.19252923     0.00069124064
   3661000   0.049746483   -0.30228254     0.035419958   -0.19224767    -0.00071734717
   3662000   0.050490294   -0.30189671     0.035968539   -0.19019761    -0.00020357299
   3663000   0.050161184   -0.30242034     0.035336051   -0.19184737    -0.00012131551
   3664000   0.050465076   -0.30169555     0.035062789   -0.19094003    -9.4771065e-05
   3665000   0.050307458   -0.30171219     0.035711591   -0.19054428    -0.00053161738
   3666000   0.050168996   -0.30193532     0.035586679   -0.1911         0.00061609421
   3667000   0.049809376   -0.30162934     0.035506646   -0.19141345    -0.00028283846
   3668000   0.050049845   -0.30199205     0.035463859   -0.19145827    -0.000133113  
   3669000   0.049630672   -0.30197624     0.035150228   -0.19238481     0.00043980565
   3670000   0.049370132   -0.30229642     0.034936999   -0.193309       0.00036011929
   3671000   0.049819152   -0.30205616     0.036079139   -0.19125311    -0.0002133498 
   3672000   0.049938236   -0.30190363     0.035870117   -0.19113099     0.00020414317
   3673000   0.04972638    -0.30159493     0.035538932   -0.19147124     0.00073190719
   3674000   0.049614689   -0.30181392     0.035496205   -0.19190048    -0.00023791424
   3675000   0.049895093   -0.30215759     0.035343448   -0.19197633     0.00058602937
   3676000   0.049570938   -0.30214819     0.035701092   -0.19209549    -0.0010450879 
   3677000   0.049933451   -0.30220005     0.035715416   -0.19158929    -0.00018364349
   3678000   0.049675334   -0.30216487     0.036004361   -0.19165232    -0.00010476719
   3679000   0.050485452   -0.30243965     0.035801327   -0.19091503     0.00029903772
   3680000   0.050061258   -0.30192255     0.035660341   -0.19117516    -0.00016398026
   3681000   0.050191178   -0.30176567     0.034996191   -0.19148757    -0.00029774575
   3682000   0.049543066   -0.30213832     0.035848108   -0.19198041    -0.00062627337
   3683000   0.049908802   -0.30187207     0.035750505   -0.19126319    -0.00038306016
   3684000   0.050405886   -0.30202501     0.035400551   -0.19102051     0.00038605033
   3685000   0.050069407   -0.30166234     0.035596971   -0.19096611     0.00027493613
   3686000   0.049891148   -0.30170473     0.035552179   -0.19132066     0.00017916061
   3687000   0.050464858   -0.30189649     0.035174463   -0.19102962     0.00085980689
   3688000   0.050149412   -0.30191192     0.035782492   -0.19091016     0.00067609597
   3689000   0.050567799   -0.30222263     0.035852838   -0.19052299    -0.00048307684
   3690000   0.050229029   -0.30200891     0.03603681    -0.19063342    -0.00010509283
   3691000   0.05012535    -0.30214519     0.035867476   -0.19109454     5.3280219e-06
   3692000   0.050069904   -0.30180289     0.035679322   -0.19102356     0.0012653421 
   3693000   0.049638886   -0.302226       0.035495325   -0.19227715     0.00036562613
   3694000   0.0497001     -0.30249352     0.035322639   -0.19262554    -0.0005435089 
   3695000   0.049862642   -0.30160595     0.035458823   -0.19135798     0.00021132231
   3696000   0.0496674     -0.30210385     0.035440521   -0.19216704     0.00021742726
   3697000   0.049905712   -0.30209562     0.03549328    -0.1917486      0.00036176806
   3698000   0.050256491   -0.30237769     0.034963154   -0.19203466     0.00063590143
   3699000   0.049805494   -0.30176012     0.035642627   -0.19141407     0.00070366532
   3700000   0.049522317   -0.30215579     0.035808987   -0.19206812    -0.00065295222
   3701000   0.049478849   -0.30170544     0.035618368   -0.19187359     0.00014632185
   3702000   0.049992982   -0.30202762     0.03560859    -0.1914344      0.00054259587
   3703000   0.050019168   -0.30222279     0.035695385   -0.1915035     -0.00038135111
   3704000   0.049635981   -0.30214146     0.035737299   -0.19195499     0.00088615113
   3705000   0.050471889   -0.30167501     0.035019253   -0.19095281     0.00038961796
   3706000   0.049892694   -0.30168308     0.035315143   -0.19153372    -0.00066299009
   3707000   0.050123203   -0.30197962     0.035657886   -0.19114178    -0.00012873552
   3708000   0.049997054   -0.30208312     0.036172306   -0.19092007    -0.00041519298
   3709000   0.050431238   -0.30228838     0.035757684   -0.19088872     0.00025225285
   3710000   0.049990134   -0.30200388     0.035705025   -0.19131849     0.00030720014
   3711000   0.050370806   -0.30217767     0.035642405   -0.19098393     0.00015875763
   3712000   0.050390282   -0.30239983     0.035856316   -0.19096297    -0.00012155096
   3713000   0.049595999   -0.30183374     0.03591436    -0.19153018    -0.00045218662
   3714000   0.050261367   -0.30218159     0.036162789   -0.19063161    -0.00015646859
   3715000   0.049963705   -0.30231352     0.035416548   -0.19195625     0.00037219958
   3716000   0.049496932   -0.30223617     0.035906146   -0.19208942     0.00042390367
   3717000   0.05022162    -0.30188531     0.035156387   -0.19140135     0.00014164013
   3718000   0.049960781   -0.3019652      0.035740512   -0.19128835    -0.0003233862 
   3719000   0.050156499   -0.30212169     0.035812904   -0.19107889     0.00047717786
   3720000   0.049681303   -0.30180039     0.035977337   -0.19130591     0.00066634714
   3721000   0.050348451   -0.30238128     0.035881791   -0.19098169     0.00025470106
   3722000   0.050097624   -0.30205552     0.035248884   -0.19166505     0.00031515005
   3723000   0.050409394   -0.30223433     0.035652737   -0.19097238    -0.00042978579
   3724000   0.049802341   -0.30178829     0.03601664    -0.19107296     0.0012877676 
   3725000   0.050393892   -0.30233898     0.035907132   -0.19084589     0.00014466925
   3726000   0.050292955   -0.30239138     0.035310377   -0.19164644     0.00056502218
   3727000   0.050254532   -0.30203453     0.03603499    -0.19062261     0.00073147068
   3728000   0.050123772   -0.3019787      0.035080194   -0.1917177      0.00080967352
   3729000   0.050496935   -0.30196532     0.036259401   -0.1899654      0.00043444734
   3730000   0.050647931   -0.30205444     0.035884307   -0.19020314     0.00017353504
   3731000   0.050156241   -0.30262784     0.035376857   -0.19202148     0.00024836122
   3732000   0.050082853   -0.30231396     0.035944938   -0.19124959     0.00020945743
   3733000   0.05011663    -0.30221507     0.035354822   -0.19169015     0.00084429939
   3734000   0.050097186   -0.30224678     0.03544333    -0.19166252     0.00075541386
   3735000   0.050067936   -0.30229594     0.035817172   -0.19138171     0.00023725244
   3736000   0.049765811   -0.30216619     0.035557409   -0.19196488    -0.00031591928
   3737000   0.049920315   -0.30256671     0.035433039   -0.19225803     0.0002529363 
   3738000   0.049453696   -0.30204201     0.035401593   -0.19246466    -0.00040604921
   3739000   0.049550764   -0.30229536     0.03554188    -0.19243213     0.00020713379
   3740000   0.049872877   -0.30256706     0.036005414   -0.19175716    -0.00029966848
   3741000   0.049927848   -0.30240974     0.035674836   -0.19184797    -0.00022629642
   3742000   0.050307643   -0.30218056     0.035328941   -0.19139502    -0.0002045559 
   3743000   0.049745111   -0.30221669     0.035093626   -0.19251021     0.00048047157
   3744000   0.050118061   -0.30257725     0.035708019   -0.19169699    -5.4025582e-05
   3745000   0.049465645   -0.30202373     0.035966685   -0.19186336     0.00058971028
   3746000   0.049534892   -0.30252883     0.0361004     -0.19213089     0.00027701535
   3747000   0.04997982    -0.30235502     0.035432442   -0.19195768    -4.095442e-05 
   3748000   0.050064263   -0.30197666     0.035533429   -0.19135169     0.00023234688
   3749000   0.050280453   -0.302569       0.036029653   -0.19112353    -4.8977603e-06
   3750000   0.049602743   -0.302194       0.035844146   -0.19195054     0.00032324083
   3751000   0.049617485   -0.30252637     0.035817391   -0.19228755    -1.3077736e-05
   3752000   0.050187113   -0.30205657     0.03606337    -0.19071738    -0.00025884106
   3753000   0.049927091   -0.30246793     0.035393869   -0.19218826     0.00055417842
   3754000   0.049873659   -0.30235952     0.035858109   -0.19169575    -0.0004917561 
   3755000   0.049598498   -0.30234187     0.035150752   -0.19279817     0.00086124621
   3756000   0.049558658   -0.30257604     0.03511064    -0.19313221     9.6757949e-05
   3757000   0.049583842   -0.30283064     0.0362702     -0.19218948    -0.00095482445
   3758000   0.050129639   -0.3027088      0.036154754   -0.19136444     0.00042404778
   3759000   0.049678547   -0.3024634      0.035640111   -0.19231028     0.00072051959
   3760000   0.049446491   -0.30223483     0.034948387   -0.19312149     0.0011605001 
   3761000   0.049041371   -0.30254969     0.035418397   -0.19357399    -0.00073371591
   3762000   0.050025229   -0.30262059     0.036041576   -0.19154602     0.00029576908
   3763000   0.049685931   -0.30263942     0.035236572   -0.19287876     0.00082297432
   3764000   0.05003785    -0.30254002     0.035325525   -0.19216256     9.7904046e-05
   3765000   0.049169159   -0.30265597     0.035115209   -0.19379178     0.00069096914
   3766000   0.049862806   -0.3024439      0.035812492   -0.19184203     0.00023161996
   3767000   0.050170626   -0.30239526     0.035278232   -0.19186595     9.6467979e-06
   3768000   0.050371068   -0.30260087     0.036094087   -0.19095505     0.000172515  
   3769000   0.050898979   -0.30249683     0.035905854   -0.19024743    -0.0004955454 
   3770000   0.049989783   -0.30218994     0.035604667   -0.19160543     0.00077317625
   3771000   0.049660821   -0.30251577     0.035440833   -0.19258851     0.00079744737
   3772000   0.049577122   -0.30243817     0.03528656    -0.19279072    -0.00013656792
   3773000   0.049324669   -0.30268934     0.034914003   -0.19379311    -5.1276504e-05
   3774000   0.049609777   -0.30273889     0.035093351   -0.19323568    -0.00038097805
   3775000   0.049343469   -0.3027537      0.035026509   -0.19371676     0.00035634538
   3776000   0.049845893   -0.30259749     0.035129992   -0.19270348     0.0011367043 
   3777000   0.049886875   -0.30214717     0.035239183   -0.19208251     0.00015129574
   3778000   0.050273405   -0.30273159     0.036115119   -0.19121123     0.0003440157 
   3779000   0.049996097   -0.30241151     0.035916571   -0.19150563     0.0008973885 
   3780000   0.049965034   -0.3024625      0.035702318   -0.19181746     0.00092696412
   3781000   0.04954627    -0.30240792     0.035512718   -0.19258059     0.00012773437
   3782000   0.05037073    -0.30263586     0.035583988   -0.19150065    -2.1160423e-05
   3783000   0.050074687   -0.30272661     0.035857034   -0.19176239    -0.00018520424
   3784000   0.050078139   -0.30269807     0.035614832   -0.19197088     0.00025453945
   3785000   0.049937206   -0.30288173     0.035297559   -0.19268319     0.00017700941
   3786000   0.050240074   -0.30273689     0.036536893   -0.19084475    -0.00038399078
   3787000   0.050229241   -0.30281033     0.036126633   -0.1913447      0.00020705375
   3788000   0.050253067   -0.30289608     0.036194209   -0.19132714     0.0001387367 
   3789000   0.049610936   -0.30238611     0.035515518   -0.19245899     0.00037547531
   3790000   0.050521374   -0.30280053     0.035104371   -0.19191898    -0.00031848926
   3791000   0.049335499   -0.30250037     0.035711319   -0.19279057    -0.00019150262
   3792000   0.04937895    -0.30277847     0.035902894   -0.19281193    -0.00093585247
   3793000   0.050044383   -0.30250675     0.035566072   -0.19187895     0.00057016171
   3794000   0.05049509    -0.30294544     0.035220572   -0.19198712    -0.00024796029
   3795000   0.049390858   -0.30272573     0.036219271   -0.19242495    -0.0011925629 
   3796000   0.05052699    -0.30278033     0.035584085   -0.19141065     0.00035458046
   3797000   0.049870558   -0.30279699     0.035775361   -0.19222061     0.0003012986 
   3798000   0.049975831   -0.30273618     0.035770303   -0.19200697    -7.5935659e-05
   3799000   0.05001242    -0.30259268     0.035656249   -0.19192264     0.00054858001
   3800000   0.049896377   -0.3026579      0.036110152   -0.19170801    -0.00096419747
   3801000   0.050077506   -0.30291225     0.03542172    -0.19237911     0.0007696782 
   3802000   0.049933657   -0.3024263      0.035715193   -0.19181545     0.00037233916
   3803000   0.050130494   -0.30259167     0.036377184   -0.19102359    -0.00062086639
   3804000   0.05005243    -0.30277969     0.035118446   -0.19258745     0.00096739851
   3805000   0.049909819   -0.30266912     0.035903851   -0.19190537    -2.1813076e-05
   3806000   0.050614741   -0.30255966     0.035363774   -0.19127867     0.0011010908 
   3807000   0.049675642   -0.30273928     0.036239269   -0.19199135     9.3027005e-05
   3808000   0.050181485   -0.30268617     0.035983112   -0.19143568     0.00081175541
   3809000   0.050237606   -0.3029242      0.036126037   -0.19144661     0.00036628173
   3810000   0.050299536   -0.30269502     0.035879634   -0.19137095     4.1461677e-05
   3811000   0.049517267   -0.30287729     0.035415691   -0.19319049     0.00046566456
   3812000   0.049594      -0.30317717     0.035564537   -0.19322643    -0.00062963572
   3813000   0.049684437   -0.30254217     0.034947929   -0.1930724      0.0003606582 
   3814000   0.04967191    -0.30247348     0.035655645   -0.19231478     0.00015521381
   3815000   0.049806131   -0.30253099     0.035694354   -0.19213226     0.00056957455
   3816000   0.050020344   -0.30276563     0.036013672   -0.19172629     0.00043395076
   3817000   0.0503661     -0.30318536     0.036023518   -0.19161756    -0.00081870389
   3818000   0.049958652   -0.30344194     0.03593897    -0.19256983    -0.00081690775
   3819000   0.049987982   -0.30299024     0.035288952   -0.19272415    -0.00023820827
   3820000   0.050311656   -0.30296131     0.035305504   -0.19219319    -0.00016759609
   3821000   0.04973118    -0.30282153     0.035832423   -0.19239715     0.00045657133
   3822000   0.049786249   -0.30301978     0.035545783   -0.19279944    -9.5737163e-05
   3823000   0.049702179   -0.30298728     0.0354516     -0.19298722     0.00047875178
   3824000   0.049712754   -0.30339796     0.035688807   -0.19314483     0.00057018633
   3825000   0.049906121   -0.30323299     0.035968338   -0.1924103      0.00026072696
   3826000   0.050003528   -0.30296561     0.0353071     -0.19265805     0.00067156384
   3827000   0.049952962   -0.30310162     0.035621067   -0.19255595     0.000665226  
   3828000   0.050030167   -0.30306791     0.035427105   -0.1926004      0.00029437441
   3829000   0.050298155   -0.30251607     0.035747318   -0.19132639     0.0002225088 
   3830000   0.049704709   -0.30287431     0.035743191   -0.19257886    -0.0004092983 
   3831000   0.050539165   -0.30293132     0.035733222   -0.19139424     0.00037563856
   3832000   0.049837938   -0.30323381     0.035837308   -0.19264441     0.00062697414
   3833000   0.04980597    -0.30270332     0.035689868   -0.19230932     0.00046990457
   3834000   0.04991074    -0.30281694     0.035235155   -0.1927205      0.00014048441
   3835000   0.050012048   -0.30341489     0.036115953   -0.19228571    -6.3249719e-05
   3836000   0.04966684    -0.30326703     0.036139725   -0.19263186     0.00027794509
   3837000   0.049774387   -0.30324353     0.035080425   -0.19350634    -0.00093794155
   3838000   0.050622475   -0.30320787     0.035109506   -0.19216955     0.00067946074
   3839000   0.050535815   -0.30294449     0.035693154   -0.1914525      0.00018373954
   3840000   0.050281386   -0.30315866     0.035628357   -0.19211309    -0.00024773037
   3841000   0.050115782   -0.30286467     0.035696878   -0.19199897     0.00088519096
   3842000   0.049768957   -0.30292849     0.035599941   -0.19267993    -0.0007236205 
   3843000   0.049833323   -0.30325525     0.035179585   -0.1933305      0.00041450354
   3844000   0.050417259   -0.3029396      0.035594211   -0.19172438    -0.00089211487
   3845000   0.049729936   -0.30288775     0.035930228   -0.19236743    -1.7959802e-05
   3846000   0.049799124   -0.30324292     0.035885633   -0.19266342    -0.00035184815
   3847000   0.050289591   -0.30287744     0.035973827   -0.19147409     2.7370099e-05
   3848000   0.050136958   -0.30316614     0.035158878   -0.19280667    -0.00013637857
   3849000   0.050445506   -0.30337525     0.035954416   -0.19175746     0.00023989526
   3850000   0.049547376   -0.30297613     0.035663865   -0.19299599    -0.00091368707
   3851000   0.04993491    -0.30288797     0.035914357   -0.19207608     3.6328495e-05
   3852000   0.049838787   -0.30328917     0.035697891   -0.19283792     0.0002876979 
   3853000   0.050509658   -0.30298792     0.035877751   -0.19135057     0.00064278839
   3854000   0.04958637    -0.30291262     0.035471374   -0.19306649    -0.00034836351
   3855000   0.049794764   -0.30284351     0.03580977    -0.19234642     0.00066939449
   3856000   0.049473149   -0.30340223     0.035891068   -0.19330623     0.00092238376
   3857000   0.049664724   -0.30306089     0.036519484   -0.19204913    -0.0011373642 
   3858000   0.050245358   -0.30309323     0.035632587   -0.19209747    -0.00015719247
   3859000   0.050452416   -0.30327512     0.035575504   -0.19202588    -0.00018529159
   3860000   0.049610747   -0.30301487     0.035936253   -0.1926673      8.2566926e-05
   3861000   0.049451985   -0.30317796     0.036070164   -0.1929346      0.00024935768
   3862000   0.049474524   -0.30305661     0.035344657   -0.19350495     0.00011812641
   3863000   0.050065854   -0.30289103     0.035447098   -0.19234999     0.00070337515
   3864000   0.049606217   -0.30305375     0.035645261   -0.19300397     8.3875016e-05
   3865000   0.049711298   -0.3027617      0.035276307   -0.19292326     0.00052539209
   3866000   0.050383071   -0.30322172     0.035783049   -0.19186894    -8.3668263e-05
   3867000   0.050343904   -0.30294528     0.035778833   -0.19165547    -0.00012543132
   3868000   0.050107009   -0.3030863      0.036526143   -0.19140449    -0.00092089644
   3869000   0.049921886   -0.30327707     0.036384276   -0.19201479    -0.0002425983 
   3870000   0.049626219   -0.30329908     0.035984976   -0.19287958    -0.00046669264
   3871000   0.049813728   -0.30297201     0.035910397   -0.19234584    -0.00016722226
   3872000   0.049602957   -0.30326999     0.036134098   -0.19273625    -0.00015315024
   3873000   0.049445229   -0.30295959     0.035728444   -0.19306809     1.4745254e-05
   3874000   0.049963036   -0.30302339     0.03568812    -0.19239555     0.00076254421
   3875000   0.050692762   -0.3028314      0.035802208   -0.19099495    -0.000369473  
   3876000   0.049504752   -0.30282363     0.036117587   -0.19245371    -0.00098062198
   3877000   0.050243087   -0.30315318     0.035911904   -0.1918815     -0.00037536688
   3878000   0.050140196   -0.30326866     0.036051776   -0.19201144     0.00033663348
   3879000   0.050101112   -0.3030688      0.035811546   -0.19211043     0.00019434963
   3880000   0.049932973   -0.30290638     0.035581778   -0.19242997     0.00060052157
   3881000   0.049932958   -0.30276088     0.035290938   -0.19257534     0.00046248669
   3882000   0.049619289   -0.30279704     0.03577304    -0.19259987     9.8654885e-05
   3883000   0.049561893   -0.30288141     0.03523128    -0.19331209     0.00038021054
   3884000   0.049442264   -0.30312371     0.035447084   -0.19351802    -0.00054098083
   3885000   0.050106422   -0.30307344     0.035337198   -0.19258145     0.00021058275
   3886000   0.050443381   -0.30316586     0.03593391    -0.19157176    -0.00063748579
   3887000   0.050389759   -0.30312776     0.035948037   -0.19159996     0.00053243935
   3888000   0.049682321   -0.30294726     0.036033553   -0.19239504     0.00028933428
   3889000   0.050187323   -0.30328153     0.036108178   -0.19189723    -0.00017805008
   3890000   0.050554319   -0.30313923     0.035141387   -0.19217126    -0.00039862327
   3891000   0.050104723   -0.30300884     0.034767149   -0.19308945     0.00037768826
   3892000   0.050079394   -0.30315526     0.035976762   -0.19206425    -0.00013278787
   3893000   0.050202466   -0.30318925     0.035308997   -0.19258142     9.2509536e-05
   3894000   0.049835826   -0.30252616     0.035713749   -0.19206349    -8.9309439e-05
   3895000   0.050616834   -0.30275194     0.035101901   -0.19172969     0.0010100259 
   3896000   0.049956056   -0.30308913     0.035720046   -0.19243983    -0.00011357885
   3897000   0.04992326    -0.30313077     0.035489102   -0.19276161     0.00084519623
   3898000   0.050298429   -0.30322109     0.035689116   -0.1920892     -0.00081084325
   3899000   0.05078472    -0.30283138     0.035365614   -0.19129359     0.00041150903
   3900000   0.050872835   -0.30324414     0.035982993   -0.19095682    -0.0006022215 
   3901000   0.050059874   -0.30330584     0.03581609    -0.19240478     8.9854539e-05
   3902000   0.049876226   -0.30325509     0.035377337   -0.19306824     0.00028829723
   3903000   0.050252383   -0.30307676     0.035734736   -0.19196832     0.00046324989
   3904000   0.050035571   -0.30330906     0.035618863   -0.19264169     0.00097882775
   3905000   0.05006745    -0.30323105     0.036432746   -0.19170197     0.0001452019 
   3906000   0.050489242   -0.30347645     0.035829986   -0.19191748     0.00074544185
   3907000   0.050325689   -0.30319784     0.036081256   -0.19163292     0.00094320564
   3908000   0.049824112   -0.30316163     0.035648447   -0.19278183     0.00022858238
   3909000   0.050493315   -0.3031275      0.035799831   -0.19159258     0.00043728155
   3910000   0.050214131   -0.30318629     0.036144274   -0.19172568    -0.00045585198
   3911000   0.050136846   -0.30330938     0.035732534   -0.19237643     0.00021188168
   3912000   0.050206985   -0.30316915     0.035330761   -0.19253277    -0.00010960377
   3913000   0.049509512   -0.30355064     0.035447589   -0.19384358    -0.00034853828
   3914000   0.049451542   -0.30309967     0.035711299   -0.19321584    -0.00079815529
   3915000   0.050357164   -0.30334696     0.036787364   -0.19102872     2.9430523e-06
   3916000   0.05018879    -0.30344063     0.035870182   -0.19229212     0.00020636103
   3917000   0.05023112    -0.30341711     0.035743606   -0.19233169     0.00040997409
   3918000   0.049852126   -0.30291715     0.035903616   -0.19224017    -2.3716861e-05
   3919000   0.050010443   -0.30357941     0.035526203   -0.19304238    -0.00029715896
   3920000   0.049952396   -0.30366402     0.036000161   -0.1927401      8.428813e-05 
   3921000   0.049720144   -0.3031502      0.035784271   -0.19279053    -0.00016655117
   3922000   0.049807461   -0.30291197     0.035747801   -0.19245779     0.00091771047
   3923000   0.050450402   -0.30327302     0.035908539   -0.19169376    -0.00093459273
   3924000   0.050863112   -0.30346011     0.036350894   -0.19081947    -0.00019982601
   3925000   0.050768456   -0.30329576     0.035953862   -0.19119412     0.00035718779
   3926000   0.050042989   -0.30360987     0.036220057   -0.19233018     0.0010052854 
   3927000   0.049315747   -0.30385157     0.036244601   -0.19363812    -0.0006877987 
   3928000   0.05001777    -0.30324379     0.035651677   -0.1925703      0.0002469096 
   3929000   0.049980261   -0.30327712     0.035600544   -0.19271102    -0.00012121767
   3930000   0.05030856    -0.30353375     0.035522009   -0.19255377    -0.00060527619
   3931000   0.050132087   -0.30330013     0.035721225   -0.19238562     0.00030927181
   3932000   0.049823042   -0.30344821     0.035671692   -0.19304678     0.00038107458
   3933000   0.050113807   -0.30303526     0.035360427   -0.19250897    -7.654076e-05 
   3934000   0.050001857   -0.30376122     0.035677007   -0.19308626    -4.4374378e-05
   3935000   0.04982296    -0.30364912     0.035470622   -0.19344888    -7.8331467e-05
   3936000   0.050196544   -0.3035358      0.034851287   -0.19339456     1.0108215e-05
   3937000   0.049628426   -0.30347954     0.035594542   -0.19344716    -0.00033473758
   3938000   0.049561213   -0.30377362     0.035437903   -0.1939987      0.00064013301
   3939000   0.049166775   -0.30366115     0.036161273   -0.19375447    -0.00074503027
   3940000   0.049892587   -0.30369015     0.036165399   -0.1926907     -5.1368027e-05
   3941000   0.050394837   -0.30335468     0.035215635   -0.19255167     0.000235063  
   3942000   0.050011714   -0.30344317     0.035686709   -0.19274373     0.00025919686
   3943000   0.050351236   -0.30319779     0.035651839   -0.19202397     0.0010381214 
   3944000   0.05009198    -0.30386415     0.036044801   -0.19268623     0.00034331375
   3945000   0.049752311   -0.30335065     0.035732382   -0.19299462     0.001451232  
   3946000   0.050487384   -0.30371016     0.035569359   -0.19241461     0.00033367995
   3947000   0.050009529   -0.3035817      0.035646466   -0.19292578     9.9695286e-05
   3948000   0.04994749    -0.30333874     0.035458633   -0.1929637      0.0011586919 
   3949000   0.049510049   -0.30371382     0.035658822   -0.19379472    -0.00013357535
   3950000   0.050181903   -0.30413495     0.035854927   -0.19301203    -0.00020810308
   3951000   0.049774501   -0.30367132     0.036239495   -0.19277489    -0.00054742929
   3952000   0.049619164   -0.30345491     0.035693593   -0.19333737    -0.00080883638
   3953000   0.050586214   -0.30366091     0.035325098   -0.19246138     0.00051476113
   3954000   0.049739994   -0.30365714     0.036185048   -0.19286692    -0.00092883867
   3955000   0.050744368   -0.30370392     0.035780597   -0.19181168     0.00016990236
   3956000   0.049954237   -0.30383918     0.035383714   -0.19352895     0.00022319377
   3957000   0.050319628   -0.30412561     0.035565752   -0.19308528     0.00086093634
   3958000   0.050374366   -0.30379287     0.036251175   -0.19198502     0.0001996559 
   3959000   0.049885196   -0.30364431     0.036384214   -0.19243713    -0.00031503568
   3960000   0.05021046    -0.30396565     0.03544004    -0.19321478    -0.0005131953 
   3961000   0.05037918    -0.30366965     0.035578884   -0.19252688     0.00042359748
   3962000   0.050358993   -0.30402461     0.035518938   -0.19297206     0.0008548297 
   3963000   0.050072569   -0.30418123     0.035536411   -0.19354081    -2.6889146e-05
   3964000   0.050104275   -0.30395547     0.035846235   -0.19295767    -0.0011028654 
   3965000   0.049797714   -0.30406416     0.035495851   -0.19387655    -0.00024945592
   3966000   0.049914437   -0.30406073     0.035873014   -0.19332089     0.00072955444
   3967000   0.050110589   -0.30407199     0.035823423   -0.19308754     0.0001134747 
   3968000   0.049814901   -0.30367606     0.036232713   -0.19272581     0.00063888771
   3969000   0.04987055    -0.30421912     0.035335141   -0.19408298     0.00042255384
   3970000   0.050090236   -0.30404766     0.035683546   -0.1932336      0.00024733299
   3971000   0.048861133   -0.30424163     0.03585259    -0.19510207    -7.3221723e-05
   3972000   0.049579865   -0.30381232     0.03495521    -0.19449211     0.0012547704 
   3973000   0.049619496   -0.3036543      0.036048904   -0.19318096    -0.00037326803
   3974000   0.049943617   -0.30429768     0.035718756   -0.19366833    -0.00053801725
   3975000   0.049732279   -0.30375273     0.035817391   -0.19334174    -1.5410723e-05
   3976000   0.050327829   -0.30391433     0.035940445   -0.19248701    -0.00051199104
   3977000   0.0498746     -0.30384076     0.035566735   -0.19346695     0.00078545403
   3978000   0.049884644   -0.30395556     0.034952827   -0.1941806      0.00063881965
   3979000   0.049255981   -0.30380211     0.036186763   -0.19373614     0.0003522696 
   3980000   0.050478309   -0.30406579     0.035683585   -0.19266962     0.00077151555
   3981000   0.049678908   -0.30389999     0.035890702   -0.19349573     0.00013485783
   3982000   0.05020798    -0.30337356     0.035780699   -0.19228574     0.0001676725 
   3983000   0.049720923   -0.30396246     0.035831776   -0.19355412     0.00074963942
   3984000   0.050302966   -0.30411819     0.036118698   -0.19254991     0.00041523834
   3985000   0.049776082   -0.30360481     0.035491624   -0.19345388     0.00026526499
   3986000   0.049574909   -0.30388848     0.035843786   -0.19368712     0.00012148889
   3987000   0.050233599   -0.30398509     0.035498105   -0.19314144     0.00020313158
   3988000   0.050481849   -0.30367132     0.035599523   -0.19235391    -0.00020317754
   3989000   0.04979829    -0.30409341     0.035773913   -0.19362688     0.00011851592
   3990000   0.049827583   -0.30402204     0.035815731   -0.19346976     0.00060476646
   3991000   0.049136417   -0.30414152     0.03622328    -0.19421837    -0.00030947956
   3992000   0.049681441   -0.30372762     0.035216601   -0.19399366    -0.00029902675
   3993000   0.04989729    -0.3038829      0.035829073   -0.19321272    -0.00012563244
   3994000   0.049358425   -0.30384077     0.035374133   -0.19443378     0.0011645003 
   3995000   0.049974552   -0.30351426     0.035863981   -0.19269328     0.00061493003
   3996000   0.049895637   -0.30374051     0.035539687   -0.1933622      0.00092200801
   3997000   0.050277413   -0.30403503     0.035545418   -0.19307836     0.00010125956
   3998000   0.050357591   -0.3038033      0.035521005   -0.19275079     0.00044821304
   3999000   0.050090812   -0.30396981     0.035783585   -0.19305485     0.00034057062
   4000000   0.049990581   -0.30368512     0.03562961    -0.19307448     0.0017561952 
   4001000   0.050171055   -0.30403262     0.035387067   -0.19339382     0.00027892652
   4002000   0.05019341    -0.30423869     0.035750883   -0.19320255    -0.00051601083
   4003000   0.049867996   -0.30410668     0.035950153   -0.19335936     0.00011706338
   4004000   0.049753748   -0.30416683     0.035254905   -0.19428612     0.0007726727 
   4005000   0.049610337   -0.30415888     0.035051687   -0.19469649    -0.0010126845 
   4006000   0.049654762   -0.30427346     0.035457182   -0.19433894     0.0012822206 
   4007000   0.049692982   -0.30415264     0.035990237   -0.19362774    -0.00072770069
   4008000   0.050076448   -0.30433426     0.035289305   -0.19393513     0.00073000745
   4009000   0.050074752   -0.30410054     0.035424743   -0.19356851     0.00033566258
   4010000   0.049310603   -0.30412782     0.035546081   -0.19462061     0.00043096189
   4011000   0.049815384   -0.30421641     0.036089159   -0.19340899    -0.0002978171 
   4012000   0.049820478   -0.3043236      0.035197834   -0.19439987    -0.00027872449
   4013000   0.049651879   -0.30429783     0.035139329   -0.19468548     0.00037785903
   4014000   0.050344008   -0.30450756     0.035264133   -0.19373228    -3.5764063e-05
   4015000   0.049760055   -0.30414147     0.035769969   -0.19373624     0.00012822273
   4016000   0.05013568    -0.30402797     0.035412716   -0.19341658     0.00017102777
   4017000   0.049819807   -0.30417927     0.035601846   -0.19385253     3.8554221e-05
   4018000   0.049570191   -0.30430325     0.035139489   -0.19481327    -0.00034997059
   4019000   0.04959179    -0.30408048     0.035838813   -0.19385878     0.00061419419
   4020000   0.050021759   -0.30402285     0.035809221   -0.19318583     0.00070300039
   4021000   0.050211254   -0.30418587     0.035283688   -0.19359016    -0.00058798552
   4022000   0.050236646   -0.30405979     0.03553621    -0.19317347     0.00036826956
   4023000   0.049781654   -0.3042646      0.035540673   -0.19405626     0.00044540031
   4024000   0.049728685   -0.30484576     0.035445773   -0.19481177    -0.00070774141
   4025000   0.049780346   -0.3043789      0.035135824   -0.19457738    -0.00013366586
   4026000   0.049920117   -0.30418258     0.03509921    -0.19420803     0.00033002179
   4027000   0.049990421   -0.30437502     0.035817508   -0.19357672     0.00042029775
   4028000   0.049768151   -0.30422487     0.035839339   -0.19373812     0.00016439513
   4029000   0.049749795   -0.30426481     0.035678737   -0.19396619     0.00059104547
   4030000   0.049876862   -0.30388572     0.035259844   -0.19381541     0.00089506433
   4031000   0.04995528    -0.30431963     0.035624875   -0.19376667     0.00073095983
   4032000   0.050158763   -0.30414079     0.036051472   -0.19285602     0.00074629522
   4033000   0.050122586   -0.30403737     0.035971044   -0.1928873      0.00016574655
   4034000   0.050096309   -0.30445999     0.036200713   -0.19311966    -0.0018547035 
   4035000   0.05036872    -0.3039812      0.035658997   -0.192774       0.00057644798
   4036000   0.049916793   -0.3042371      0.03555448    -0.19381226    -1.6309749e-05
   4037000   0.050113159   -0.30459759     0.035630295   -0.19380241     0.00065900998
   4038000   0.049857043   -0.30407132     0.036210906   -0.19307967     9.955905e-06 
   4039000   0.049928576   -0.30417169     0.035584076   -0.19369959     0.00062128139
   4040000   0.049853096   -0.30390054     0.035982565   -0.19314316     0.00070669729
   4041000   0.049829464   -0.30405778     0.035650965   -0.19366744     0.00016568301
   4042000   0.049790267   -0.30380915     0.035461664   -0.1936669      0.00032773012
   4043000   0.049736506   -0.30369873     0.035729256   -0.19336952     0.00086418605
   4044000   0.050226435   -0.30404696     0.035605147   -0.19310703    -0.00017481869
   4045000   0.049556761   -0.30406586     0.035723112   -0.19401241    -0.00029485666
   4046000   0.050007594   -0.30425465     0.035020264   -0.19422783     0.00069492086
   4047000   0.050312764   -0.30382214     0.035445851   -0.19291201    -0.00031169527
   4048000   0.049943734   -0.3042891      0.036156553   -0.19322178    -0.00035127685
   4049000   0.050132543   -0.30389101     0.035944205   -0.19275284     7.4589439e-05
   4050000   0.050040695   -0.30380626     0.035074616   -0.19367544    -0.00011885457
   4051000   0.049649275   -0.30385443     0.0358708     -0.19351452    -0.00018141621
   4052000   0.050583711   -0.3045149      0.035484902   -0.19315932    -0.00057177931
   4053000   0.049994318   -0.3041813      0.035609459   -0.1935852     -0.00029363494
   4054000   0.050275381   -0.30381545     0.035617766   -0.19278948     0.0004147626 
   4055000   0.050721494   -0.30401353     0.03592045    -0.19201575     7.0800169e-07
   4056000   0.05029414    -0.30397207     0.035724544   -0.19281118     4.7045801e-05
   4057000   0.049895845   -0.30386294     0.035197873   -0.19382613     0.00078022858
   4058000   0.049817811   -0.30415121     0.035154215   -0.1942751     -0.00033951765
   4059000   0.049981973   -0.30428622     0.035254411   -0.19406369    -0.00040281269
   4060000   0.050279105   -0.30412713     0.036034448   -0.19267889    -6.7084288e-06
   4061000   0.050079197   -0.30369506     0.03575483    -0.19282628    -0.00047672406
   4062000   0.049516207   -0.30449937     0.035674354   -0.1945555     -0.0001337014 
   4063000   0.049623992   -0.30425699     0.035851669   -0.19397413     0.00016486458
   4064000   0.050371837   -0.30455483     0.035652611   -0.19334934    -0.00074885436
   4065000   0.050066845   -0.30438476     0.035631012   -0.19365832     0.0004662585 
   4066000   0.050159775   -0.30410699     0.036058575   -0.19281361    -0.00032061216
   4067000   0.050126319   -0.30413315     0.036034448   -0.19291407     0.00032365986
   4068000   0.05011089    -0.30406358     0.035181169   -0.19372093     0.00026231657
   4069000   0.050059749   -0.3045177      0.03620835    -0.19322457     0.00099292308
   4070000   0.049572134   -0.30432526     0.035516563   -0.19445529     0.00045240811
   4071000   0.0501641     -0.30477014     0.035858142   -0.1936707     -0.00055124844
   4072000   0.049989838   -0.30478633     0.036019019   -0.19378739    -0.00015174346
   4073000   0.049629012   -0.30452741     0.035238616   -0.19485008     0.00030654469
   4074000   0.049996343   -0.3042977      0.035548592   -0.19375943    -0.00031402739
   4075000   0.049631515   -0.30451216     0.035743119   -0.19432657    -0.00060285119
   4076000   0.049181897   -0.30450127     0.035092339   -0.19564085    -0.00083495095
   4077000   0.049891477   -0.30484273     0.035222251   -0.19478809     0.00063880992
   4078000   0.049606582   -0.30434463     0.035755951   -0.1941836     -0.00087729405
   4079000   0.05016332    -0.30456878     0.035590116   -0.19373854     0.00014052742
   4080000   0.049879993   -0.3044546      0.035816744   -0.19382269     0.00044786971
   4081000   0.049871397   -0.30429205     0.035141807   -0.19434797    -5.4131611e-05
   4082000   0.05026027    -0.30451343     0.03566533    -0.19346256    -0.00086513036
   4083000   0.050005985   -0.30443802     0.03551257    -0.19392131     0.00033108413
   4084000   0.050098102   -0.30501586     0.035817364   -0.19405619     0.00049241468
   4085000   0.049768012   -0.30464741     0.035923385   -0.19407682    -0.00025378043
   4086000   0.049803381   -0.30453334     0.035398827   -0.19443427     0.00065102829
   4087000   0.050208977   -0.30491144     0.035823723   -0.19377911    -0.00098364406
   4088000   0.050857796   -0.30441098     0.035394053   -0.19273516     0.00033640515
   4089000   0.049832481   -0.30460369     0.035518072   -0.19434172    -0.00028918218
   4090000   0.049810918   -0.3042586      0.035668949   -0.1938781      0.00059410664
   4091000   0.049943523   -0.30429316     0.035997626   -0.19338509     0.00043350935
   4092000   0.049334201   -0.30449585     0.036150875   -0.19434844    -0.00025312206
   4093000   0.050171971   -0.30440657     0.035492183   -0.19366128     0.00066693306
   4094000   0.050090794   -0.30417313     0.035643919   -0.19339786    -0.0002152293 
   4095000   0.050196422   -0.30449128     0.036427588   -0.19277391    -0.00068472869
   4096000   0.049808404   -0.30454789     0.036082669   -0.19375744    -0.00034043933
   4097000   0.050285036   -0.30520472     0.036183933   -0.1935981      0.00023780551
   4098000   0.050460773   -0.30458577     0.035224765   -0.19367473     0.00025890731
   4099000   0.050368989   -0.30459696     0.035691114   -0.19335723     0.00025422507
   4100000   0.050082261   -0.30468053     0.03575084    -0.19381114     0.00016842727
   4101000   0.049886156   -0.30472687     0.035616168   -0.19428629     0.00025048958
   4102000   0.049874773   -0.30421816     0.035347317   -0.19406351     0.0003183256 
   4103000   0.050355286   -0.3049266      0.035274756   -0.19412379     0.00042054457
   4104000   0.050570934   -0.30504142     0.035217591   -0.19397233     0.00011494811
   4105000   0.050009499   -0.30464879     0.035361452   -0.19427793     0.00026697633
   4106000   0.050061216   -0.30460975     0.035227338   -0.19429543     0.00056329217
   4107000   0.049772348   -0.30472723     0.035876521   -0.194197       0.00068657992
   4108000   0.050341738   -0.30501458     0.035749055   -0.19375779    -0.0013128187 
   4109000   0.050383067   -0.30469795     0.036247221   -0.19288101    -0.00052080117
   4110000   0.050228906   -0.30491547     0.035403525   -0.19417344    -0.00010100072
   4111000   0.049710874   -0.30490929     0.035593576   -0.19475421     0.00015236378
   4112000   0.050086646   -0.30477191     0.035467861   -0.19417893     0.00052747354
   4113000   0.0499375     -0.30492123     0.035422078   -0.19459773     0.00031485504
   4114000   0.050036572   -0.30458116     0.035671839   -0.19385931     0.00011998486
   4115000   0.050281463   -0.30506258     0.035909248   -0.19373601    -0.00019471718
   4116000   0.050271988   -0.30462653     0.035399343   -0.19382407     0.00086129754
   4117000   0.04963409    -0.30469278     0.035808258   -0.19443819    -2.1837452e-05
   4118000   0.050198734   -0.30470688     0.035516032   -0.1938976      0.00053228997
   4119000   0.050741537   -0.30490513     0.035760871   -0.19303686     0.00074103397
   4120000   0.050204431   -0.30476779     0.036094965   -0.19337104     0.00042896852
   4121000   0.05054161    -0.30460967     0.036007404   -0.19279474     0.001002576  
   4122000   0.050593689   -0.30456219     0.035874018   -0.19280253     5.1821265e-05
   4123000   0.050000133   -0.30468173     0.035765626   -0.19392075    -0.00035961603
   4124000   0.050220704   -0.30489981     0.035886622   -0.19368699     9.3203238e-05
   4125000   0.049795516   -0.30492503     0.035789239   -0.19444733     0.00038928311
   4126000   0.049597563   -0.30465186     0.035394613   -0.19486571    -0.00018251474
   4127000   0.049997332   -0.30495368     0.035945784   -0.19401674    -0.00076054385
   4128000   0.049661709   -0.305099       0.036435939   -0.19417531     6.1964867e-05
   4129000   0.049874845   -0.3046993      0.035910069   -0.19398179     0.000687988  
   4130000   0.049850756   -0.30495173     0.035856434   -0.19432399    -0.00047007902
   4131000   0.050556581   -0.30496001     0.035755046   -0.19337498    -8.5041381e-05
   4132000   0.049984806   -0.30469181     0.035792863   -0.19392657    -6.2113782e-06
   4133000   0.049677074   -0.30490805     0.036439899   -0.19395735    -0.00091187539
   4134000   0.049891375   -0.30479901     0.035080982   -0.19488579     0.00052360986
   4135000   0.049944526   -0.30480127     0.03591532    -0.19397399     0.00027360797
   4136000   0.050220895   -0.30467582     0.036062963   -0.19328637    -0.00016824972
   4137000   0.049739111   -0.30489331     0.035399374   -0.19489008    -0.00026228796
   4138000   0.050218962   -0.30466835     0.035624941   -0.19371983     0.00097371481
   4139000   0.050045655   -0.30497798     0.035387776   -0.19452657     0.00020737321
   4140000   0.049876687   -0.30490441     0.03555201    -0.1945422      0.00026355467
   4141000   0.050010646   -0.30471834     0.035115737   -0.19459148    -0.00029582417
   4142000   0.049679116   -0.30463742     0.035817211   -0.19430635    -1.691822e-05 
   4143000   0.049664574   -0.304699       0.03523867    -0.19496827     0.00072188505
   4144000   0.049853098   -0.30483954     0.035059189   -0.19500553     0.00056825535
   4145000   0.050545546   -0.30485931     0.036091479   -0.1929544     -0.00025865155
   4146000   0.049933043   -0.30491469     0.035343958   -0.194676       0.00033190398
   4147000   0.049998206   -0.30457372     0.035817629   -0.19376362    -0.0001013468 
   4148000   0.050621848   -0.30484444     0.035865718   -0.19305084     0.00049408492
   4149000   0.050157787   -0.30473114     0.035616544   -0.19388277     0.00062694873
   4150000   0.04979028    -0.30448571     0.035943806   -0.1938613      0.000473836  
   4151000   0.049961192   -0.30530397     0.03580461    -0.1945624      0.00034818059
   4152000   0.050258116   -0.30490666     0.036030957   -0.19349339    -0.00047861911
   4153000   0.050366113   -0.30464665     0.035895018   -0.19320734     0.00017500713
   4154000   0.050062175   -0.3046196      0.035487252   -0.19404393    -0.00028652511
   4155000   0.049740479   -0.30475421     0.035882603   -0.1942657      0.0007961089 
   4156000   0.050352519   -0.30490133     0.035682128   -0.1936953     -0.00018805656
   4157000   0.049768814   -0.30476155     0.035513529   -0.19459962     0.00032557052
   4158000   0.04959673    -0.30450462     0.036164249   -0.19395008    -0.00019538751
   4159000   0.049786537   -0.30520001     0.03559916    -0.19492586     0.00010425762
   4160000   0.050298717   -0.30503575     0.035519645   -0.19407289    -0.00069664502
   4161000   0.049777438   -0.30485568     0.036085573   -0.19410876     0.00026476693
   4162000   0.049256765   -0.30492017     0.035915441   -0.19512435     0.00082270902
   4163000   0.050049515   -0.30507511     0.035848656   -0.19415702    -0.00054668835
   4164000   0.050078446   -0.30497158     0.035649449   -0.19420931     6.3260082e-05
   4165000   0.049730672   -0.3046861      0.036017715   -0.19407719     0.00011573543
   4166000   0.049578897   -0.30513627     0.035843815   -0.19492891     0.00037723466
   4167000   0.050084791   -0.30508066     0.035030219   -0.1949281     -0.00062082284
   4168000   0.049605566   -0.30507403     0.035167265   -0.19550322     0.00038554891
   4169000   0.049900292   -0.30462781     0.035438212   -0.19434399    -0.0002692966 
   4170000   0.049989493   -0.30495267     0.036517744   -0.19345552    -0.00035123229
   4171000   0.050348656   -0.30511062     0.035724713   -0.19386779     0.00062268244
   4172000   0.049864912   -0.30505858     0.03575054    -0.1945155     -0.00035106667
   4173000   0.050102891   -0.30509073     0.035741332   -0.19419991     0.00037214546
   4174000   0.049929211   -0.30518773     0.035153332   -0.19514541     0.00011175447
   4175000   0.04989622    -0.30522135     0.035416639   -0.19496521     0.00047991744
   4176000   0.049734102   -0.30496719     0.036092694   -0.19427815     5.2454664e-05
   4177000   0.050210515   -0.30507171     0.035369654   -0.19439115    -0.00018015419
   4178000   0.050380318   -0.30488411     0.035563932   -0.19375457     0.00033343148
   4179000   0.049999579   -0.30501522     0.035585888   -0.1944348      3.8330305e-05
   4180000   0.04980932    -0.30471189     0.036143834   -0.19385889     0.00043948096
   4181000   0.049638757   -0.30473651     0.03633382    -0.19394936    -0.00058018453
   4182000   0.050691524   -0.30491953     0.035453238   -0.19343391     0.00067710087
   4183000   0.049933269   -0.30507859     0.035898264   -0.19428525    -2.4169446e-05
   4184000   0.049933124   -0.3052529      0.035540051   -0.194818      -0.00066946773
   4185000   0.049692522   -0.30514939     0.035555794   -0.19505962     0.0005293517 
   4186000   0.049752433   -0.30495065     0.03559989    -0.19472693    -0.00022772859
   4187000   0.049879857   -0.30485545     0.035820131   -0.19422036     0.00018212159
   4188000   0.049725022   -0.30497855     0.035850127   -0.1945457     -0.00039836664
   4189000   0.049553356   -0.30496192     0.035834064   -0.19480262     0.00080317273
   4190000   0.050275173   -0.3052102      0.035439859   -0.19436245    -0.0012195789 
   4191000   0.04997958    -0.30519507     0.035860037   -0.1943705     -6.2931168e-05
   4192000   0.050062002   -0.30487975     0.03577239    -0.19401921     0.00069087755
   4193000   0.050319394   -0.30546539     0.03622547    -0.1937657      4.2973909e-05
   4194000   0.049567136   -0.30531009     0.035388478   -0.1955757     -0.00018441608
   4195000   0.049272384   -0.30490697     0.035368041   -0.19563512     0.0011230954 
   4196000   0.049906568   -0.30467052     0.03548966    -0.19432583    -0.00058557279
   4197000   0.049920129   -0.30501709     0.035785616   -0.19435612    -0.00046626322
   4198000   0.05009694    -0.30449484     0.036023855   -0.19333042     0.00068829139
   4199000   0.050197793   -0.3046504      0.035929263   -0.1934293      0.0008541394 
   4200000   0.050289126   -0.30521512     0.035720218   -0.19406608     2.2329446e-05
   4201000   0.049544296   -0.30552646     0.035637466   -0.19557734     0.00011944567
   4202000   0.0498528     -0.30491171     0.035841552   -0.19429578     3.0540152e-05
   4203000   0.050037904   -0.30523152     0.036029102   -0.19415041    -0.00051664928
   4204000   0.049724891   -0.30500413     0.035554198   -0.19486741     0.00080332721
   4205000   0.050377498   -0.30503144     0.035078216   -0.19439186     0.00049726389
   4206000   0.050116805   -0.30504109     0.035231595   -0.19463914     9.1005053e-05
   4207000   0.049868815   -0.30510182     0.036093211   -0.19421022     0.00010765634
   4208000   0.049790689   -0.30527979     0.035244004   -0.19535457     0.00025275631
   4209000   0.050068908   -0.3053083      0.035360352   -0.19484943     0.00064890362
   4210000   0.049725653   -0.30534498     0.03582336    -0.19493795    -0.00072817933
   4211000   0.049717458   -0.30499463     0.035267723   -0.19515553     0.00010593703
   4212000   0.050068272   -0.30493099     0.035614978   -0.19421845     0.00063934129
   4213000   0.049839957   -0.30483583     0.035896064   -0.19418465     0.00010025885
   4214000   0.050730691   -0.30488746     0.035293293   -0.19350304     0.00025472678
   4215000   0.04991079    -0.30491373     0.035777439   -0.19427494     0.00099528056
   4216000   0.050128978   -0.30486871     0.035800673   -0.19387942    -0.00013708702
   4217000   0.050752447   -0.30512554     0.035735861   -0.19326592     0.00026202021
   4218000   0.050617788   -0.30529834     0.036064812   -0.19331175     2.6158598e-05
   4219000   0.050425729   -0.30528943     0.036288508   -0.1933672     -0.00033915134
   4220000   0.05054054    -0.30494206     0.035492135   -0.19364401    -0.000455524  
   4221000   0.04998946    -0.30478668     0.035778773   -0.19402855     0.0011543223 
   4222000   0.049904876   -0.30499487     0.036181209   -0.19396117    -0.00032061418
   4223000   0.050107534   -0.30454601     0.035373354   -0.1940162      2.0753186e-06
   4224000   0.049277853   -0.30490551     0.035907336   -0.19508616     0.00037089661
   4225000   0.049558968   -0.30523812     0.035841789   -0.19506268     0.00095777761
   4226000   0.049976247   -0.30527292     0.035729562   -0.19458382    -0.00014228496
   4227000   0.049516824   -0.30516288     0.035386334   -0.1955061     -0.00027284545
   4228000   0.049939773   -0.30500711     0.035506443   -0.19459584    -0.00041118968
   4229000   0.050300652   -0.30497163     0.035704857   -0.19382066    -2.234542e-05 
   4230000   0.050082174   -0.30480448     0.035257501   -0.19442856     0.00019634837
   4231000   0.05029705    -0.30519591     0.036264765   -0.19349044     0.00059227243
   4232000   0.049851545   -0.30532396     0.035626395   -0.19492507    -8.6352206e-05
   4233000   0.050185388   -0.30516693     0.035619216   -0.19427449     9.6419623e-05
   4234000   0.049832232   -0.30467849     0.035743255   -0.19419171     0.00087437787
   4235000   0.050015482   -0.3050737      0.034800008   -0.19525531     3.4558948e-05
   4236000   0.049577491   -0.30548482     0.036177392   -0.19494599    -0.0002018856 
   4237000   0.049590462   -0.30493767     0.035664875   -0.1948919      0.00020960802
   4238000   0.049667374   -0.30503467     0.035436881   -0.19510154    -0.0001695671 
   4239000   0.049825117   -0.30502858     0.035016666   -0.19527906    -0.00079181587
   4240000   0.05029691    -0.30540164     0.035722158   -0.19423898     0.00055109965
   4241000   0.050288569   -0.30531019     0.035323216   -0.19455899     0.00042021438
   4242000   0.050086198   -0.30491713     0.035546566   -0.19424611     0.00058952303
   4243000   0.050084968   -0.30480353     0.036569775   -0.19311114    -4.1419998e-05
   4244000   0.050612205   -0.30482838     0.035711784   -0.19320318     0.00073724077
   4245000   0.049833237   -0.30497559     0.035447366   -0.19478319     5.1620006e-05
   4246000   0.04964524    -0.30505724     0.03605144    -0.19454275     0.0003069462 
   4247000   0.050114945   -0.30493981     0.036021235   -0.19375101    -0.00038531925
   4248000   0.050569214   -0.30516325     0.035931464   -0.19338286     0.00054551949
   4249000   0.049995427   -0.30546551     0.035576628   -0.19490058    -0.00082627344
   4250000   0.049710247   -0.30545502     0.035971029   -0.19492343    -0.00038772516
   4251000   0.049794378   -0.3049724      0.035585221   -0.19470044     0.00053979797
   4252000   0.050619465   -0.30532882     0.035465048   -0.19393947     0.00021793297
   4253000   0.050312873   -0.3052907      0.036164053   -0.19366221    -0.00012906355
   4254000   0.049959109   -0.3049241      0.035316306   -0.19467397     0.00068656749
   4255000   0.049548587   -0.30495702     0.035572887   -0.19506604     0.00034770094
   4256000   0.049908503   -0.30500516     0.034898474   -0.19524876    -0.00042535373
   4257000   0.049892975   -0.30485292     0.035104853   -0.19491343     0.0002008424 
   4258000   0.050895953   -0.3054251      0.03489432    -0.19419178     0.00075912782
   4259000   0.050292548   -0.30544757     0.035797124   -0.19421649    -0.00014615415
   4260000   0.049961902   -0.30557886     0.036425628   -0.19421521    -0.00060301139
   4261000   0.049660574   -0.3051724      0.035466659   -0.19521969     0.00015072084
   4262000   0.049984357   -0.30547357     0.035232548   -0.19526933    -0.00029451381
   4263000   0.04935887    -0.30568175     0.034689843   -0.19695838    -0.00073955864
   4264000   0.049542651   -0.30540187     0.035778613   -0.19531407    -0.0015914915 
   4265000   0.049933996   -0.30534803     0.036036748   -0.19441512     0.00023623297
   4266000   0.050130775   -0.30487663     0.035695883   -0.19398943    -0.00034139906
   4267000   0.050297884   -0.30514435     0.035403064   -0.19429933    -0.00024123708
   4268000   0.049789267   -0.30534002     0.035821031   -0.19483991     0.0008135515 
   4269000   0.049964488   -0.30524949     0.035830857   -0.19447674     8.8773566e-05
   4270000   0.050264325   -0.30500344     0.035275968   -0.19433585     0.00012233736
   4271000   0.050089282   -0.30543566     0.035576891   -0.19472969     0.00029055926
   4272000   0.049506368   -0.30558036     0.036303875   -0.19502172    -0.00086556392
   4273000   0.049707622   -0.30528082     0.035183423   -0.19554078     0.00024692857
   4274000   0.049519466   -0.30534211     0.035711649   -0.19535605     3.4681147e-05
   4275000   0.04975435    -0.30540457     0.035161655   -0.19561621     0.00035902472
   4276000   0.049983441   -0.3056448      0.035877239   -0.19479724    -0.00076281096
   4277000   0.049604649   -0.30464166     0.035845515   -0.19439397     0.0011754939 
   4278000   0.049784135   -0.3051968      0.035821279   -0.19470414     0.00059912802
   4279000   0.049946058   -0.3053153      0.036119297   -0.19428175    -0.00022666445
   4280000   0.050262466   -0.30528651     0.035414544   -0.19448313     0.00012283589
   4281000   0.049538412   -0.30543275     0.036144491   -0.19498543    -0.00054109954
   4282000   0.049902708   -0.30496952     0.035108505   -0.19501179     0.0011812871 
   4283000   0.050162806   -0.30535315     0.036275912   -0.19383788    -9.6233164e-05
   4284000   0.050081322   -0.3053176      0.035883857   -0.1943166      0.00018292703
   4285000   0.050235443   -0.30516619     0.035239876   -0.19457801     0.0001858752 
   4286000   0.049270792   -0.30478052     0.035508709   -0.19537039     0.00063867658
   4287000   0.050076324   -0.30519944     0.035292521   -0.19479728     4.4919333e-05
   4288000   0.050270821   -0.30502815     0.035493652   -0.19413313     0.00017752706
   4289000   0.0495332     -0.30540915     0.035314436   -0.19579971     0.00036605191
   4290000   0.050389065   -0.30561983     0.034790417   -0.19525069     0.0001902419 
   4291000   0.050356107   -0.30500874     0.036099209   -0.19338025     0.00080975171
   4292000   0.050019174   -0.305409       0.035132381   -0.1952527      2.8445655e-05
   4293000   0.050004509   -0.30518896     0.035651148   -0.19453588    -0.00055931023
   4294000   0.049870425   -0.30525081     0.03529647    -0.19515353    -0.00027156104
   4295000   0.049830251   -0.3053542      0.034856667   -0.19575698    -0.00012297268
   4296000   0.050076871   -0.30544097     0.035369777   -0.19496074     6.0828043e-05
   4297000   0.050035129   -0.30519234     0.035781255   -0.19436324     4.9843767e-05
   4298000   0.050375163   -0.30536134     0.036247447   -0.19355602     0.00014637678
   4299000   0.050322486   -0.305562       0.035938118   -0.19414502    -0.00062461289
   4300000   0.049668976   -0.30566789     0.035872657   -0.19529657     0.00027420157
   4301000   0.049851273   -0.30503082     0.035889761   -0.19436897    -0.00055111744
   4302000   0.049986945   -0.30497952     0.035641556   -0.19436238     0.00013869601
   4303000   0.050229731   -0.30493179     0.035890534   -0.19370152     4.1096938e-05
   4304000   0.04967653    -0.30516363     0.035831487   -0.19482216     0.00020339789
   4305000   0.049971618   -0.30514776     0.035711643   -0.19448352    -0.00022451315
   4306000   0.050551531   -0.30506636     0.035461489   -0.19378247    -0.0005833576 
   4307000   0.050001915   -0.30520829     0.035769817   -0.19444044    -1.444729e-05 
   4308000   0.050168768   -0.30546913     0.036072026   -0.19414881     0.0002602692 
   4309000   0.049429225   -0.30550615     0.035994419   -0.19537268     0.00027772861
   4310000   0.050162612   -0.3052279      0.035723351   -0.19426549     0.00026307565
   4311000   0.049877611   -0.30532362     0.035491864   -0.19502017     0.0002282344 
   4312000   0.049331812   -0.30572189     0.035740379   -0.19598857    -0.0001688284 
   4313000   0.049930192   -0.30537635     0.035705202   -0.19478069    -1.3529887e-05
   4314000   0.050121956   -0.3055028      0.035955379   -0.19436934     0.00020678981
   4315000   0.049875141   -0.30574071     0.03566951    -0.19526332     0.00026148485
   4316000   0.049909471   -0.30543943     0.036064244   -0.19451581    -0.00090702284
   4317000   0.049494075   -0.30550012     0.035405686   -0.19585811     0.00059045098
   4318000   0.049734667   -0.30581035     0.035605849   -0.19560731     0.00021927521
   4319000   0.04956375    -0.30546421     0.036023812   -0.19509957    -0.00023597355
   4320000   0.04991909    -0.30519297     0.035905162   -0.194414       0.00013922168
   4321000   0.049930705   -0.30553201     0.035762278   -0.19487851     0.0010800067 
   4322000   0.049583429   -0.30492097     0.035203129   -0.1953475      0.0010679694 
   4323000   0.049925946   -0.3058937      0.035743057   -0.19526656     0.00077730893
   4324000   0.050322202   -0.30532343     0.035054232   -0.19479077     0.00097487542
   4325000   0.049489833   -0.30543015     0.035921425   -0.19527876    -0.00042790536
   4326000   0.050132626   -0.30512604     0.035640031   -0.19429192     9.168907e-06 
   4327000   0.049955542   -0.30517154     0.035273794   -0.19496926     0.0009661095 
   4328000   0.049832486   -0.30551792     0.035580624   -0.19519339     0.00034298079
   4329000   0.049930442   -0.30536194     0.035489225   -0.19498189     0.00085018576
   4330000   0.050208263   -0.30541482     0.035548296   -0.19455899    -0.00045655266
   4331000   0.049578321   -0.30542769     0.035597693   -0.19546731    -0.00043312115
   4332000   0.050527341   -0.3054618      0.035416744   -0.19425893    -0.00016111618
   4333000   0.050186627   -0.30534795     0.036033386   -0.19403948    -0.000480755  
   4334000   0.050823286   -0.30555367     0.035711191   -0.19361246     0.00021533049
   4335000   0.050212941   -0.30532213     0.036010587   -0.19399699    -0.0001012965 
   4336000   0.050240903   -0.30575067     0.03620738    -0.1941868     -0.00019291998
   4337000   0.050169547   -0.30576864     0.035416407   -0.19510277     0.00071643354
   4338000   0.049975139   -0.30550219     0.035652937   -0.19489138    -2.9485879e-05
   4339000   0.049575926   -0.30561301     0.03604139    -0.19521253     3.8223136e-05
   4340000   0.050036266   -0.30594038     0.035619273   -0.19527155     0.00046181669
   4341000   0.050231002   -0.30584069     0.035103172   -0.19539587     0.00024388309
   4342000   0.049727064   -0.30602475     0.035767673   -0.1956713      0.00017843893
   4343000   0.050447757   -0.30529997     0.03542918    -0.19420404    -0.00025005616
   4344000   0.049871518   -0.30537939     0.035500366   -0.19507657     2.104771e-05 
   4345000   0.050478987   -0.30576948     0.035515465   -0.19454042    -9.2653426e-05
   4346000   0.050181466   -0.30574043     0.03591407    -0.19455902    -0.00043767535
   4347000   0.049769286   -0.30550163     0.035946014   -0.1949065     -0.00032056223
   4348000   0.050203272   -0.30540014     0.03568335    -0.19441674     0.0004097908 
   4349000   0.049874942   -0.3057601      0.035772273   -0.19518024     0.00042064772
   4350000   0.049585089   -0.30580835     0.036070157   -0.19536536    -0.00046904763
   4351000   0.049937674   -0.30558991     0.035781907   -0.19490632     0.00011488069
   4352000   0.049775882   -0.30557677     0.03521009    -0.19570768     0.00035590696
   4353000   0.050465662   -0.30560102     0.035369305   -0.19453811    -0.00030482726
   4354000   0.050320439   -0.30553407     0.035332065   -0.19472622     0.00038922259
   4355000   0.050013251   -0.30532281     0.035488387   -0.19481938     0.00013642636
   4356000   0.049842806   -0.30598707     0.036284174   -0.19494351    -0.0002074381 
   4357000   0.050040857   -0.30553544     0.035648353   -0.19483065     0.00029204919
   4358000   0.050433617   -0.30579464     0.035732475   -0.19441662    -0.00030154824
   4359000   0.050545057   -0.30589152     0.035864556   -0.19421427    -0.00019788694
   4360000   0.049492644   -0.30539065     0.03590404    -0.19525243     0.00098645246
   4361000   0.049453194   -0.3057997      0.035809297   -0.1958154      4.7160331e-05
   4362000   0.049894961   -0.30560281     0.035599619   -0.19516558     0.0016764233 
   4363000   0.050336416   -0.30567535     0.035689643   -0.19448596    -0.00059077948
   4364000   0.049846923   -0.30582387     0.03624868    -0.19480963     0.0006581628 
   4365000   0.049615248   -0.30556275     0.035421414   -0.19572327    -0.00023962533
   4366000   0.050129852   -0.30553877     0.035701844   -0.194647       0.00055500831
   4367000   0.050437031   -0.30600252     0.034853801   -0.19549805     0.00024174386
   4368000   0.050108165   -0.30554381     0.035797127   -0.19458928     0.00052961832
   4369000   0.049837658   -0.305658       0.035151232   -0.19575511     0.0005996635 
   4370000   0.049899471   -0.30595886     0.035791261   -0.19532322    -0.0004602028 
   4371000   0.049629724   -0.30556918     0.03606219    -0.19506721     0.00021707771
   4372000   0.050258562   -0.30576749     0.03598598    -0.19439853     0.00031063776
   4373000   0.049702695   -0.30578602     0.035536061   -0.19570072    -1.4112019e-05
   4374000   0.04965059    -0.30565999     0.035526262   -0.19566265     0.00043468528
   4375000   0.049620993   -0.30569044     0.035363124   -0.19590063    -0.00033612061
   4376000   0.050046655   -0.30594681     0.035695671   -0.19518599    -0.00020724972
   4377000   0.049975931   -0.30581037     0.035847063   -0.19500424     0.00018883063
   4378000   0.050093553   -0.30582849     0.035522019   -0.19517099     0.00025415939
   4379000   0.04995798    -0.30604315     0.035642461   -0.19546855     0.00024087613
   4380000   0.05000273    -0.3053633      0.036011982   -0.19435206     0.00044417939
   4381000   0.050257091   -0.30540163     0.035532748   -0.1944881      4.7138219e-05
   4382000   0.050062499   -0.30568045     0.036006304   -0.19458525     0.00030286493
   4383000   0.049802896   -0.30630302     0.036227003   -0.19537649    -0.0014199428 
   4384000   0.05049506    -0.3057222      0.035664025   -0.19432047    -0.00042754717
   4385000   0.049934708   -0.30581027     0.035399806   -0.19551323     0.00053882177
   4386000   0.049936208   -0.30595108     0.035848144   -0.19520346     0.00018660658
   4387000   0.049635964   -0.30627656     0.035693185   -0.19613423    -0.00055851287
   4388000   0.050929512   -0.30609777     0.035624547   -0.19408389     4.8209465e-05
   4389000   0.050461894   -0.30605317     0.036402739   -0.19396247     0.00047953481
   4390000   0.050532929   -0.30576727     0.035261436   -0.19471133    -0.00012564793
   4391000   0.050635104   -0.30565707     0.036236849   -0.19347246     0.00051350908
   4392000   0.050912544   -0.30626923     0.035618916   -0.19428642    -0.00056825766
   4393000   0.050230413   -0.30592908     0.035318565   -0.19526976     0.00068291969
   4394000   0.050532046   -0.30588197     0.035269644   -0.19481915     0.00049878277
   4395000   0.050105737   -0.30598987     0.0365559     -0.19428021    -0.0002792075 
   4396000   0.050336061   -0.30580657     0.036370718   -0.19393663     0.00067999419
   4397000   0.050578323   -0.30612249     0.035218136   -0.19504177     0.00032480621
   4398000   0.050052402   -0.30620878     0.035232711   -0.19590231     0.00053884524
   4399000   0.050005686   -0.3060311      0.035008644   -0.19601877    -0.00087375402
   4400000   0.049559027   -0.30625287     0.036419057   -0.19550007    -0.0001410527 
   4401000   0.050001486   -0.30657205     0.035386255   -0.19618841     0.00038968532
   4402000   0.050292965   -0.30608215     0.035550231   -0.19509734     0.00094911227
   4403000   0.049669021   -0.30628695     0.035845153   -0.19594307    -0.00057272221
   4404000   0.050041615   -0.30664355     0.036042586   -0.19554338    -0.00013067154
   4405000   0.049975748   -0.30636966     0.035443083   -0.19596779     0.0010364155 
   4406000   0.050090123   -0.30607964     0.035736509   -0.19521279     0.0004476305 
   4407000   0.050676185   -0.30590986     0.036119349   -0.19378114     6.8640224e-05
   4408000   0.050558608   -0.30595403     0.035698105   -0.1944229      0.00057406519
   4409000   0.050053407   -0.30611336     0.035494939   -0.19554316     0.00025301362
   4410000   0.050217306   -0.30653703     0.035719884   -0.19549605    -0.00071427865
   4411000   0.049395543   -0.3059421      0.036350586   -0.19550298    -0.00044172048
   4412000   0.050218316   -0.30645285     0.035584642   -0.1955456      8.4822092e-05
   4413000   0.050291577   -0.30641043     0.034842076   -0.19613586    -0.00028585334
   4414000   0.050213652   -0.30609165     0.034825896   -0.19595013     0.0004265388 
   4415000   0.050020327   -0.30658994     0.035403627   -0.19616066    -5.0590691e-05
   4416000   0.050444769   -0.30652898     0.036127892   -0.19473882     0.00024760924
   4417000   0.050535897   -0.30632997     0.035637588   -0.19489343     7.7713854e-05
   4418000   0.050718472   -0.30624863     0.035513618   -0.19466222     0.00078650243
   4419000   0.049860606   -0.30653123     0.035805231   -0.19593992     0.00051347817
   4420000   0.049451025   -0.30634665     0.036735946   -0.19543896    -0.00051347684
   4421000   0.049790369   -0.30651871     0.035814323   -0.19602365    -0.00030364126
   4422000   0.049817315   -0.30652439     0.0353261     -0.19647714    -0.0012835494 
   4423000   0.049344086   -0.30626349     0.035016967   -0.19723516     7.4666962e-05
   4424000   0.050549779   -0.30640171     0.03510476    -0.19547717     0.00026798946
   4425000   0.050176343   -0.30649622     0.035981794   -0.19525477     0.00067074723
   4426000   0.04963816    -0.30641314     0.035941195   -0.19601951    -0.00043601214
   4427000   0.049309905   -0.30648696     0.035940351   -0.19658652     0.00033119032
   4428000   0.049607221   -0.30626602     0.035896345   -0.19596364    -0.00038946559
   4429000   0.050192085   -0.30618937     0.036323927   -0.19458218     9.5784663e-05
   4430000   0.050150575   -0.30630457     0.035123998   -0.19595956     0.00044758166
   4431000   0.050281042   -0.30680586     0.035494256   -0.19589491    -0.00050639452
   4432000   0.049866042   -0.30650124     0.035546222   -0.19616078    -0.00033157316
   4433000   0.049997504   -0.30653796     0.035913065   -0.19563348     0.00023924341
   4434000   0.050390743   -0.30684533     0.035707171   -0.19555692     7.7950885e-05
   4435000   0.050097741   -0.30681901     0.035544495   -0.19613275    -0.00040083611
   4436000   0.05014061    -0.30664106     0.035036541   -0.19639846     0.00083665511
   4437000   0.04987887    -0.30661589     0.036165171   -0.19563724     0.0003696889 
   4438000   0.050174393   -0.30635899     0.035476455   -0.1956258      0.00022180933
   4439000   0.049521623   -0.30653393     0.035163664   -0.19709263     0.00051862298
   4440000   0.049572902   -0.30681888     0.035250515   -0.19721381     5.1726683e-05
   4441000   0.050213325   -0.30705114     0.035676359   -0.19605965    -0.00084783351
   4442000   0.049300354   -0.30692123     0.035669008   -0.19730646     0.00034916849
   4443000   0.050298817   -0.30667981     0.035594077   -0.19564238     0.00020310651
   4444000   0.049929987   -0.30663856     0.035686946   -0.19606146    -0.00011072208
   4445000   0.05018982    -0.30654784     0.035666852   -0.19560112     0.00031496592
   4446000   0.049978627   -0.30678517     0.03569947    -0.1961226     -0.00056905219
   4447000   0.05022964    -0.3063346      0.035607939   -0.19538706    -0.00050653993
   4448000   0.050317234   -0.30645922     0.035439123   -0.19554912     0.000645596  
   4449000   0.048998018   -0.30691879     0.035177423   -0.19824908    -5.2246433e-05
   4450000   0.04961393    -0.30664148     0.035809163   -0.19641622     0.00092211288
   4451000   0.049677258   -0.30666109     0.034600449   -0.19754956     0.00023038548
   4452000   0.049663772   -0.30684476     0.036051004   -0.1963029     -0.00062400399
   4453000   0.050055936   -0.30643434     0.035345046   -0.19601023     0.00047791974
   4454000   0.050464606   -0.30687986     0.03514198    -0.19604586    -0.00048719415
   4455000   0.050265008   -0.30635718     0.035574782   -0.19538975     0.0002804593 
   4456000   0.050021586   -0.30675799     0.036019179   -0.19571128     0.00010972045
   4457000   0.050262238   -0.30672983     0.035169427   -0.19617191     0.00038277721
   4458000   0.04999141    -0.30686426     0.035286001   -0.19659599     0.00020023585
   4459000   0.049492482   -0.30647775     0.034904294   -0.19733953     0.00019383131
   4460000   0.050105416   -0.30705623     0.03548086    -0.19642209     0.00075292916
   4461000   0.0501393     -0.30658843     0.036077422   -0.19530691     0.00040158973
   4462000   0.050557421   -0.30652587     0.035644565   -0.19505007     0.00096026845
   4463000   0.050016497   -0.30681298     0.035593269   -0.19619981     0.00058882514
   4464000   0.050113302   -0.30714868     0.035953227   -0.19603035    -0.00072568405
   4465000   0.049853549   -0.30706731     0.035473257   -0.19681856     0.00032994282
   4466000   0.050220689   -0.3067568      0.03575453    -0.19567609     0.00054168422
   4467000   0.049732151   -0.30694841     0.03613611    -0.19621889    -0.00058830066
   4468000   0.049469757   -0.30691429     0.035473162   -0.19724128     0.00022370311
   4469000   0.05038686    -0.30703214     0.036337639   -0.19511909     0.00053593603
   4470000   0.050607733   -0.3068279      0.035741612   -0.19517958    -0.00029915672
   4471000   0.049797605   -0.30694702     0.036250619   -0.19600481     8.0446442e-05
   4472000   0.049887303   -0.30671328     0.035490543   -0.19639661     0.00035827777
   4473000   0.049920379   -0.30644662     0.035801337   -0.19576955     0.0006393044 
   4474000   0.049794514   -0.30686423     0.03548313    -0.19669415    -0.00075735466
   4475000   0.049960247   -0.3072374      0.035559492   -0.19674238     0.00011162344
   4476000   0.049570104   -0.30664067     0.035590263   -0.19670004     0.00014743696
   4477000   0.04996596    -0.30690023     0.035187319   -0.19676881    -0.00028039546
   4478000   0.050445078   -0.30731107     0.036129229   -0.1955191      0.00048840237
   4479000   0.050088037   -0.30697098     0.035745389   -0.19609838    -0.00083698547
   4480000   0.050181087   -0.30735967     0.035463673   -0.19662922    -0.00018348883
   4481000   0.049591272   -0.30722827     0.036113179   -0.19673298    -0.00031632331
   4482000   0.049767158   -0.30689067     0.036004591   -0.19624015     0.00069579162
   4483000   0.049721413   -0.30713097     0.035653181   -0.19690048     0.00061991107
   4484000   0.05032497    -0.30653447     0.035677895   -0.19537399     0.00060760821
   4485000   0.049829493   -0.30709761     0.035530201   -0.19682799     0.00033427681
   4486000   0.05002276    -0.30713133     0.035892107   -0.19620993    -0.00034176951
   4487000   0.049898293   -0.30714872     0.035491467   -0.19681464     0.00019263293
   4488000   0.050433537   -0.30701857     0.035453295   -0.19591985     0.0004935817 
   4489000   0.049795394   -0.30709623     0.03533415    -0.1970738      0.00044908383
   4490000   0.050117437   -0.30746217     0.035999737   -0.19629113    -0.00042712218
   4491000   0.050246391   -0.30699428     0.035086632   -0.19654292    -0.00021016195
   4492000   0.050091462   -0.30720607     0.036054882   -0.19601885    -0.0015708959 
   4493000   0.049659428   -0.30702641     0.035655785   -0.19688629     0.0005916153 
   4494000   0.049599336   -0.30691352     0.035449034   -0.19707029     0.00039465287
   4495000   0.049913012   -0.30694691     0.036048854   -0.19603337    -0.00031975992
   4496000   0.050074021   -0.30699872     0.035805522   -0.19608701     0.00080290451
   4497000   0.049828089   -0.30677144     0.035546011   -0.19648812     0.00033009678
   4498000   0.050119837   -0.30713373     0.036277482   -0.19568135    -0.00063706865
   4499000   0.049828116   -0.30652325     0.036354204   -0.1954317      0.00010312529
   4500000   0.050592749   -0.30663996     0.035862254   -0.19489348     0.00073638586
   4501000   0.050030363   -0.30683063     0.03595013    -0.1958398      0.00032824743
   4502000   0.049815516   -0.30676276     0.036257441   -0.19578687     0.00052939056
   4503000   0.049893233   -0.3065996      0.035383318   -0.19638126     2.7237753e-05
   4504000   0.050119585   -0.30711137     0.035396015   -0.19654083     0.00042119935
   4505000   0.049354784   -0.30720054     0.036254475   -0.19691866    -0.00046830455
   4506000   0.049668072   -0.30674622     0.035220124   -0.19702879     0.00055188032
   4507000   0.049704963   -0.30722002     0.03605191    -0.19661547     0.00011008077
   4508000   0.050123049   -0.30675784     0.035681646   -0.19589647     0.00085407374
   4509000   0.04998032    -0.30643077     0.035214389   -0.19625074     8.6032028e-05
   4510000   0.049705285   -0.30677978     0.036096495   -0.19613017     0.00070256532
   4511000   0.050142842   -0.30708314     0.035897975   -0.19597575     0.00083257725
   4512000   0.049838125   -0.30695906     0.036282298   -0.1959244     -0.00048806506
   4513000   0.049918283   -0.3073097      0.035947629   -0.19648948    -0.00035162943
   4514000   0.049070071   -0.30730446     0.035535559   -0.19816854    -7.2929591e-05
   4515000   0.049724181   -0.30738755     0.0358428     -0.19696329     0.00028870927
   4516000   0.04967232    -0.30743851     0.035646053   -0.19728879    -0.00027167594
   4517000   0.049771996   -0.30740475     0.035112878   -0.1976387     -0.00011487086
   4518000   0.050118825   -0.30734329     0.034891142   -0.19727876     0.00098036007
   4519000   0.049508479   -0.30722879     0.035488111   -0.19748275    -0.0007413003 
   4520000   0.049938341   -0.30714284     0.035244326   -0.19699583     0.0012456877 
   4521000   0.050089829   -0.30736811     0.035531091   -0.19670712     0.00015955258
   4522000   0.049728437   -0.30726809     0.035984177   -0.19669607    -0.00053426093
   4523000   0.049832433   -0.3070787      0.036338962   -0.19599591     0.00062570124
   4524000   0.050354765   -0.30763425     0.035591861   -0.19651512    -0.00029672411
   4525000   0.049524292   -0.30717553     0.035492837   -0.19740105     0.00039551729
   4526000   0.049831697   -0.30747645     0.035717526   -0.1970162      4.9076876e-05
   4527000   0.049756022   -0.30737755     0.035752718   -0.19699562    -0.00012321946
   4528000   0.049817006   -0.30719051     0.036177667   -0.19629216     0.00031839137
   4529000   0.04968029    -0.30742887     0.036136823   -0.19677642    -0.00027702268
   4530000   0.049353213   -0.30754656     0.036053398   -0.19746812     0.00013866195
   4531000   0.050106749   -0.30746439     0.036280434   -0.19602869    -0.00054878521
   4532000   0.049774591   -0.30762052     0.036134476   -0.19682897     0.00087132692
   4533000   0.049928696   -0.30748167     0.035620225   -0.19697324    -0.00053831108
   4534000   0.049727262   -0.30750507     0.035797239   -0.19712175     0.0013678455 
   4535000   0.049771482   -0.30737387     0.035232156   -0.1974893     -0.00063581017
   4536000   0.050031807   -0.30759391     0.035271233   -0.1972798     -0.00040801702
   4537000   0.04978994    -0.30713582     0.035265782   -0.19718994     0.00034397221
   4538000   0.050471911   -0.3077282      0.035656599   -0.19636862     0.00034151508
   4539000   0.049535479   -0.30710294     0.035568768   -0.19723574     0.0010800636 
   4540000   0.049594313   -0.30759407     0.035731831   -0.19747557    -0.0010970638 
   4541000   0.049137455   -0.3071512      0.035765886   -0.19768389     0.00050838901
   4542000   0.050473191   -0.30776402     0.035795161   -0.19626396    -6.8524057e-05
   4543000   0.05008887    -0.30778656     0.036205422   -0.19645268     0.00011551066
   4544000   0.050799118   -0.307808       0.035426972   -0.19618727    -0.00094545989
   4545000   0.049923353   -0.30736343     0.035881253   -0.19660198     0.00024988006
   4546000   0.050018652   -0.30767882     0.035647518   -0.19700817     0.00097175244
   4547000   0.05034682    -0.3073366      0.035207509   -0.19661374     0.00093251996
   4548000   0.050249429   -0.30794854     0.036205713   -0.19637354    -0.00027668171
   4549000   0.050091547   -0.30775738     0.035802894   -0.19682201    -0.00013785664
   4550000   0.050259709   -0.30786947     0.03623263    -0.19625214     0.00060181117
   4551000   0.050143657   -0.30830766     0.035921154   -0.19717587    -0.00016032416
   4552000   0.049813291   -0.30817457     0.035525687   -0.19793377     0.0011412783 
   4553000   0.049898078   -0.30808307     0.035688499   -0.19755228     0.00014636131
   4554000   0.050211101   -0.3079028      0.035786015   -0.19680499     0.00020669635
   4555000   0.050280795   -0.30815771     0.035596399   -0.19714498     0.00015223759
   4556000   0.049833278   -0.30772043     0.035336487   -0.19763885    -2.3191036e-05
   4557000   0.049127998   -0.30759748     0.03624523    -0.197665       0.00086772176
   4558000   0.049717004   -0.30799285     0.036035961   -0.1973862     -0.0008527457 
   4559000   0.05004778    -0.30775655     0.035765545   -0.19692418    -0.00029021876
   4560000   0.049474725   -0.308448       0.035872669   -0.19836803    -3.8685485e-05
   4561000   0.049795086   -0.30822884     0.035629712   -0.19791132     0.00024130272
   4562000   0.050483302   -0.30832981     0.035275837   -0.1973339      0.00022538398
   4563000   0.049770615   -0.30795557     0.036111865   -0.1971926      0.00053834164
   4564000   0.049690048   -0.30786109     0.035295683   -0.19803514    -0.0009135257 
   4565000   0.049903243   -0.3076225      0.036090418   -0.19668204     0.0004730708 
   4566000   0.050113073   -0.30772608     0.035738526   -0.1968228      0.00065232905
   4567000   0.050458187   -0.30801796     0.035647936   -0.19668763    -0.00020610273
   4568000   0.049851308   -0.30750063     0.035782008   -0.19694648     0.00019616316
   4569000   0.050019925   -0.3077549      0.035442132   -0.19728772    -0.00043383913
   4570000   0.050020323   -0.30784951     0.035947529   -0.19687634     0.00096812633
   4571000   0.049490951   -0.30807552     0.035569972   -0.19827391    -0.00036651035
   4572000   0.049878474   -0.30816965     0.03513564    -0.19822113     0.00077887588
   4573000   0.049794797   -0.30789361     0.035490709   -0.19771552    -0.00012422035
   4574000   0.049896938   -0.30788461     0.036129672   -0.19691436    -0.00029606532
   4575000   0.049949373   -0.30809172     0.036326271   -0.19684622     0.00010127652
   4576000   0.04981783    -0.30805947     0.03517674    -0.1981608      0.0003977076 
   4577000   0.050034723   -0.30817514     0.035594621   -0.19753328     0.0011330081 
   4578000   0.050354946   -0.30774202     0.03582889    -0.19638558     0.0012910466 
   4579000   0.050078274   -0.30808135     0.035638977   -0.19732981     0.00055272076
   4580000   0.049538214   -0.30819674     0.035899682   -0.19799453     0.00019290182
   4581000   0.049540135   -0.30766289     0.035593101   -0.19776438    -3.7907216e-05
   4582000   0.049799181   -0.30756446     0.035597491   -0.19727302     0.00087288317
   4583000   0.050254655   -0.30798658     0.035934352   -0.19667511     0.0015716202 
   4584000   0.050738283   -0.30789315     0.03574704    -0.19604359     0.00091559096
   4585000   0.050096362   -0.30810328     0.036167676   -0.19679591     1.8087e-05   
   4586000   0.050291503   -0.30823529     0.035241056   -0.19756184     0.0004541534 
   4587000   0.049752441   -0.307785       0.035542137   -0.19761902    -0.00018927526
   4588000   0.049518252   -0.30767537     0.035336389   -0.1980664     -0.00031571164
   4589000   0.049997424   -0.3081772      0.035869974   -0.19731593    -4.4040902e-05
   4590000   0.049706894   -0.30848063     0.036296659   -0.19762845    -0.00035136998
   4591000   0.049590155   -0.3078449      0.035968502   -0.19749596     0.0005201947 
   4592000   0.049904577   -0.30784858     0.035973923   -0.19702262     5.1570594e-05
   4593000   0.050118141   -0.30803437     0.035453406   -0.1974086      0.00058830385
   4594000   0.049891014   -0.30799881     0.036185222   -0.1969819      0.00013579216
   4595000   0.050267643   -0.30802843     0.035355245   -0.19727658     0.00055567549
   4596000   0.050535276   -0.3076582      0.036153379   -0.19570679     0.00013983988
   4597000   0.049691572   -0.30823686     0.035585727   -0.19811858     0.0001183054 
   4598000   0.050008938   -0.30849283     0.035474455   -0.19800981     0.00078176384
   4599000   0.050526937   -0.30812345     0.035468431   -0.19686951     0.00050682865
   4600000   0.050164734   -0.30824179     0.035663296   -0.19733624     0.00075582173
   4601000   0.049786831   -0.30840814     0.036589299   -0.19714341    -0.00093896921
   4602000   0.050554024   -0.30819854     0.035957495   -0.1964149     -1.8815712e-05
   4603000   0.049979303   -0.30798694     0.036005226   -0.19701759     0.00016881907
   4604000   0.049809881   -0.30809059     0.035729434   -0.19765115     0.00055324143
   4605000   0.049725893   -0.30825865     0.035332549   -0.19834207     0.00062143348
   4606000   0.050018869   -0.30810467     0.035044694   -0.19803652     0.00050130265
   4607000   0.050102534   -0.30813298     0.03569157    -0.19729246    -0.00049039908
   4608000   0.049995862   -0.30833429     0.035773517   -0.19757182    -0.00029859287
   4609000   0.050193227   -0.30793946     0.035480465   -0.19717401     0.00010211237
   4610000   0.050293972   -0.30813358     0.035700488   -0.196997      -0.00090226617
   4611000   0.050245834   -0.30788606     0.035810949   -0.19671123     0.00076032547
   4612000   0.049851169   -0.30795953     0.035639601   -0.197548      -0.00057409254
   4613000   0.050050847   -0.3079467      0.035764235   -0.19711104    -0.00061356073
   4614000   0.049980221   -0.30802371     0.03507858    -0.19797964     0.00088240022
   4615000   0.049857417   -0.3082506      0.035553398   -0.19791591     5.9695843e-05
   4616000   0.04993551    -0.30805773     0.035747921   -0.19741138    -0.00024132588
   4617000   0.050365427   -0.30785102     0.035870125   -0.19643763    -2.5380748e-05
   4618000   0.05059456    -0.30803674     0.035436273   -0.19671352     0.00038730928
   4619000   0.050079986   -0.30822886     0.035734599   -0.19737913    -0.00018833016
   4620000   0.050358229   -0.30798583     0.035908087   -0.19654527     1.4191249e-05
   4621000   0.050617369   -0.30817761     0.035196611   -0.19705985     0.00061819012
   4622000   0.05046673    -0.30821907     0.035824468   -0.19669939     0.00047174632
   4623000   0.049756875   -0.30813235     0.03565413    -0.19784772    -0.00053111341
   4624000   0.05100628    -0.30793671     0.035494925   -0.1959373      0.00046949067
   4625000   0.050115796   -0.30852928     0.035523511   -0.19783692     0.00048030558
   4626000   0.050151679   -0.30831901     0.0358174     -0.19727895     0.0001892017 
   4627000   0.050075871   -0.30817435     0.035778076   -0.19728731     0.00017087118
   4628000   0.05040842    -0.30832382     0.035812502   -0.19690357     0.00045631176
   4629000   0.049953533   -0.3086628      0.035533531   -0.19820381    -0.00080906086
   4630000   0.049804529   -0.30856604     0.035243441   -0.19862062     0.00058052143
   4631000   0.049719458   -0.30856426     0.035442877   -0.19854701     0.00087740265
   4632000   0.050124064   -0.30834049     0.035299947   -0.1978593     -4.3906645e-05
   4633000   0.050349944   -0.30826616     0.035400458   -0.19734566    -0.0011325848 
   4634000   0.049789833   -0.30813179     0.035461005   -0.19799085    -0.000373084  
   4635000   0.050052796   -0.3088393      0.03591264    -0.19785231    -0.0002373252 
   4636000   0.050156378   -0.30835185     0.036225529   -0.19689661     0.00066978457
   4637000   0.049877812   -0.30824392     0.035417838   -0.19801419    -0.00077741746
   4638000   0.049652932   -0.30870715     0.035747387   -0.19848517     0.00059286776
   4639000   0.049964081   -0.3085071      0.035869738   -0.19769608    -0.00051057165
   4640000   0.050198478   -0.30832257     0.035762945   -0.19726677     0.00051267315
   4641000   0.050372413   -0.30830043     0.035788196   -0.19695849    -0.00027384384
   4642000   0.050173291   -0.30805393     0.035496236   -0.19730261     0.00032604753
   4643000   0.050123117   -0.30826437     0.035003807   -0.19808074     0.00027755365
   4644000   0.049816022   -0.30831226     0.035490232   -0.19810282    -0.00079380844
   4645000   0.050219025   -0.30797362     0.035532441   -0.1971175     -0.00030121073
   4646000   0.049669609   -0.30814985     0.036504141   -0.1971461      5.9618471e-05
   4647000   0.050141319   -0.30849959     0.03674465    -0.19654781    -0.0012728212 
   4648000   0.049934363   -0.30858956     0.036233804   -0.19745904    -0.00046406154
   4649000   0.050233993   -0.30821133     0.03595371    -0.19691149     3.4119976e-05
   4650000   0.050201875   -0.30801377     0.03570652    -0.19700929     0.00063419362
   4651000   0.049990866   -0.30799689     0.036088163   -0.19692726    -0.00021700567
   4652000   0.05013298    -0.30818898     0.035473272   -0.19752109     0.00086697268
   4653000   0.049756634   -0.30811854     0.035919352   -0.19756905    -0.00045157676
   4654000   0.050229672   -0.30830284     0.036217893   -0.1967453     -0.00061173546
   4655000   0.050657721   -0.30832756     0.036003693   -0.19634219     0.00036477611
   4656000   0.050456441   -0.30844868     0.03610131    -0.1966676     -1.4964455e-05
   4657000   0.049645227   -0.30798717     0.03565961    -0.19786453    -0.00028998546
   4658000   0.050090363   -0.30787365     0.035954018   -0.19678893    -0.00056123107
   4659000   0.050260827   -0.30832174     0.036252586   -0.19668278    -0.00019622349
   4660000   0.050347108   -0.30851482     0.036656106   -0.19634292     7.6302896e-05
   4661000   0.050148929   -0.30853033     0.036052768   -0.19725902     0.00081189196
   4662000   0.050670298   -0.30840104     0.035773411   -0.19662709     0.0012621571 
   4663000   0.050462229   -0.30798469     0.035749323   -0.19654691     0.0001064688 
   4664000   0.050496028   -0.30832649     0.035381306   -0.19720603     0.00080995105
   4665000   0.050060421   -0.30850338     0.035853663   -0.19756393     0.00042502491
   4666000   0.049748083   -0.30830268     0.035940553   -0.19774482    -0.00014641843
   4667000   0.050278245   -0.30809084     0.035017913   -0.19766043     0.0011217991 
   4668000   0.049949544   -0.30827946     0.035414043   -0.19794593     0.0001569129 
   4669000   0.050448938   -0.30829048     0.035473707   -0.19714825    -0.00052329314
   4670000   0.050060528   -0.30852493     0.035571452   -0.19786753     0.00022032758
   4671000   0.050226959   -0.30903944     0.035960238   -0.19774363    -0.00032839443
   4672000   0.049668855   -0.30814513     0.035478703   -0.19816795    -7.0709932e-05
   4673000   0.049577882   -0.30820863     0.035731357   -0.19811525    -0.00044460992
   4674000   0.049834255   -0.30846479     0.036093305   -0.19762492     0.00018879403
   4675000   0.050249904   -0.30852994     0.035517796   -0.19764215     0.00066679043
   4676000   0.049591176   -0.3084828      0.035674389   -0.19842644     0.0013723046 
   4677000   0.050253062   -0.30868301     0.035206138   -0.19810215     0.00014235532
   4678000   0.05020208    -0.30816154     0.035269765   -0.19759351    -0.00010106812
   4679000   0.050447914   -0.3084132      0.036007178   -0.19673904    -0.00077238692
   4680000   0.050546637   -0.30881693     0.035955127   -0.19704674     0.00024280025
   4681000   0.050253672   -0.30866373     0.035661375   -0.19762671     0.00034640003
   4682000   0.050082043   -0.30886776     0.035501229   -0.19824831    -0.00048730294
   4683000   0.049645921   -0.30845583     0.035318235   -0.19867352    -0.00031323706
   4684000   0.049719309   -0.30845135     0.035525619   -0.19835158     0.00060161313
   4685000   0.049810245   -0.30861145     0.035520905   -0.19838       -0.00042476335
   4686000   0.04994133    -0.30843787     0.035806265   -0.19772445     9.9178539e-05
   4687000   0.050196497   -0.30857331     0.035375346   -0.19790807     0.0012766463 
   4688000   0.049878669   -0.30844633     0.035751913   -0.19788124     0.00067137995
   4689000   0.050289572   -0.30840446     0.035637597   -0.19733738    -0.00067422867
   4690000   0.049803195   -0.30858365     0.035719005   -0.19816467     0.00036312819
   4691000   0.049617597   -0.30882063     0.035782231   -0.1986168      0.0003439317 
   4692000   0.050160073   -0.30852437     0.036130886   -0.19715823    -0.00076547431
   4693000   0.050257369   -0.30911787     0.036353521   -0.19738316    -1.2006991e-05
   4694000   0.049617292   -0.30853421     0.035512518   -0.19860056    -0.00036809176
   4695000   0.049423516   -0.30895493     0.035474717   -0.19934972     0.00037181479
   4696000   0.049038511   -0.30909591     0.036060319   -0.19948257    -0.0008032822 
   4697000   0.049857675   -0.3089987      0.035587242   -0.19862977     0.00039639137
   4698000   0.049687882   -0.30878581     0.035470659   -0.19878813     0.0010569557 
   4699000   0.050231322   -0.30919309     0.035618368   -0.1982326      0.00030786057
   4700000   0.05018042    -0.30866932     0.036099691   -0.19730385     0.00050427143
   4701000   0.049451      -0.30908895     0.035714368   -0.19920287     0.00021033571
   4702000   0.050266176   -0.30869765     0.03561898    -0.19768427     0.00041621161
   4703000   0.049749277   -0.30866216     0.036175584   -0.19786748     0.0010677053 
   4704000   0.050077556   -0.30881645     0.036271807   -0.19743315     0.00041081384
   4705000   0.049898979   -0.30903683     0.035620578   -0.19857261    -0.00025177687
   4706000   0.049342729   -0.30898379     0.036002409   -0.19897207    -0.00053291847
   4707000   0.050153834   -0.30871486     0.035949642   -0.19753932     0.00065195734
   4708000   0.050036419   -0.30899298     0.036133751   -0.19780945    -0.00029697792
   4709000   0.049522734   -0.30860545     0.036211785   -0.19811436    -3.8869177e-05
   4710000   0.049779902   -0.30888922     0.035562979   -0.19866121     0.00019741879
   4711000   0.050236131   -0.30861238     0.035392078   -0.19787097     0.0011169139 
   4712000   0.049999052   -0.30890413     0.035293321   -0.19861707     3.2437563e-05
   4713000   0.050328706   -0.30859895     0.035524543   -0.19758622     0.00018753249
   4714000   0.049616513   -0.30886681     0.036052501   -0.19839434    -0.00070157038
   4715000   0.049273376   -0.30912219     0.035163096   -0.20005379     0.001114549  
   4716000   0.049764207   -0.30880958     0.035952289   -0.1982158      0.00060026752
   4717000   0.049861189   -0.30910126     0.035888096   -0.19842621    -0.0010818345 
   4718000   0.049867391   -0.3090217      0.035043906   -0.19918154     0.00037883125
   4719000   0.049641227   -0.30897533     0.036156887   -0.19836141    -0.00014449035
   4720000   0.04991551    -0.30860653     0.035571033   -0.19816706     0.00058313881
   4721000   0.049315666   -0.308896       0.035984753   -0.19894252    -0.00031098755
   4722000   0.049797564   -0.30885944     0.035278381   -0.19888953     0.00044582696
   4723000   0.049338567   -0.30856706     0.035231375   -0.19933261    -0.00027802916
   4724000   0.050087169   -0.3087634      0.035208383   -0.19842911     0.00063791083
   4725000   0.049720267   -0.3088308      0.035867869   -0.19838734     0.00035214564
   4726000   0.049483548   -0.3091943      0.0356629     -0.19931087     0.00082644169
   4727000   0.049909384   -0.30853312     0.035897163   -0.19777671    -0.00063446265
   4728000   0.049903866   -0.30886744     0.035733101   -0.19828337     0.00010743331
   4729000   0.049741184   -0.30880321     0.035182032   -0.19901421     0.0016423073 
   4730000   0.049529561   -0.3089096      0.035457759   -0.19916229    -0.00038070867
   4731000   0.050197647   -0.30902436     0.035229138   -0.19850361     0.00078315545
   4732000   0.049880959   -0.30882609     0.036389784   -0.19761969    -0.00016834335
   4733000   0.049951393   -0.30860596     0.035257107   -0.19842659     0.0016625434 
   4734000   0.049897427   -0.30883041     0.036071717   -0.19791738     0.000220039  
   4735000   0.050466316   -0.30921358     0.035799234   -0.19771976    -3.8109282e-05
   4736000   0.050266045   -0.30863531     0.035977115   -0.19726399     0.0010969194 
   4737000   0.050020448   -0.30885105     0.036733991   -0.19709122    -8.4328247e-05
   4738000   0.049660429   -0.30898452     0.036125944   -0.19837273    -0.0011981405 
   4739000   0.050177139   -0.30888256     0.035789965   -0.19783174     0.00081102826
   4740000   0.049710258   -0.3090819      0.035393055   -0.19912827     9.796189e-05 
   4741000   0.049585372   -0.3094216      0.035674838   -0.1993735      0.00028425794
   4742000   0.050160414   -0.3089713      0.035686014   -0.19804952    -0.00044709999
   4743000   0.049943296   -0.30923001     0.035823505   -0.1984964     -0.0010306739 
   4744000   0.050597833   -0.30963312     0.03509764    -0.19864363     0.00070229004
   4745000   0.049983579   -0.30910841     0.036331847   -0.19780603    -0.00054462163
   4746000   0.049912738   -0.30933196     0.036072148   -0.19839553     0.00014953472
   4747000   0.05024606    -0.30967438     0.035618993   -0.19869116    -7.9121444e-05
   4748000   0.049728964   -0.30909162     0.035643142   -0.19885984    -4.2876063e-05
   4749000   0.050328228   -0.30892677     0.035716407   -0.19772289     1.720168e-05 
   4750000   0.049160293   -0.309059       0.035521472   -0.19980185     0.00090927642
   4751000   0.049777084   -0.30931973     0.036078179   -0.19858074     0.00017922569
   4752000   0.050325153   -0.30940818     0.035751436   -0.19817389     8.1181294e-05
   4753000   0.049768906   -0.30917365     0.035426584   -0.19909852    -1.197111e-05 
   4754000   0.050055628   -0.30938406     0.035408669   -0.19889679    -3.909819e-05 
   4755000   0.049762633   -0.30924796     0.035485451   -0.19912338     0.0015201697 
   4756000   0.049560093   -0.30918311     0.035655493   -0.19919227     0.00043605579
   4757000   0.049992353   -0.30912474     0.036000087   -0.19814096    -5.9776884e-05
   4758000   0.050260411   -0.30932626     0.035920945   -0.19801957     0.00043019652
   4759000   0.049856511   -0.30911824     0.03591731    -0.19842099     3.9250733e-05
   4760000   0.050341823   -0.30955289     0.035369806   -0.19867522     0.0011050981 
   4761000   0.050607677   -0.30936307     0.035854575   -0.19760188    -4.6853703e-05
   4762000   0.049945258   -0.30920073     0.035494371   -0.19879331     0.00066731618
   4763000   0.049590386   -0.30935669     0.03600983    -0.19896608    -0.00056711655
   4764000   0.049607914   -0.3091563      0.035257322   -0.1994919     -0.00023453439
   4765000   0.049628534   -0.30934397     0.036287065   -0.19861891     6.2411637e-05
   4766000   0.049836774   -0.30912836     0.0358996     -0.19847842     0.0010003605 
   4767000   0.049611272   -0.30924858     0.036372945   -0.19846352    -0.00096543138
   4768000   0.049887926   -0.30947332     0.035634559   -0.1990117     -8.3960305e-05
   4769000   0.0495117     -0.30925178     0.036205634   -0.19878339     0.00025870264
   4770000   0.050023623   -0.30947367     0.03515868    -0.1992844      0.00064881174
   4771000   0.049339489   -0.30899128     0.036277862   -0.19870896    -0.00061961531
   4772000   0.050262294   -0.30962557     0.035118121   -0.19911887    -0.00057188668
   4773000   0.04936818    -0.30900488     0.035756722   -0.19920066    -0.00034773256
   4774000   0.050158007   -0.30916915     0.03643197    -0.19750502     0.00023233018
   4775000   0.050926535   -0.30930399     0.035754289   -0.19716483     0.00042544245
   4776000   0.049220576   -0.30904309     0.036224905   -0.19899209    -0.00036448038
   4777000   0.049728138   -0.30926562     0.035407953   -0.19927028     7.8988424e-05
   4778000   0.050118958   -0.30889951     0.035508019   -0.1982179      0.00073615743
   4779000   0.050340862   -0.30918969     0.035536374   -0.19814689    -2.9379856e-05
   4780000   0.049823086   -0.30924152     0.035567888   -0.19894383     0.00055097624
   4781000   0.050382292   -0.30930061     0.03593865    -0.1977934      0.0015920977 
   4782000   0.050143858   -0.30908761     0.035394745   -0.19848193    -0.00038841304
   4783000   0.05010043    -0.30927849     0.035667213   -0.19846548     5.4582639e-05
   4784000   0.049472385   -0.30928902     0.035518804   -0.19956642     0.00056417486
   4785000   0.050243492   -0.3096277      0.035178623   -0.1990887      0.00037254712
   4786000   0.04965818    -0.30943925     0.035593847   -0.19936294    -0.00057798211
   4787000   0.050132562   -0.30962097     0.03544042    -0.19898656    -0.00010851012
   4788000   0.050249922   -0.3092654      0.035987051   -0.19790833    -0.00023141932
   4789000   0.049315779   -0.30947759     0.035632227   -0.19987646    -0.00022872438
   4790000   0.049700908   -0.30917261     0.035639128   -0.19898693    -0.00042822023
   4791000   0.049584415   -0.3097659      0.035700129   -0.19969395    -0.00020195387
   4792000   0.050713431   -0.30982932     0.03580559    -0.1979585      0.00024394096
   4793000   0.049928145   -0.30940161     0.03591909    -0.19859513    -8.8667708e-05
   4794000   0.049308554   -0.30920765     0.036033853   -0.19921574    -0.00011639649
   4795000   0.049901166   -0.30934326     0.035537484   -0.19895886    -0.00022031591
   4796000   0.049644661   -0.30984397     0.035689882   -0.1996919     -0.00016527115
   4797000   0.050373002   -0.30969267     0.035800566   -0.19833747    -0.00025935691
   4798000   0.05070311    -0.30941705     0.035831161   -0.19753613    -0.00085996164
   4799000   0.049794394   -0.3091958      0.035844394   -0.19866464     0.0014058839 
   4800000   0.049800952   -0.30929186     0.036031625   -0.19856363    -0.00066551392
   4801000   0.049407372   -0.30917556     0.035715915   -0.19935337    -8.0239111e-05
   4802000   0.049981736   -0.3097459      0.035870931   -0.1989072     -0.0014349386 
   4803000   0.050256127   -0.30985392     0.035763081   -0.19871151     0.00022520586
   4804000   0.050160432   -0.30966397     0.035544681   -0.19888349     7.1900788e-05
   4805000   0.05039399    -0.30945547     0.035488878   -0.19838048     0.00029294553
   4806000   0.050014774   -0.30957538     0.035811546   -0.19874651     0.0011313131 
   4807000   0.049707352   -0.30910078     0.035531815   -0.19901274     0.00050756347
   4808000   0.049903105   -0.30985757     0.035726011   -0.19928173     0.00049077857
   4809000   0.050317713   -0.30949526     0.036106177   -0.19791738     0.00014785337
   4810000   0.050335352   -0.30961295     0.036179323   -0.19793547     0.00039623025
   4811000   0.049539197   -0.30970182     0.03520152    -0.20019629    -6.4543462e-05
   4812000   0.050025697   -0.30969967     0.035720332   -0.19894563     0.0008569857 
   4813000   0.04990951    -0.31000959     0.036110019   -0.19904014    -0.00081985735
   4814000   0.049951615   -0.30997217     0.035231764   -0.19981782     0.00053120219
   4815000   0.050325063   -0.30992564     0.035457659   -0.19898525     0.00027910686
   4816000   0.049881469   -0.31012892     0.035948575   -0.19936297    -0.00011943322
   4817000   0.050376205   -0.30994465     0.035644255   -0.19874096    -0.00034927435
   4818000   0.049775846   -0.30944855     0.034906162   -0.19988344     0.00091185862
   4819000   0.049957254   -0.3096864      0.035677576   -0.19907778     1.1737047e-05
   4820000   0.050251647   -0.30915027     0.035908328   -0.19786933    -0.00021608122
   4821000   0.050456272   -0.30989969     0.035320667   -0.19889949     0.00026155588
   4822000   0.050121448   -0.30969595     0.035727236   -0.19879139     0.00091184124
   4823000   0.049878889   -0.3099956      0.035824444   -0.19935765     0.0008198491 
   4824000   0.050827681   -0.30986705     0.035807532   -0.19782292     2.0863248e-05
   4825000   0.050100985   -0.30982653     0.036083347   -0.19859656    -7.4711522e-05
   4826000   0.049559904   -0.31009048     0.035742137   -0.20001329     9.6151793e-05
   4827000   0.049939838   -0.30992069     0.035557262   -0.1994585      8.8568451e-05
   4828000   0.049843662   -0.30971971     0.035942612   -0.19901643    -0.00017997816
   4829000   0.050203594   -0.30953894     0.035161165   -0.19907724     3.199484e-05 
   4830000   0.049370244   -0.30987981     0.035372125   -0.2004571      0.00040259211
   4831000   0.049483566   -0.3098484      0.035944468   -0.19968338     0.00017024196
   4832000   0.049743568   -0.31001157     0.035914981   -0.19948605    -0.00079045349
   4833000   0.049920694   -0.3102038      0.035690206   -0.19963739    -3.6833809e-05
   4834000   0.049715089   -0.30967985     0.035432203   -0.19967983     3.5963753e-07
   4835000   0.050186062   -0.30955965     0.03564084    -0.19864458     0.00062050332
   4836000   0.050132609   -0.30940778     0.035891759   -0.19832195    -0.00019715835
   4837000   0.050014346   -0.30960936     0.035059937   -0.19953274     0.00064042328
   4838000   0.049871477   -0.30967503     0.035762309   -0.19911034    -0.00030874445
   4839000   0.0497208     -0.30968903     0.034965991   -0.20014666     0.00061562724
   4840000   0.050130708   -0.31024014     0.035469899   -0.19957903     0.00048191973
   4841000   0.049669454   -0.30967946     0.036101023   -0.19907907    -0.00078117058
   4842000   0.05039191    -0.31002502     0.035261416   -0.19918062    -4.4178658e-05
   4843000   0.049725336   -0.30993899     0.034871968   -0.20048383    -8.8306043e-05
   4844000   0.049256289   -0.30978754     0.035673599   -0.20023427    -0.00055379361
   4845000   0.04893345    -0.310206       0.035327023   -0.20148354    -0.00066463532
   4846000   0.049704237   -0.30989663     0.035074903   -0.20027018     0.00022699014
   4847000   0.049132682   -0.31004708     0.034974416   -0.2013784     -0.0002167165 
   4848000   0.049595858   -0.31030949     0.035236981   -0.20068352     0.00010998319
   4849000   0.048782217   -0.30987545     0.035603854   -0.20110299     0.00048552278
   4850000   0.049970203   -0.30978129     0.035993065   -0.19883775    -0.0001087506 
   4851000   0.050288395   -0.31021307     0.035261752   -0.1995236      0.00070369704
   4852000   0.050120959   -0.31018858     0.035383535   -0.19962845    -0.0003193776 
   4853000   0.049901995   -0.31016213     0.03544734    -0.19986663     0.00054695205
   4854000   0.050169081   -0.30997309     0.035452534   -0.19927179    -0.00067843711
   4855000   0.050221459   -0.30960525     0.035307433   -0.19897049     0.00057803284
   4856000   0.04986561    -0.30968327     0.035123806   -0.19976587     0.00098614372
   4857000   0.04964175    -0.30999763     0.03569168    -0.19984813    -4.9377639e-05
   4858000   0.049551321   -0.31022248     0.036105449   -0.19979484     1.3473642e-05
   4859000   0.050218562   -0.31035002     0.035704677   -0.19932236    -0.00058660695
   4860000   0.049642254   -0.3102312      0.036066515   -0.19970611     0.00010371015
   4861000   0.050020781   -0.30991261     0.035438436   -0.19944785    -0.00086708359
   4862000   0.049956309   -0.30971021     0.0357678     -0.19901278     0.00042100392
   4863000   0.049940452   -0.30983978     0.035560329   -0.1993736      0.00045509811
   4864000   0.050217203   -0.30998894     0.035648582   -0.19901941     0.001174884  
   4865000   0.050347553   -0.31023707     0.035609448   -0.19911116     4.7967669e-05
   4866000   0.050343228   -0.30992914     0.036550586   -0.19786858     2.6866933e-05
   4867000   0.050403116   -0.3099092      0.035501662   -0.19880774    -0.00072495451
   4868000   0.05047166    -0.31012313     0.036163073   -0.19825745    -5.0304701e-05
   4869000   0.049793348   -0.31003466     0.035951479   -0.19939798     0.00025120323
   4870000   0.05019282    -0.31007261     0.035275286   -0.19951295     0.00023494275
   4871000   0.050046474   -0.30989515     0.035047859   -0.19978243     0.0015879053 
   4872000   0.050110344   -0.31025279     0.03542963    -0.1996625      0.00041841343
   4873000   0.049639845   -0.31051191     0.036380028   -0.19967692    -9.3618693e-05
   4874000   0.049906942   -0.31032445     0.035593106   -0.19987576    -0.00034001933
   4875000   0.049813499   -0.31050481     0.036234518   -0.19955486    -1.8187475e-05
   4876000   0.050233948   -0.31011921     0.035963972   -0.19880917    -0.00069941505
   4877000   0.049655604   -0.31042725     0.036132958   -0.1998157      0.00034176292
   4878000   0.050033728   -0.31030005     0.035664983   -0.19958932     0.00042270817
   4879000   0.050000422   -0.30982881     0.035860151   -0.19897287    -7.9501556e-05
   4880000   0.049888273   -0.31042231     0.035663696   -0.19993103     0.00027297739
   4881000   0.050442686   -0.31012365     0.035696906   -0.1987676      0.0010178225 
   4882000   0.04972244    -0.31040773     0.035910886   -0.199918      -0.00048142396
   4883000   0.04934684    -0.31024916     0.035846902   -0.20038678    -7.4531968e-07
   4884000   0.049670376   -0.31000994     0.035666501   -0.19984268    -0.00041555164
   4885000   0.049845636   -0.31021797     0.036212748   -0.1992416      0.00029667676
   4886000   0.049802805   -0.30981835     0.036004173   -0.19911479     0.00025676783
   4887000   0.050111638   -0.30993087     0.03550686    -0.1992614     -0.00014671009
   4888000   0.049715236   -0.30998989     0.035569826   -0.19985202    -1.8798851e-05
   4889000   0.049641962   -0.30984829     0.036207377   -0.19918278    -0.0010991202 
   4890000   0.050542738   -0.31005533     0.035623711   -0.1986224     -0.00036828953
   4891000   0.049805538   -0.31019266     0.035272109   -0.20021706     1.8401277e-05
   4892000   0.050043801   -0.31013805     0.035438336   -0.19963886    -0.00049641652
   4893000   0.049675207   -0.30950403     0.03590704    -0.19908899     0.0008747683 
   4894000   0.05018852    -0.30991419     0.035884165   -0.19875211     0.00030183572
   4895000   0.049764332   -0.30997435     0.035958945   -0.19937372    -0.00019378997
   4896000   0.050277603   -0.30988578     0.035422163   -0.19905207     0.00025449808
   4897000   0.050377792   -0.31032993     0.035532714   -0.19923541    -0.00040054857
   4898000   0.050128289   -0.31006888     0.03580736    -0.19907393    -0.00077023819
   4899000   0.050370778   -0.31002004     0.035902265   -0.19856648    -3.9109154e-06
   4900000   0.049782828   -0.31017473     0.035757405   -0.1997479     -0.00067858746
   4901000   0.050386641   -0.30999839     0.03575762    -0.19866568    -0.00026119832
   4902000   0.050087372   -0.31045295     0.036233505   -0.19909324    -0.0004903058 
   4903000   0.050221924   -0.31078403     0.035479123   -0.19997688     0.0003654902 
   4904000   0.049778282   -0.31052992     0.035765514   -0.2001018      0.00023798314
   4905000   0.050044066   -0.31017775     0.036226975   -0.19888951     0.00041719452
   4906000   0.049949345   -0.31035227     0.036106778   -0.1993263     -0.00040400824
   4907000   0.050096475   -0.31047899     0.035244881   -0.20009424     0.00025486506
   4908000   0.049682522   -0.31002174     0.035831741   -0.19967102     0.00062089853
   4909000   0.049833844   -0.31017045     0.035656157   -0.19976835     0.00035685825
   4910000   0.050592255   -0.31041902     0.036385628   -0.1981499     -0.00040318152
   4911000   0.050135627   -0.31029606     0.035819495   -0.19927798    -3.5775891e-05
   4912000   0.050074883   -0.31053852     0.036026683   -0.19940436     0.00050542588
   4913000   0.050368465   -0.31058029     0.035929983   -0.19910249    -0.0012159649 
   4914000   0.050005045   -0.31044185     0.035435612   -0.20000351    -0.0001188695 
   4915000   0.050320764   -0.31067016     0.035222669   -0.19997122     0.00096868792
   4916000   0.050004681   -0.31048886     0.034966218   -0.20052046     0.00060999056
   4917000   0.049972414   -0.31043836     0.03554651    -0.19993807    -0.00031227523
   4918000   0.049818602   -0.31086315     0.035879643   -0.20026043    -0.00017077055
   4919000   0.050531022   -0.31084051     0.035739213   -0.19930966    -0.00016596277
   4920000   0.050285408   -0.31050361     0.03551754    -0.19956282     0.00020352325
   4921000   0.050082772   -0.31038052     0.035882958   -0.19937825     0.00064649817
   4922000   0.050195784   -0.31058866     0.036538191   -0.19876165    -0.00012696149
   4923000   0.050632102   -0.31055283     0.035985136   -0.19862445    -0.00057883371
   4924000   0.050236179   -0.31059986     0.036023481   -0.19922698     7.1998742e-06
   4925000   0.050347204   -0.31027088     0.035958758   -0.19879619    -0.00010508664
   4926000   0.050534573   -0.31040267     0.03530303    -0.19930267     0.00088264439
   4927000   0.050396901   -0.31087513     0.036072188   -0.19921247    -0.0002239304 
   4928000   0.049919526   -0.31096716     0.036221023   -0.19987168    -0.00017299684
   4929000   0.050177383   -0.31033316     0.035451309   -0.19962063     0.00035752088
   4930000   0.049707408   -0.31064062     0.035643104   -0.20044121    -0.00012054858
   4931000   0.049174237   -0.31061609     0.035859      -0.2010005     -0.00066743474
   4932000   0.049832978   -0.31082304     0.035087504   -0.20099089     0.00013280038
   4933000   0.049606445   -0.31071696     0.035588807   -0.20072329     7.7828767e-05
   4934000   0.049238603   -0.31097521     0.034952501   -0.20216957     0.00066015626
   4935000   0.049113171   -0.31046135     0.036193777   -0.20060257    -0.0005396496 
   4936000   0.04996382    -0.31073328     0.03570042    -0.20009196     0.00037284535
   4937000   0.049594992   -0.31072037     0.035786494   -0.20054619    -0.00020170719
   4938000   0.049093176   -0.31047336     0.03575639    -0.20108196     0.0003550944 
   4939000   0.049721023   -0.31044885     0.034845361   -0.20102676     0.00071430257
   4940000   0.049865795   -0.31032417     0.035833288   -0.19969701    -0.00027964103
   4941000   0.050313901   -0.31025245     0.035485616   -0.19930085     0.00083652666
   4942000   0.05072217    -0.31019502     0.035664378   -0.1984523      0.0010227409 
   4943000   0.050173468   -0.31084056     0.036483742   -0.19910147    -4.2125945e-05
   4944000   0.049854406   -0.31076348     0.035806252   -0.20018045     0.0004567561 
   4945000   0.050043322   -0.31059374     0.035704472   -0.19982913     0.00022433569
   4946000   0.050154213   -0.31015275     0.035639373   -0.19928691    -0.00042364479
   4947000   0.049879308   -0.31035872     0.036014303   -0.19953029     0.00018808008
   4948000   0.049919442   -0.31089757     0.035575903   -0.20044734    -0.00025056993
   4949000   0.049822092   -0.31047237     0.035753764   -0.19999029    -0.00025689981
   4950000   0.050089794   -0.31086039     0.035749693   -0.19998085     0.00065668157
   4951000   0.049749871   -0.31049756     0.03569958    -0.20017799    -0.00023781367
   4952000   0.050204401   -0.31078728     0.035659568   -0.19982597     0.00025877602
   4953000   0.050279341   -0.31079236     0.034980177   -0.20039804     0.00056675899
   4954000   0.049055031   -0.31040927     0.035347127   -0.20148434     0.00060217058
   4955000   0.049670872   -0.31088899     0.035444425   -0.20094306     9.5093945e-05
   4956000   0.050172042   -0.3111478      0.035741546   -0.20015305     0.0004128151 
   4957000   0.049465117   -0.31055603     0.035579845   -0.20078329     0.00018002446
   4958000   0.049726634   -0.31099268     0.035410878   -0.20099666    -0.00018254619
   4959000   0.049467768   -0.31081733     0.03544634    -0.20117413     0.00043673396
   4960000   0.049904964   -0.31070947     0.035691246   -0.20016561     0.00040386029
   4961000   0.049671091   -0.31070312     0.035660687   -0.2005406      0.00023370898
   4962000   0.050418359   -0.31066681     0.03566999    -0.19937416     0.00032931718
   4963000   0.049858231   -0.3103323      0.03598116    -0.19956862     0.00011624392
   4964000   0.050394142   -0.31081164     0.036302936   -0.19892237    -0.00027845285
   4965000   0.050393077   -0.31088939     0.035527351   -0.1997773     -0.00026058189
   4966000   0.050083594   -0.31053569     0.035543541   -0.1998716     -9.7993298e-05
   4967000   0.049783796   -0.31073258     0.035828337   -0.20023337     0.00014038203
   4968000   0.050387645   -0.31084829     0.035573043   -0.19969865    -0.00090232419
   4969000   0.049395176   -0.31086998     0.03547445    -0.20130754    -0.000372023  
   4970000   0.050085563   -0.31048315     0.03586022    -0.19949943     0.0014495999 
   4971000   0.050261696   -0.31069553     0.035640692   -0.19966716     4.0593939e-05
   4972000   0.049667682   -0.31050793     0.035753549   -0.20025766     0.00043675846
   4973000   0.049773169   -0.31070576     0.036188726   -0.1998621      0.00037350791
   4974000   0.050268323   -0.31068601     0.035377729   -0.19991066     0.0010080223 
   4975000   0.050160934   -0.31092934     0.035708904   -0.19998389    -0.00014739761
   4976000   0.049915718   -0.31066321     0.035652541   -0.20014193     0.00045997605
   4977000   0.050427848   -0.31103281     0.035909963   -0.19948596    -0.00048633158
   4978000   0.04978508    -0.31084113     0.035886141   -0.20028218     9.8834631e-05
   4979000   0.04949143    -0.31077092     0.035770741   -0.20076782     0.00013665401
   4980000   0.0502339     -0.3108087      0.03556848    -0.19989423    -0.00018489724
   4981000   0.050746937   -0.3110267      0.035610031   -0.19930118    -0.00036928286
   4982000   0.050344031   -0.31076615     0.035664407   -0.19959057     0.00050548455
   4983000   0.049884436   -0.31091742     0.035803828   -0.20029176    -6.6089593e-06
   4984000   0.05059986    -0.31110808     0.035553696   -0.19965949     0.0012056016 
   4985000   0.049583765   -0.31072246     0.035786757   -0.20056485     0.00038374146
   4986000   0.0501783     -0.3110265      0.03561174    -0.20015217    -0.0003049398 
   4987000   0.049059566   -0.31051975     0.03638704    -0.20054811    -0.0001654672 
   4988000   0.05036947    -0.31064911     0.035470208   -0.19962958    -0.00088456898
   4989000   0.049631405   -0.31094506     0.035707631   -0.20079512    -0.00052777606
   4990000   0.049594236   -0.31047308     0.035818597   -0.20026793    -0.00052468057
   4991000   0.049388375   -0.31049406     0.035966631   -0.20044965     0.00119815   
   4992000   0.050333453   -0.31052242     0.035646858   -0.19938025     0.00052278376
   4993000   0.050311799   -0.31132576     0.035573959   -0.20028897     0.00056051196
   4994000   0.050233422   -0.3108811      0.035255076   -0.20028076     0.00045444831
   4995000   0.05057132    -0.31108854     0.035453835   -0.19978262     0.0015212891 
   4996000   0.049935181   -0.31074379     0.036612316   -0.19923353     0.00050260001
   4997000   0.049748651   -0.3100964      0.035082964   -0.20039527     0.00025343103
   4998000   0.049995047   -0.3107985      0.03556028    -0.20025049     0.00077497816
   4999000   0.049762922   -0.31081964     0.03626019    -0.19991989     0.0005407619 
   5000000   0.050111026   -0.31098331     0.036054963   -0.19976666     0.0010844712 
   5001000   0.04985721    -0.31065837     0.03573384    -0.20014354     0.0015141075 
   5002000   0.049885547   -0.31063413     0.036046559   -0.19976408    -0.00053241891
   5003000   0.050062657   -0.31079099     0.035318827   -0.20038302    -0.00016940186
   5004000   0.050476502   -0.31090655     0.035079188   -0.20011749     0.00085340364
   5005000   0.050143349   -0.31106642     0.036158695   -0.19969756    -0.00041235913
   5006000   0.04933891    -0.31064384     0.035753382   -0.20088687    -0.00013702802
   5007000   0.049684672   -0.31117341     0.0354753     -0.20117591     0.00083437688
   5008000   0.05032924    -0.31107358     0.036012757   -0.19957183     0.00041339642
   5009000   0.05007374    -0.3114852      0.035868905   -0.20051053     0.00043586813
   5010000   0.049548255   -0.31101898     0.035702935   -0.20099845    -0.000294055  
   5011000   0.050007759   -0.31117748     0.035577699   -0.20059299    -0.00029158631
   5012000   0.050063164   -0.31118369     0.035938284   -0.20015551    -8.4485674e-05
   5013000   0.049597464   -0.31091052     0.035516561   -0.20100256     0.00062725603
   5014000   0.049975303   -0.31112879     0.035730417   -0.20044026     0.0001361734 
   5015000   0.050420046   -0.31110453     0.035630123   -0.19984921    -0.00026065723
   5016000   0.049966323   -0.31120779     0.035502605   -0.20076054     0.00090614157
   5017000   0.049789057   -0.3112958      0.035675862   -0.20094117    -0.0010026327 
   5018000   0.05013811    -0.3111187      0.035901654   -0.20001473    -0.00085322317
   5019000   0.050007106   -0.31138432     0.035026591   -0.20135191     8.0976554e-05
   5020000   0.050224699   -0.31092664     0.035789788   -0.19980466    -0.00016966709
   5021000   0.049980197   -0.31128589     0.035258542   -0.20106189     0.00024032934
   5022000   0.050107644   -0.31065959     0.035007191   -0.20049578    -4.4455704e-05
   5023000   0.050025804   -0.31114304     0.035801273   -0.20030791     0.00027641117
   5024000   0.049796218   -0.31116137     0.035355348   -0.20111651     0.00018413869
   5025000   0.050491041   -0.31143326     0.03534758    -0.200354       0.00077731082
   5026000   0.050196924   -0.31154126     0.035791434   -0.2004593      0.0010837123 
   5027000   0.050097577   -0.31141407     0.034963019   -0.20130954     0.00045294458
   5028000   0.049445486   -0.31158506     0.03599202    -0.2014296     -0.00072983209
   5029000   0.050055206   -0.31158127     0.035682098   -0.20082121     0.0006296464 
   5030000   0.050480808   -0.31125431     0.035839467   -0.19969852     0.00064136377
   5031000   0.0503713     -0.31116023     0.036200743   -0.19940741     9.5909662e-05
   5032000   0.050667013   -0.31109457     0.035744104   -0.19935485     0.00032469977
   5033000   0.049962119   -0.31130185     0.03613353    -0.20022998    -0.00023913936
   5034000   0.049556098   -0.31093211     0.036029772   -0.20057299     0.00078555496
   5035000   0.050503034   -0.31147892     0.036175608   -0.19955365     0.000386794  
   5036000   0.049700617   -0.3114658      0.03564982    -0.20126987     0.0005604274 
   5037000   0.049902664   -0.31105498     0.036040913   -0.2001649     -0.00018059732
   5038000   0.049990024   -0.31156686     0.035787443   -0.20079922     1.4492373e-05
   5039000   0.050855642   -0.31110542     0.035335924   -0.19949095     0.00060353833
   5040000   0.049973851   -0.31153692     0.035637947   -0.20094303    -0.00061090531
   5041000   0.049791107   -0.31145454     0.035782364   -0.20099034     0.00057503601
   5042000   0.049954704   -0.31160404     0.03492539    -0.20175143     0.00028313929
   5043000   0.049876152   -0.31195593     0.036015503   -0.20113103     0.0001892253 
   5044000   0.050087743   -0.31153594     0.036439258   -0.19996991     0.00039677203
   5045000   0.050162696   -0.31161354     0.035960843   -0.20041351    -0.00012978883
   5046000   0.050452718   -0.31129178     0.035406971   -0.20021061     0.00063773493
   5047000   0.049832598   -0.3110776      0.035735236   -0.20059829    -1.0094488e-05
   5048000   0.050476871   -0.31105752     0.035518613   -0.19982849     0.0004148189 
   5049000   0.05015792    -0.31121321     0.035019732   -0.20096145     3.5411387e-05
   5050000   0.049852627   -0.31146642     0.036387617   -0.20030469    -0.00035126351
   5051000   0.049939324   -0.31161046     0.035860181   -0.20084613     8.8347019e-05
   5052000   0.049558786   -0.31145312     0.035575505   -0.20154423     0.00078567502
   5053000   0.049779213   -0.31114112     0.035743451   -0.20073366    -0.00096374986
   5054000   0.049491842   -0.31162026     0.035549197   -0.20183809     0.0010062058 
   5055000   0.049594955   -0.31155812     0.035274066   -0.20189642    -8.3289247e-05
   5056000   0.04972129    -0.31154571     0.035915219   -0.20105336     0.00014400746
   5057000   0.050047876   -0.31180075     0.035723363   -0.20101042     0.000344161  
   5058000   0.050139033   -0.31160722     0.035317991   -0.20108553    -0.0008100798 
   5059000   0.049851644   -0.31154708     0.035720089   -0.20105435     0.00025494293
   5060000   0.049934502   -0.31139471     0.035221426   -0.20127637    -0.0001509087 
   5061000   0.049803371   -0.31152261     0.035647914   -0.20117446    -0.00080035535
   5062000   0.050697977   -0.31145644     0.035550098   -0.19986428    -4.2103389e-05
   5063000   0.049727454   -0.31130868     0.035676099   -0.20104621    -0.00066866191
   5064000   0.05002454    -0.31119685     0.034769991   -0.20139489     0.0001599769 
   5065000   0.050172311   -0.31152624     0.035466056   -0.20080658     0.00047262938
   5066000   0.049734683   -0.31128327     0.035911533   -0.20077453    -0.00024555123
   5067000   0.050119302   -0.31133116     0.036311988   -0.19984507     0.00081694751
   5068000   0.050134968   -0.31113058     0.03516257    -0.20077041     0.00090592629
   5069000   0.049615394   -0.31142192     0.036000986   -0.20100264    -3.0006523e-05
   5070000   0.050107303   -0.31155486     0.03559233    -0.20080642     4.6955756e-05
   5071000   0.049963214   -0.31173168     0.035584655   -0.20120704    -0.00024831346
   5072000   0.04959364    -0.31133688     0.035857532   -0.20109368     3.2263242e-05
   5073000   0.050044663   -0.31160645     0.035564743   -0.20097956    -0.000211668  
   5074000   0.050118493   -0.31164363     0.035615406   -0.20085533    -0.00014913901
   5075000   0.049733808   -0.31159004     0.035499171   -0.20149497    -0.00026238481
   5076000   0.049723761   -0.31163169     0.035336566   -0.2017143      0.00093471946
   5077000   0.049731328   -0.3119061      0.035162834   -0.20215108     0.00072034944
   5078000   0.049909384   -0.31102361     0.035549572   -0.2006148      0.00086213036
   5079000   0.049986801   -0.31136994     0.035643889   -0.20075069     0.00074128951
   5080000   0.049644793   -0.31079341     0.036381962   -0.19994907     0.00025184871
   5081000   0.050112343   -0.31133792     0.035989853   -0.2001844     -0.00023096804
   5082000   0.04981204    -0.31159613     0.036053834   -0.20082906     0.0001659684 
   5083000   0.049336832   -0.31180767     0.035821915   -0.20198528     0.00021407868
   5084000   0.05011704    -0.31112523     0.035515235   -0.20043929     0.00030185395
   5085000   0.049263305   -0.31145532     0.035859612   -0.20170552    -0.00090064517
   5086000   0.049895509   -0.31169811     0.035748185   -0.20111149     2.8283471e-05
   5087000   0.049627064   -0.31142483     0.035679408   -0.20130963     5.9420391e-05
   5088000   0.049776047   -0.31130795     0.035337361   -0.20131133     0.00064561015
   5089000   0.049605793   -0.31175626     0.0351797     -0.20217267     0.00049854344
   5090000   0.049536479   -0.31151828     0.035661039   -0.20155732     0.0011711948 
   5091000   0.049778306   -0.31117938     0.035428396   -0.20108834     0.00018335642
   5092000   0.050279226   -0.31119621     0.035849104   -0.19993314    -2.8035021e-05
   5093000   0.050451096   -0.31114628     0.035732901   -0.19974161    -2.5344497e-05
   5094000   0.049753028   -0.31116239     0.035904526   -0.20063314    -5.6299931e-05
   5095000   0.050159702   -0.31147532     0.035506011   -0.20073461     0.00026944374
   5096000   0.049909214   -0.31179128     0.035891433   -0.20104085     3.7118469e-05
   5097000   0.049772103   -0.31144487     0.035964869   -0.20082666    -0.00019082389
   5098000   0.049982496   -0.31145186     0.035734364   -0.20074859    -0.00018255373
   5099000   0.049676921   -0.31185379     0.035384726   -0.20195849     0.00014814851
   5100000   0.050078445   -0.3117692      0.035605633   -0.20105074    -0.00084733726
   5101000   0.050015269   -0.31190902     0.035255132   -0.20163582     0.00045205287
   5102000   0.049958399   -0.31169607     0.035794901   -0.2009684      0.00037376585
   5103000   0.050131173   -0.31173063     0.036181077   -0.20035764    -6.8357242e-05
   5104000   0.050282382   -0.31162926     0.036058643   -0.20015191     0.00051041563
   5105000   0.049859879   -0.31128941     0.035573661   -0.20093075     0.0002344765 
   5106000   0.050021436   -0.31168719     0.035905787   -0.20075409    -0.00063499379
   5107000   0.050471378   -0.31181342     0.035286721   -0.20082451    -7.4981001e-05
   5108000   0.049991558   -0.31185951     0.035558001   -0.20131901    -0.0010787147 
   5109000   0.050220199   -0.31179171     0.03559214    -0.20087413     0.0002677194 
   5110000   0.049614878   -0.31185501     0.035793172   -0.20164432    -0.00033387025
   5111000   0.049887999   -0.31182659     0.035692963   -0.20130645     0.00051620248
   5112000   0.050033186   -0.31182781     0.035269929   -0.20151294     0.00024851386
   5113000   0.050473106   -0.31184174     0.035580054   -0.20055691    -4.7309194e-05
   5114000   0.050396889   -0.31183068     0.03558583    -0.20065439     0.00063397968
   5115000   0.05048193    -0.31195825     0.035436596   -0.20080365    -0.00022887629
   5116000   0.049801136   -0.31181328     0.035932781   -0.20118361    -0.00027503763
   5117000   0.050149166   -0.31168621     0.035956865   -0.20051045    -0.00048752301
   5118000   0.050084831   -0.31184251     0.035983195   -0.20073692     9.6557965e-05
   5119000   0.049979617   -0.31161258     0.036043631   -0.20060436     0.00016173937
   5120000   0.05020329    -0.31180208     0.036184495   -0.20031751    -0.00036144487
   5121000   0.049844207   -0.31188371     0.036177968   -0.20094425     0.00043916875
   5122000   0.04993058    -0.31151372     0.036290198   -0.20033249    -0.00023887588
   5123000   0.050285052   -0.31208517     0.036488416   -0.20017404    -0.00082082852
   5124000   0.05008542    -0.31180263     0.036448487   -0.20023086    -0.00013586697
   5125000   0.0504373     -0.31203088     0.035338012   -0.2010418      0.00016256948
   5126000   0.05006563    -0.31195258     0.035996031   -0.20086295    -0.00020357292
   5127000   0.050211748   -0.31201218     0.035869732   -0.20082969    -0.00027017528
   5128000   0.050645265   -0.31196372     0.035991636   -0.20000909     0.00031254873
   5129000   0.0504415     -0.31168135     0.035868155   -0.20015583     0.00032857453
   5130000   0.050513684   -0.31189847     0.036069019   -0.20006382    -0.00018530288
   5131000   0.050113839   -0.31147952     0.035354918   -0.20095869     0.00059806842
   5132000   0.049854137   -0.31171118     0.036271725   -0.20066308     0.00036490473
   5133000   0.049742211   -0.311528       0.035501972   -0.20141752     0.00081565258
   5134000   0.050039866   -0.31217043     0.035611516   -0.20150396     0.00045337078
   5135000   0.049370773   -0.31154955     0.035947573   -0.2015506     -0.00017071012
   5136000   0.049864195   -0.31197329     0.035325441   -0.20185638     3.8260235e-05
   5137000   0.049879388   -0.3119792      0.035925577   -0.20123937     0.00036376543
   5138000   0.050050516   -0.3114958      0.035706373   -0.2007185      0.00033771469
   5139000   0.049633388   -0.31169214     0.036140864   -0.201106      -0.00016225868
   5140000   0.050046822   -0.31195945     0.036128214   -0.20076585    -0.00079397695
   5141000   0.049722428   -0.31228629     0.036109067   -0.2015984     -0.00090123558
   5142000   0.049715445   -0.31224064     0.035597959   -0.20207432    -0.00030040479
   5143000   0.049619552   -0.31194377     0.035812038   -0.2017072      0.00055668948
   5144000   0.050098402   -0.3117299      0.0354373     -0.20114985     0.00045228452
   5145000   0.0498192     -0.31175201     0.035786612   -0.20124141     0.00067984202
   5146000   0.04987135    -0.31192788     0.035731979   -0.2013937      0.0007698537 
   5147000   0.050143148   -0.31222183     0.035613202   -0.20139876    -0.00016763481
   5148000   0.05008069    -0.31208572     0.035436098   -0.20153343     0.00059625627
   5149000   0.049795538   -0.31185403     0.035388224   -0.20177732     0.00016249938
   5150000   0.050371259   -0.31194492     0.035510084   -0.20088282     0.00054970688
   5151000   0.050004858   -0.31188343     0.036107355   -0.20077363     0.00044617329
   5152000   0.049912062   -0.31224597     0.036081639   -0.20130107     0.00056147472
   5153000   0.049836089   -0.31207047     0.0351967     -0.20212446     0.00095244697
   5154000   0.049721833   -0.31256225     0.036323456   -0.20166085    -8.2855381e-05
   5155000   0.049811467   -0.3121271      0.035713197   -0.20170153    -0.00022314104
   5156000   0.04978329    -0.31222312     0.035172224   -0.20238078     2.0885394e-05
   5157000   0.04948816    -0.31184994     0.03581313    -0.20180936     0.00040218349
   5158000   0.049693917   -0.31186173     0.035344942   -0.20198072     0.0008855347 
   5159000   0.049973994   -0.3120796      0.035937149   -0.20118629    -0.00025697235
   5160000   0.049451383   -0.31193721     0.036329262   -0.20143566    -0.00030945119
   5161000   0.0496801     -0.31187767     0.035228545   -0.20213378     0.0019105381 
   5162000   0.050286643   -0.31208157     0.035505646   -0.20115082    -7.946714e-05 
   5163000   0.05028028    -0.31222139     0.036021893   -0.20078394     0.00076335961
   5164000   0.050650267   -0.31204152     0.035280329   -0.20079069     9.9631799e-05
   5165000   0.04995048    -0.31185252     0.035418497   -0.20151314     0.00068375315
   5166000   0.049825652   -0.31191596     0.035708353   -0.20147395    -0.00010069122
   5167000   0.049939957   -0.31220302     0.035453219   -0.2018447      0.00072419226
   5168000   0.050219679   -0.3119479      0.035717299   -0.20090594     0.00031882836
   5169000   0.050376303   -0.31225035     0.035732647   -0.20095812     0.00016150776
   5170000   0.049748513   -0.31243228     0.036005511   -0.20180882    -0.00043393028
   5171000   0.050283404   -0.31220167     0.035558972   -0.20122246     0.00014209012
   5172000   0.050045555   -0.31181581     0.035613663   -0.20113865    -0.00037404943
   5173000   0.050286004   -0.31222934     0.036314017   -0.20049118     0.0002459388 
   5174000   0.049825424   -0.31198624     0.036011072   -0.20124186     0.00031887614
   5175000   0.04988198    -0.31228079     0.036000916   -0.20146173     0.0003488534 
   5176000   0.049574346   -0.31229394     0.035326258   -0.20261096     0.00011078945
   5177000   0.050059065   -0.3121662      0.03549524    -0.20158721     0.00052843678
   5178000   0.049703057   -0.31227334     0.036080214   -0.20164335     0.00010557317
   5179000   0.049930992   -0.31275511     0.035937908   -0.20192555    -0.00070904583
   5180000   0.049404314   -0.31259222     0.035775366   -0.20271516     0.00051839107
   5181000   0.049814462   -0.31229991     0.03529789    -0.20228514     0.00038953866
   5182000   0.050089835   -0.31247039     0.035833232   -0.20150725    -0.0003523493 
   5183000   0.049640714   -0.31252971     0.036008298   -0.20206514     9.3155806e-05
   5184000   0.049870079   -0.31223901     0.035708024   -0.20173069    -0.00065623014
   5185000   0.049931099   -0.31204277     0.035779632   -0.20137132    -0.00079779233
   5186000   0.049966109   -0.31247387     0.036109841   -0.2014197      0.00092768298
   5187000   0.049964582   -0.31195022     0.03539927    -0.20160891     0.00033854193
   5188000   0.049598378   -0.31180106     0.035420663   -0.20198763     0.0011483218 
   5189000   0.05044269    -0.31241792     0.035519066   -0.2012397      0.00044310549
   5190000   0.049584071   -0.31228286     0.035513171   -0.20239838    -0.00043721583
   5191000   0.049482791   -0.31258101     0.035160896   -0.20320072     0.00059839324
   5192000   0.050183322   -0.31244402     0.034716083   -0.20245781     0.00055865974
   5193000   0.049855281   -0.31215043     0.036035433   -0.2013369     -0.0004851289 
   5194000   0.050212211   -0.31252901     0.036227253   -0.2009883     -0.00013175876
   5195000   0.050223726   -0.31254859     0.035157638   -0.20206023     0.00018794241
   5196000   0.050150243   -0.31247457     0.035778018   -0.20147604    -0.00016133351
   5197000   0.050355347   -0.31201868     0.035521901   -0.20096864     2.1446967e-05
   5198000   0.04992833    -0.31243985     0.035706323   -0.20184586     0.00099448883
   5199000   0.049607001   -0.31309815     0.035648037   -0.20304442    -0.00045561858
   5200000   0.049682082   -0.31250213     0.035859174   -0.20212464    -0.00029698848
   5201000   0.04969981    -0.31243169     0.036090172   -0.20179661    -0.00056907791
   5202000   0.050132196   -0.31276581     0.035227386   -0.20234498    -1.3481218e-05
   5203000   0.049693969   -0.31229309     0.03608407    -0.20167287    -0.00010476326
   5204000   0.049659147   -0.31203356     0.035723156   -0.20182649     0.00016574089
   5205000   0.050304659   -0.31238617     0.035629278   -0.20130477     0.0003589114 
   5206000   0.049506704   -0.3125198      0.036143803   -0.20212073    -0.00012935921
   5207000   0.050411834   -0.31228862     0.035876124   -0.20079962     0.00048339492
   5208000   0.04951587    -0.3125031      0.035955752   -0.20227834    -0.00032783442
   5209000   0.050014967   -0.31250478     0.035766104   -0.20172107    -0.00032091743
   5210000   0.049995558   -0.31215668     0.036217354   -0.20095083     0.00096999026
   5211000   0.050392889   -0.31229798     0.035992547   -0.20072098     0.00025527335
   5212000   0.050281774   -0.31236986     0.036057163   -0.2008949     -0.00045997168
   5213000   0.050188143   -0.31237764     0.035946119   -0.20115416    -0.00135142   
   5214000   0.049963579   -0.31228626     0.035427893   -0.20191783     0.00046300191
   5215000   0.050162028   -0.31226629     0.035695412   -0.20133269    -0.00072069959
   5216000   0.050068478   -0.31206793     0.035144041   -0.20182602     0.0010281682 
   5217000   0.050209802   -0.31250487     0.036172347   -0.20102268    -9.9163598e-05
   5218000   0.049483329   -0.31214199     0.036128909   -0.20179288     0.00064225468
   5219000   0.050466811   -0.31284875     0.036081005   -0.20107241     7.4295852e-05
   5220000   0.05007308    -0.31262848     0.035429101   -0.2020946      0.00074342294
   5221000   0.049485846   -0.31214913     0.035245099   -0.20268006     0.00042680329
   5222000   0.050385322   -0.31217831     0.03519399    -0.20141121     0.00037334657
   5223000   0.049370052   -0.3121879      0.035910528   -0.20222707    -9.8840414e-05
   5224000   0.049775842   -0.31252037     0.035672324   -0.2021891      2.430083e-05 
   5225000   0.050104614   -0.31231602     0.036156606   -0.20100734    -0.00050890091
   5226000   0.050081646   -0.3127558      0.036279331   -0.20135884    -0.00017713764
   5227000   0.050119661   -0.31244819     0.035663737   -0.20160982     0.0012427051 
   5228000   0.049847397   -0.31239083     0.035972621   -0.20165194     0.00025242239
   5229000   0.050340847   -0.31261764     0.035561847   -0.20154939    -0.0001524025 
   5230000   0.050094522   -0.31294586     0.035899556   -0.20190937     2.2977419e-05
   5231000   0.050339971   -0.31255997     0.036072864   -0.20098202    -0.00013725465
   5232000   0.050309871   -0.31260639     0.035949694   -0.20119676    -0.00039373611
   5233000   0.050111374   -0.31279571     0.036527233   -0.20110626    -0.00012972947
   5234000   0.049905334   -0.3121646      0.03635156    -0.20095987    -0.000240755  
   5235000   0.050100058   -0.31268925     0.035680762   -0.20186325    -0.00038417471
   5236000   0.050652021   -0.31302104     0.035612605   -0.2014353      0.00050676873
   5237000   0.049742915   -0.31268126     0.035459949   -0.20261175    -9.6837816e-05
   5238000   0.050040103   -0.31241961     0.035827058   -0.20153724     0.00094636315
   5239000   0.049909079   -0.31255756     0.036206544   -0.20149223     0.00032377745
   5240000   0.049795674   -0.31264715     0.035825553   -0.20213291     0.00030991098
   5241000   0.050463209   -0.31262622     0.035389223   -0.20154707     0.00077741529
   5242000   0.049612502   -0.31250372     0.035668067   -0.20242171     0.0012449434 
   5243000   0.050161358   -0.31290187     0.035522324   -0.20214236     0.00093917728
   5244000   0.049747711   -0.31282539     0.036239009   -0.20196963    -0.00041334529
   5245000   0.050397567   -0.312657       0.035817807   -0.20124771     5.3042898e-05
   5246000   0.049616591   -0.31253486     0.034989568   -0.20312521    -1.9929002e-05
   5247000   0.050012371   -0.31298337     0.036144981   -0.20182467    -0.00095518625
   5248000   0.050155016   -0.31271803     0.035255884   -0.20223447     0.0013438842 
   5249000   0.049505877   -0.31298576     0.036289835   -0.2024419     -0.00095857772
   5250000   0.049958741   -0.31268233     0.03556033    -0.20218873     3.9218189e-05
   5251000   0.050076604   -0.31330494     0.036034517   -0.20216036     1.0816768e-05
   5252000   0.050205451   -0.31258938     0.03539948    -0.20188659     0.0013016863 
   5253000   0.049626692   -0.31281226     0.034762425   -0.2036146      0.00019927512
   5254000   0.050122502   -0.31301165     0.035479602   -0.20235314     0.00059863846
   5255000   0.050046712   -0.31250378     0.034872891   -0.20256566     0.0005293066 
   5256000   0.049969665   -0.31246427     0.035900501   -0.2016141      0.00071398321
   5257000   0.049545806   -0.31299721     0.035804858   -0.20287844    -0.00063794367
   5258000   0.050116938   -0.31313074     0.035908968   -0.20205122    -0.00021169772
   5259000   0.05048854    -0.3131048      0.035977471   -0.20139941     0.00010989547
   5260000   0.05016749    -0.31289302     0.036279973   -0.20136667    -0.00084980573
   5261000   0.049893533   -0.31275761     0.035434558   -0.20248758     6.4500296e-05
   5262000   0.049527727   -0.31307952     0.03538147    -0.20341125     0.0008196166 
   5263000   0.05004037    -0.31296366     0.035468379   -0.20243957    -0.00036262866
   5264000   0.049380926   -0.31249753     0.034889644   -0.20354127     0.00026022472
   5265000   0.050270963   -0.3124554      0.035667376   -0.20138644    -5.9727782e-05
   5266000   0.049795723   -0.31258193     0.035731156   -0.202162       0.00081384007
   5267000   0.049762851   -0.31257428     0.035650852   -0.20228397    -4.606816e-05 
   5268000   0.050201612   -0.31252778     0.035896448   -0.20133377     0.00066943703
   5269000   0.049709081   -0.31279953     0.035884216   -0.20235651     0.00018963744
   5270000   0.05024494    -0.31258142     0.035654578   -0.2015643      0.00011233357
   5271000   0.049747239   -0.31255089     0.035787097   -0.20214775    -0.00014568728
   5272000   0.049853096   -0.31245336     0.035801205   -0.20187734     9.9182746e-05
   5273000   0.050138696   -0.31301806     0.036124946   -0.20168992     0.00043399111
   5274000   0.050328523   -0.31298055     0.035539436   -0.2019532      6.8828521e-05
   5275000   0.04987479    -0.31305769     0.036059982   -0.20219035     0.00029028963
   5276000   0.050061938   -0.31262853     0.035600333   -0.20194013     0.00071467515
   5277000   0.050058842   -0.31266474     0.03605861    -0.20152271     0.00060241946
   5278000   0.050284408   -0.31291296     0.035551904   -0.20193931    -0.00028781331
   5279000   0.049948809   -0.31288816     0.036677904   -0.20129188    -0.00038427928
   5280000   0.050057196   -0.31284119     0.035120202   -0.20264003    -0.00025787106
   5281000   0.049232169   -0.31298747     0.035400058   -0.20374392    -6.5891465e-05
   5282000   0.049736405   -0.31279043     0.035379145   -0.20281149     0.00025940585
   5283000   0.049950038   -0.31301621     0.035435724   -0.20266026     0.00089489568
   5284000   0.049891133   -0.31285995     0.03573691    -0.20229117    -0.00088265555
   5285000   0.050166343   -0.31289726     0.036225158   -0.20142744     3.9099657e-05
   5286000   0.04972377    -0.31272138     0.036090509   -0.20205003     6.1073097e-05
   5287000   0.050016614   -0.31291929     0.03535929    -0.20253992     0.00067061262
   5288000   0.049719793   -0.3124426      0.035427705   -0.20244002    -0.00075035617
   5289000   0.049676297   -0.31262261     0.035802744   -0.20231023     0.00028143387
   5290000   0.050197247   -0.3128458      0.035402367   -0.20215242     0.00039928901
   5291000   0.050065855   -0.31258801     0.035548196   -0.20194587    -0.00035066095
   5292000   0.049776626   -0.31285824     0.035033741   -0.20316438    -6.8759707e-05
   5293000   0.04986884    -0.3134239      0.03558196    -0.2030435      0.00046037336
   5294000   0.049379149   -0.31262366     0.035625726   -0.20293399     0.00026874172
   5295000   0.050379036   -0.31296604     0.035978254   -0.20142411    -0.00045055387
   5296000   0.0505652     -0.3128359      0.035614813   -0.20137818    -0.00063706878
   5297000   0.050418635   -0.31293228     0.035677687   -0.20163152     0.00061862548
   5298000   0.05043472    -0.31278626     0.035967267   -0.20117179     0.00038975707
   5299000   0.050117485   -0.31290094     0.035456974   -0.20227259     0.00012423679
   5300000   0.049837568   -0.31313205     0.035263309   -0.20311721     0.00036178074
   5301000   0.050236692   -0.31272791     0.035725486   -0.20165224     0.00013706676
   5302000   0.050102666   -0.31252772     0.03586142    -0.20151715     0.00029498287
   5303000   0.050437054   -0.31338101     0.036057803   -0.20167251    -1.0942421e-05
   5304000   0.049888547   -0.31289762     0.036197193   -0.20187244     5.4655634e-05
   5305000   0.05005537    -0.31295566     0.035895221   -0.20198223     0.0004936691 
   5306000   0.049621021   -0.31293824     0.035778123   -0.20273338     0.0007455228 
   5307000   0.049930819   -0.31277376     0.035798045   -0.20208432    -0.00017497863
   5308000   0.050219858   -0.31308009     0.035562179   -0.20219299    -0.00025127819
   5309000   0.050315307   -0.31374908     0.035786736   -0.20249425    -0.00011103835
   5310000   0.050166783   -0.31300729     0.035067289   -0.20269469     0.0006896395 
   5311000   0.050560759   -0.31292088     0.035924735   -0.2011599     -0.00018058474
   5312000   0.050003292   -0.31260035     0.035579324   -0.20202093     0.00058374738
   5313000   0.049309805   -0.31308423     0.036101508   -0.20302279    -0.00063811425
   5314000   0.050120993   -0.31325929     0.035426446   -0.20265621    -6.46726e-05  
   5315000   0.049791466   -0.31295568     0.035593718   -0.20267958     3.9752771e-05
   5316000   0.050157173   -0.31328723     0.035386458   -0.20266987     0.001417569  
   5317000   0.050257855   -0.31260859     0.035486827   -0.20173984     0.00092185571
   5318000   0.0503417     -0.31297385     0.03606667    -0.2013995     -0.00049988459
   5319000   0.05035636    -0.31274939     0.035997385   -0.20122234     0.00047060481
   5320000   0.050162921   -0.31270908     0.035488538   -0.20198101     0.00047093771
   5321000   0.049794558   -0.31336458     0.035844192   -0.20283337    -0.00056185204
   5322000   0.049915964   -0.31290643     0.035687373   -0.20234994     0.00051059357
   5323000   0.049666312   -0.31280994     0.035803361   -0.20251192     0.00065203808
   5324000   0.050005983   -0.31314842     0.035636912   -0.20250737     0.00060186222
   5325000   0.049977935   -0.31314361     0.035579513   -0.20260203     0.00016581615
   5326000   0.049990036   -0.31290468     0.036206003   -0.20171846    -0.00058791088
   5327000   0.050473485   -0.31310365     0.035569735   -0.20182857    -0.00059797164
   5328000   0.050221854   -0.31349359     0.035651552   -0.20251412    -0.00042486354
   5329000   0.049839475   -0.31322356     0.036618651   -0.20185052     0.00020931521
   5330000   0.050275865   -0.3130358      0.035756898   -0.20186997     0.0010473158 
   5331000   0.049930114   -0.31305632     0.035889693   -0.20227629    -0.00031918922
   5332000   0.049956155   -0.31318615     0.035663857   -0.2025929      0.0001351621 
   5333000   0.050439677   -0.31314311     0.035422145   -0.20206634     0.00059360696
   5334000   0.050207103   -0.31316312     0.03566765    -0.20218968     0.00017960223
   5335000   0.049533943   -0.31283725     0.035708785   -0.20283235     0.00035138917
   5336000   0.050066646   -0.31299128     0.035845813   -0.20205034    -0.00017859441
   5337000   0.049671457   -0.31274869     0.035121909   -0.2031244      0.00073070647
   5338000   0.049787103   -0.31330945     0.036257547   -0.20237607     0.00022369506
   5339000   0.050414595   -0.31327961     0.035456298   -0.2022063      0.00022340802
   5340000   0.049924607   -0.31285451     0.035963726   -0.20200871     0.0006228315 
   5341000   0.049897824   -0.313068       0.035901943   -0.20232415     0.00016290697
   5342000   0.049899232   -0.31332363     0.035749174   -0.20273044    -0.00026061158
   5343000   0.049729435   -0.31359734     0.035651631   -0.20335637    -0.00034250298
   5344000   0.049658677   -0.31315747     0.035833098   -0.20284116    -0.00065877042
   5345000   0.049249799   -0.31319651     0.036188929   -0.20313764     0.00010892727
   5346000   0.049754157   -0.31311026     0.036353223   -0.20213061     7.6589698e-07
   5347000   0.050185712   -0.31339625     0.03583646    -0.20228608    -0.00087311421
   5348000   0.050145328   -0.31330757     0.035314801   -0.20277963     0.00036014898
   5349000   0.050250228   -0.31303759     0.035574894   -0.20209222    -0.0002059561 
   5350000   0.049639147   -0.31287318     0.035841071   -0.20257819     0.00013052833
   5351000   0.049946373   -0.31306109     0.035133122   -0.20301324     0.00086624057
   5352000   0.049805038   -0.31353924     0.035710141   -0.20312636     0.00057107274
   5353000   0.04976948    -0.31321333     0.036615788   -0.20194814    -0.00043244356
   5354000   0.049565912   -0.31315564     0.035701853   -0.20310971     0.00022723129
   5355000   0.050394688   -0.31305569     0.035611681   -0.20185686     0.0012298597 
   5356000   0.050065108   -0.31331647     0.035477201   -0.20274645    -0.00063974578
   5357000   0.04971387    -0.31350895     0.035967574   -0.20297538     0.00037430881
   5358000   0.049868699   -0.31295258     0.035886428   -0.20226793     0.0014526303 
   5359000   0.049683319   -0.31349432     0.036070845   -0.2029033     -0.00014861065
   5360000   0.049919235   -0.31336781     0.035625966   -0.20286782     0.00095540613
   5361000   0.049951509   -0.31307087     0.035440368   -0.20270807     0.00039578005
   5362000   0.050209654   -0.31307019     0.035804874   -0.2019557     -0.00010059316
   5363000   0.049858506   -0.31371318     0.036013224   -0.20291703    -0.00037922604
   5364000   0.049472361   -0.31341514     0.035556985   -0.2036544     -0.00027163595
   5365000   0.049627132   -0.31336133     0.03540761    -0.20351783     0.00068513737
   5366000   0.050034598   -0.31317714     0.035542701   -0.20258739     0.00054582498
   5367000   0.050164022   -0.31334488     0.035065663   -0.20303804    -0.00064392581
   5368000   0.049677961   -0.31331488     0.035630663   -0.20317209     0.00018585246
   5369000   0.050050435   -0.31302377     0.035676683   -0.20227628     0.00065231207
   5370000   0.049972762   -0.31327667     0.035814447   -0.20250791     0.00076155265
   5371000   0.050090524   -0.31337938     0.036035751   -0.20221269    -0.00043355996
   5372000   0.050024535   -0.31307947     0.036182561   -0.20186495     0.00032364596
   5373000   0.050294321   -0.31302091     0.035547892   -0.20203641     0.00043412873
   5374000   0.04956685    -0.31325497     0.036175161   -0.20273434     4.7990038e-07
   5375000   0.0498678     -0.31319543     0.035576984   -0.20282157     0.00048185251
   5376000   0.050231511   -0.31339736     0.035622333   -0.20243262     8.9604787e-05
   5377000   0.04996868    -0.31332015     0.035833294   -0.20253867     0.00054771999
   5378000   0.050203198   -0.31340766     0.036155915   -0.20195181    -7.3184418e-05
   5379000   0.050422534   -0.31340884     0.035384064   -0.20239585     0.00087739193
   5380000   0.050505801   -0.31321217     0.035677159   -0.2017812      0.00058419881
   5381000   0.05012426    -0.3134796      0.035922719   -0.20237534     0.00070403037
   5382000   0.050253122   -0.31352564     0.036327324   -0.20182349    -1.5777929e-05
   5383000   0.049523284   -0.31317586     0.036477457   -0.20241827    -9.5425057e-06
   5384000   0.050018253   -0.31324659     0.035801886   -0.20242216    -0.00025967003
   5385000   0.049781111   -0.31328012     0.035700139   -0.20291313    -0.00028452457
   5386000   0.049762489   -0.31314716     0.035807241   -0.202701      -0.00052560695
   5387000   0.04989708    -0.31363418     0.03591       -0.20288339     0.00075865447
   5388000   0.049745848   -0.313183       0.035744792   -0.20282425     0.00050674753
   5389000   0.049502271   -0.31331139     0.035982979   -0.2030798     -0.00028043746
   5390000   0.050187069   -0.31341728     0.035336956   -0.20280458     1.2653314e-06
   5391000   0.050016215   -0.31340792     0.035547143   -0.2028413     -0.00022060043
   5392000   0.050243756   -0.31383447     0.035637085   -0.20283661     0.0007198291 
   5393000   0.049811597   -0.31322701     0.035597625   -0.20291681    -0.00029945106
   5394000   0.050418069   -0.31345873     0.034738975   -0.20309753    -0.00075497744
   5395000   0.049473291   -0.3134164      0.035843651   -0.2033676     -5.9273705e-05
   5396000   0.049490973   -0.31351608     0.035221715   -0.20406269     1.2158634e-06
   5397000   0.050111107   -0.31347454     0.035071141   -0.20324159    -6.7271488e-06
   5398000   0.049738391   -0.3135395      0.035023128   -0.2039136      0.00045983733
   5399000   0.050433446   -0.31367714     0.035199715   -0.20283214    -5.1254699e-05
   5400000   0.049439087   -0.31323598     0.036048559   -0.20303358     0.00020152929
   5401000   0.050200037   -0.31320804     0.035307334   -0.20260551    -0.00027019195
   5402000   0.050625637   -0.31319635     0.035778898   -0.2014839      0.00067775472
   5403000   0.049790299   -0.31349945     0.036101519   -0.2027173     -0.00029971682
   5404000   0.049583904   -0.31384628     0.035647547   -0.20382768     0.00054444142
   5405000   0.050057975   -0.31343964     0.036287432   -0.20207009    -0.0012438777 
   5406000   0.050227162   -0.31351135     0.036336022   -0.20183945     0.00025792101
   5407000   0.050363979   -0.31290094     0.035896092   -0.20146375     0.0011137632 
   5408000   0.050328825   -0.31313445     0.035779379   -0.2018667      0.00060987657
   5409000   0.050250572   -0.31348888     0.03605809    -0.2020598      0.0002075177 
   5410000   0.050068297   -0.31340124     0.03618654    -0.2021171      0.00045545194
   5411000   0.050118657   -0.31372666     0.035864163   -0.20268937     7.3337974e-05
   5412000   0.049931119   -0.31349381     0.035671779   -0.20293018     0.00095012819
   5413000   0.050559912   -0.31302537     0.035221429   -0.20196896     0.00068718594
   5414000   0.049810855   -0.31282372     0.03602849    -0.20208376     0.00034198431
   5415000   0.050705278   -0.3133478      0.035726321   -0.20156847     0.00066199429
   5416000   0.050017566   -0.31365444     0.036366221   -0.20226671     0.00023309136
   5417000   0.050195347   -0.31356215     0.035723699   -0.20255029     0.00065806967
   5418000   0.04975566    -0.31355543     0.035844388   -0.20308236    -0.00043474476
   5419000   0.050336233   -0.31344834     0.035763521   -0.20218534     0.00032088201
   5420000   0.050113884   -0.31359767     0.036404666   -0.20202702    -0.00047290438
   5421000   0.050411729   -0.31367646     0.035427253   -0.20263649     0.00015058413
   5422000   0.04981543    -0.31329648     0.035339351   -0.20323881    -0.00023532179
   5423000   0.049623118   -0.3137987      0.035518197   -0.20385063    -0.00027219753
   5424000   0.049845823   -0.31337744     0.035235377   -0.20337815     0.0012406617 
   5425000   0.050042012   -0.3135786      0.036074163   -0.20244626    -0.00014123856
   5426000   0.049911111   -0.31364908     0.036243562   -0.20254369    -0.00049665304
   5427000   0.049525414   -0.31326739     0.03606712    -0.20291694     0.00017380879
   5428000   0.050400361   -0.3132633      0.035597815   -0.20206983     0.00027256376
   5429000   0.050292978   -0.31332568     0.036261641   -0.20162944     0.00014413139
   5430000   0.050360216   -0.31312314     0.035703719   -0.20188397     0.00031960791
   5431000   0.050362586   -0.31342734     0.035611526   -0.20227681    -0.00057576268
   5432000   0.050355272   -0.31346098     0.035572567   -0.20236038     0.00055264205
   5433000   0.050399744   -0.31340479     0.03627764    -0.20153242     4.0966729e-05
   5434000   0.049894429   -0.31375732     0.035826206   -0.2030943     -5.379423e-05 
   5435000   0.050624511   -0.31374203     0.035817099   -0.20199306    -0.00011914614
   5436000   0.04993287    -0.31363862     0.035514025   -0.20323012     0.00029787376
   5437000   0.049635529   -0.31388279     0.035428335   -0.20400596    -0.00018635567
   5438000   0.049983886   -0.31375156     0.035396615   -0.20338396     0.00034498288
   5439000   0.050415103   -0.31326116     0.036233431   -0.20140995     0.00049816603
   5440000   0.050226712   -0.31368224     0.036150901   -0.20219613    -0.0005085075 
   5441000   0.049729669   -0.31341385     0.03608076    -0.2027434     -0.00016523205
   5442000   0.049749347   -0.31349692     0.035222022   -0.20365569     0.00093997645
   5443000   0.050003318   -0.31284455     0.035599503   -0.20224491     0.00058939787
   5444000   0.049534041   -0.31312852     0.035665331   -0.20316692     0.00035412579
   5445000   0.049434754   -0.31364506     0.035262646   -0.20423506     0.00024471544
   5446000   0.049701268   -0.31321997     0.035336388   -0.20333649     0.00028135477
   5447000   0.050281656   -0.31336983     0.035143751   -0.20280846     0.00035007477
   5448000   0.050127424   -0.31383224     0.035875303   -0.20277065    -0.00049657775
   5449000   0.050636995   -0.31309351     0.035302058   -0.20184086     0.00025949171
   5450000   0.049864074   -0.31333852     0.03553745    -0.20300979     0.00026347641
   5451000   0.050073787   -0.31347097     0.035523493   -0.20284164     0.00019984822
   5452000   0.050559273   -0.3132022      0.035230218   -0.20213796     0.00037392985
   5453000   0.050193058   -0.31373472     0.035886719   -0.20256327     0.00031078694
   5454000   0.049931658   -0.31357626     0.035626784   -0.20305682     0.0006419859 
   5455000   0.04996518    -0.31370193     0.035815602   -0.20294339     0.00078470297
   5456000   0.049456606   -0.31353913     0.035690134   -0.20366887    -0.00042584715
   5457000   0.050475219   -0.31362801     0.035490101   -0.20242996     0.00033052096
   5458000   0.050310089   -0.31349808     0.036050241   -0.20198757     0.0003015412 
   5459000   0.049935678   -0.3133879      0.036107354   -0.20238186     0.00049272563
   5460000   0.050765364   -0.31389804     0.035236037   -0.20251887    -0.00011501965
   5461000   0.049966522   -0.31403517     0.036555107   -0.20253512    -0.00012424124
   5462000   0.049844068   -0.31344359     0.035837381   -0.20284494     1.7642362e-05
   5463000   0.049753806   -0.31349554     0.035946915   -0.20292273    -0.00039362618
   5464000   0.050019068   -0.31391439     0.035830196   -0.20306043    -0.00047134534
   5465000   0.049674966   -0.31367872     0.035412093   -0.20375898     9.9991762e-05
   5466000   0.049818663   -0.31345296     0.036550101   -0.20217969     0.00058487019
   5467000   0.050456928   -0.31347229     0.035392794   -0.20239899     0.0010798223 
   5468000   0.049864131   -0.3134607      0.036062598   -0.20260673    -0.00014037386
   5469000   0.050106131   -0.3139292      0.035688246   -0.2030866     -0.00041890337
   5470000   0.050340891   -0.31365248     0.035807704   -0.20233831    -6.2826064e-05
   5471000   0.049285636   -0.31408987     0.036485288   -0.2036809      0.00063391128
   5472000   0.04988201    -0.31369145     0.035435256   -0.203438       0.00024353169
   5473000   0.049675249   -0.31368317     0.035427146   -0.20374796     0.00016689652
   5474000   0.050062379   -0.31331354     0.035894572   -0.20233024     0.00020954651
   5475000   0.050005094   -0.31370088     0.035120142   -0.20357793     0.0011153237 
   5476000   0.050133316   -0.31391026     0.036293997   -0.20242114    -0.0010697288 
   5477000   0.049692539   -0.31369131     0.035274325   -0.20388299     0.0013526207 
   5478000   0.050345858   -0.31412804     0.036022393   -0.20259173    -0.00035388662
   5479000   0.050167489   -0.3137022      0.035548778   -0.20290704    -0.00037280118
   5480000   0.050206927   -0.31361867     0.035350224   -0.20296291    -0.00064619515
   5481000   0.049952869   -0.31329598     0.035850704   -0.20252081     0.0011116112 
   5482000   0.049393774   -0.31369509     0.035302638   -0.20430657     0.00038767367
   5483000   0.049635644   -0.31371427     0.036104513   -0.2031611     -0.00053665746
   5484000   0.050211345   -0.3138174      0.034951899   -0.20355335     0.0010453361 
   5485000   0.049904414   -0.31357345     0.035652488   -0.20306917     0.00036984916
   5486000   0.05046678    -0.31416886     0.035741639   -0.20273194    -0.00052327881
   5487000   0.050001758   -0.31354605     0.035359629   -0.20318863     0.00098495122
   5488000   0.050116666   -0.31361721     0.035654166   -0.20279289     0.0003659185 
   5489000   0.050068599   -0.3133853      0.03624282    -0.20204443     0.00050971095
   5490000   0.05092453    -0.31337277     0.035925837   -0.20106507     0.00055548547
   5491000   0.050032991   -0.31324148     0.035519255   -0.20267758     0.00074245314
   5492000   0.049105241   -0.31340083     0.035142167   -0.20460556     0.00067671304
   5493000   0.049539364   -0.31344626     0.035566421   -0.20357559    -0.00030162845
   5494000   0.05034354    -0.313449       0.035875659   -0.2020629     -3.6183664e-05
   5495000   0.050211586   -0.31411183     0.03587177    -0.20292754    -0.00070458355
   5496000   0.050939233   -0.31386315     0.035623378   -0.20183585     0.00089491039
   5497000   0.049636868   -0.31363949     0.035489413   -0.20369958     0.00088058597
   5498000   0.049844112   -0.31378784     0.035507385   -0.20351911    -5.1237302e-05
   5499000   0.049848799   -0.31344974     0.035440464   -0.20324091     0.00044116371
   5500000   0.049799094   -0.31366238     0.035589177   -0.20337938     0.00037922949
   5501000   0.04997507    -0.313889       0.03612819    -0.20280304     0.00012537246
   5502000   0.050104088   -0.31391285     0.035653895   -0.20310767     0.00035850872
   5503000   0.049731951   -0.31390834     0.035427435   -0.20388779     0.00044725702
   5504000   0.050138789   -0.31407848     0.035678338   -0.20319681     2.931311e-05 
   5505000   0.050523327   -0.31420336     0.035321961   -0.2031013      0.00078758244
   5506000   0.049965793   -0.31409487     0.036084242   -0.20306678     9.4628906e-05
   5507000   0.050140839   -0.31374933     0.036003384   -0.20253954     0.00081361104
   5508000   0.050812503   -0.31396675     0.036157633   -0.20159528     0.00033983   
   5509000   0.050289148   -0.31379909     0.036209761   -0.20216047     0.00088314724
   5510000   0.049836587   -0.3139618      0.035782597   -0.20342914     0.00088077004
   5511000   0.049587236   -0.3138054      0.035896912   -0.20353244    -0.0013626748 
   5512000   0.049729443   -0.31432274     0.035230787   -0.2045026     -0.00015906674
   5513000   0.049879012   -0.31372184     0.035866304   -0.20304184    -0.00073802431
   5514000   0.050148487   -0.31382353     0.036248963   -0.20235669    -0.00015849635
   5515000   0.049984444   -0.31423105     0.036157748   -0.20310147     2.6833515e-05
   5516000   0.050098701   -0.31394699     0.035309775   -0.20349401    -8.7413885e-05
   5517000   0.049931846   -0.31348896     0.035793018   -0.202803      -0.00024835147
   5518000   0.049943441   -0.31391644     0.035947566   -0.20305855     0.00043352349
   5519000   0.049822861   -0.31360332     0.035676611   -0.20319724     0.00042449015
   5520000   0.04975094    -0.31380923     0.035798444   -0.20338919    -1.0932812e-05
   5521000   0.049927113   -0.31413031     0.035919795   -0.20332468     0.00066108297
   5522000   0.050072793   -0.31426085     0.036433071   -0.20272344     0.00041434905
   5523000   0.049438233   -0.31428807     0.035544872   -0.20459063     9.7547016e-06
   5524000   0.050053542   -0.31401648     0.035134383   -0.20380663     0.00063007137
   5525000   0.049652545   -0.31385521     0.035020756   -0.20436044     0.00021447438
   5526000   0.050167818   -0.31401612     0.03567364    -0.2030956     -0.00068408407
   5527000   0.050076776   -0.31376747     0.036147182   -0.20250997     3.7264813e-05
   5528000   0.050508747   -0.3140349      0.035298624   -0.20297805     0.00059382057
   5529000   0.049577984   -0.31389404     0.035937563   -0.20359429     0.00014521819
   5530000   0.050502727   -0.31397235     0.035411374   -0.20281177     0.00087846267
   5531000   0.050610782   -0.31372004     0.036217315   -0.20159145     7.7710994e-05
   5532000   0.05028573    -0.3140631      0.036114978   -0.20252439    -0.00021469949
   5533000   0.050188893   -0.3139679      0.035484937   -0.20320448    -0.00026982543
   5534000   0.049776972   -0.31401734     0.03565877    -0.20369793    -0.00078789627
   5535000   0.050157894   -0.31421353     0.035663702   -0.20331784     0.00097132595
   5536000   0.04959444    -0.31403854     0.035781318   -0.20387036    -0.00072804556
   5537000   0.049663074   -0.31390075     0.035755749   -0.20365519     0.00031099038
   5538000   0.049820991   -0.31370101     0.035775398   -0.20319894    -7.9919107e-05
   5539000   0.050164931   -0.31403225     0.03579081    -0.20299889    -0.00035061045
   5540000   0.050032243   -0.31426144     0.035819331   -0.20339859     0.00067278855
   5541000   0.050347005   -0.31385177     0.036013851   -0.20232229     0.0011600374 
   5542000   0.049914212   -0.3142293      0.035386418   -0.2039764     -0.00033218707
   5543000   0.050361327   -0.31418438     0.035850639   -0.20279663     3.2395582e-05
   5544000   0.050052674   -0.31424945     0.035249081   -0.2039262      0.00065548667
   5545000   0.049597169   -0.31427819     0.035654767   -0.20423247    -0.00013922158
   5546000   0.050148388   -0.31436656     0.035457834   -0.203691      -9.4462045e-05
   5547000   0.049972046   -0.31434768     0.035807231   -0.20358722     0.0012638826 
   5548000   0.049743869   -0.31410552     0.03589378    -0.20360075     0.00039501191
   5549000   0.049988039   -0.31397159     0.035829049   -0.20316532     0.00082836107
   5550000   0.050338383   -0.31451671     0.035432863   -0.20358114     2.0739203e-05
   5551000   0.050156345   -0.31405646     0.036095686   -0.20273111     0.00025118807
   5552000   0.049840184   -0.31425433     0.035398421   -0.20410046     6.3414314e-05
   5553000   0.050376744   -0.31442739     0.035486452   -0.2033807      3.9564825e-05
   5554000   0.050241276   -0.31414383     0.035254106   -0.20353267    -8.2800308e-05
   5555000   0.050043215   -0.31406153     0.036149566   -0.20285199    -0.0010875622 
   5556000   0.050415382   -0.31400668     0.035801897   -0.20258658     0.0008401922 
   5557000   0.050152617   -0.31394982     0.035761461   -0.20296429    -0.00086225731
   5558000   0.049982923   -0.31445248     0.036257777   -0.20322515     0.0010722125 
   5559000   0.050319012   -0.3139468      0.035633381   -0.20283977     0.00070728057
   5560000   0.049242296   -0.31423286     0.03620952    -0.20416466    -0.00056578261
   5561000   0.049681019   -0.31430055     0.035571832   -0.20421199    -0.00058832151
   5562000   0.04980699    -0.31410639     0.035058547   -0.20434218     0.00050588017
   5563000   0.049247725   -0.31430251     0.035600075   -0.20483561    -0.00010556175
   5564000   0.049468334   -0.31418999     0.035535892   -0.20445638     0.0002852406 
   5565000   0.050098347   -0.31430799     0.035352221   -0.20381309     0.00013907607
   5566000   0.049520081   -0.31405009     0.035326373   -0.20444839     0.00078907985
   5567000   0.050150433   -0.31411012     0.035474278   -0.20341504     0.0005986179 
   5568000   0.04943232    -0.31417975     0.036249666   -0.20378638     0.00099562584
   5569000   0.050071449   -0.31450953     0.035740703   -0.2036665     -8.4784694e-05
   5570000   0.049957182   -0.31405634     0.036687827   -0.20243757     0.00043665134
   5571000   0.050323709   -0.31458652     0.036432154   -0.20267367    -0.00039315371
   5572000   0.049939525   -0.3144262      0.03621181    -0.20330993     0.00023317784
   5573000   0.049912559   -0.31473688     0.035959751   -0.20391312     1.2712924e-05
   5574000   0.050234412   -0.31414187     0.03514656    -0.20364855    -5.2835368e-05
   5575000   0.049827631   -0.3140278      0.035434324   -0.20385685     0.00024680342
   5576000   0.049841583   -0.31446138     0.035622633   -0.2040812      0.00065589375
   5577000   0.049684297   -0.31441358     0.036196005   -0.20369594     3.2923332e-05
   5578000   0.049921662   -0.31458333     0.036181016   -0.20352465     0.0011937786 
   5579000   0.050006478   -0.31429765     0.035797007   -0.20349576     9.2094005e-05
   5580000   0.050224508   -0.31425606     0.035780469   -0.20314369     0.00013761361
   5581000   0.050353088   -0.31416983     0.035740874   -0.2029042      0.00056750778
   5582000   0.05012713    -0.31463623     0.036064448   -0.20338594     0.00044245307
   5583000   0.049939918   -0.31449088     0.036716215   -0.20286962    -0.00010084692
   5584000   0.050476512   -0.31457751     0.035450427   -0.2034172     -0.00073678621
   5585000   0.05027881    -0.31485248     0.035591415   -0.20384771     0.00078929471
   5586000   0.049755488   -0.31431831     0.035877052   -0.20381284    -0.000383862  
   5587000   0.049663335   -0.31483873     0.036035603   -0.20431293    -0.00018749353
   5588000   0.049756527   -0.31471284     0.036023795   -0.20405907    -4.3245509e-05
   5589000   0.050201856   -0.31473099     0.035145381   -0.20428768     0.0001677748 
   5590000   0.049761012   -0.31495191     0.034809646   -0.20550557     0.0012061674 
   5591000   0.049126884   -0.31437979     0.035647968   -0.20504625    -0.00045842515
   5592000   0.049958912   -0.31422961     0.035079564   -0.20421651     0.00043868344
   5593000   0.049745042   -0.31443098     0.035526845   -0.20429138     0.00073924378
   5594000   0.050496046   -0.31452597     0.035836355   -0.20295043    -1.1246769e-05
   5595000   0.050434179   -0.31474313     0.035919652   -0.20317709     0.0011169732 
   5596000   0.049919454   -0.31446675     0.035753762   -0.20383863     4.8426838e-05
   5597000   0.05029025    -0.31457759     0.035913257   -0.20323383    -0.00011809927
   5598000   0.049775904   -0.31467976     0.035868906   -0.20415182     0.0005334003 
   5599000   0.050163033   -0.31463095     0.03645142    -0.20293983     2.3420299e-05
   5600000   0.050161266   -0.31479689     0.036339134   -0.20322071    -0.00011229303
   5601000   0.04992146    -0.31494199     0.036074551   -0.20399008     0.00085554771
   5602000   0.050024782   -0.31482204     0.035936552   -0.20385316     0.001182281  
   5603000   0.050023989   -0.31505509     0.035267055   -0.20475689     0.00057426222
   5604000   0.050094839   -0.31436816     0.035989228   -0.20324152     0.00040793046
   5605000   0.049860207   -0.3145044      0.035445796   -0.20427311    -0.00054268075
   5606000   0.049409384   -0.31436459     0.035848432   -0.20440687     0.00066987457
   5607000   0.050271375   -0.31501364     0.035462947   -0.2041485      3.2838e-05   
   5608000   0.049992259   -0.31511286     0.034972084   -0.20515722     0.0011505331 
   5609000   0.049708328   -0.31498733     0.035985585   -0.20444407    -5.9236687e-06
   5610000   0.049779604   -0.31459178     0.036337603   -0.20358959     5.8297602e-05
   5611000   0.050024033   -0.31499956     0.036512386   -0.20345597     0.00080901061
   5612000   0.050666614   -0.31449214     0.036104698   -0.20239243    -8.9530676e-05
   5613000   0.050081676   -0.31444614     0.036336536   -0.20299194    -0.00040918352
   5614000   0.050764585   -0.31477098     0.036069401   -0.20255961    -0.00061476924
   5615000   0.05046681    -0.3146666      0.035748337   -0.20322293    -0.00056490426
   5616000   0.050104934   -0.31480766     0.035838286   -0.20381682     7.7513901e-05
   5617000   0.049497795   -0.3148972      0.035669479   -0.20498582     8.498106e-05 
   5618000   0.049808985   -0.31500396     0.035631426   -0.20466388     0.00052464624
   5619000   0.049835147   -0.3147834      0.036296552   -0.20373895     0.00015708197
   5620000   0.0503284     -0.31517005     0.035827562   -0.20385476    -0.00021218111
   5621000   0.050101506   -0.31498399     0.036320242   -0.20351634    -0.00018538719
   5622000   0.049905414   -0.31470253     0.035728646   -0.20412059    -1.6304418e-05
   5623000   0.049822234   -0.31449067     0.035714617   -0.20404753     0.00060884993
   5624000   0.04988892    -0.31501627     0.035921004   -0.20426671    -5.4514735e-05
   5625000   0.050076738   -0.31526361     0.035916228   -0.20423713    -0.00031842425
   5626000   0.050578819   -0.31527892     0.036285868   -0.20312972    -0.00041453573
   5627000   0.050244432   -0.31491409     0.035967963   -0.20358434     0.00029864522
   5628000   0.049723293   -0.31470174     0.036145845   -0.20397577     0.0005141513 
   5629000   0.049705669   -0.31481588     0.035883095   -0.20437909    -0.00032837749
   5630000   0.050074096   -0.31467271     0.036069897   -0.20349651     0.0001629373 
   5631000   0.050178087   -0.31472235     0.035821674   -0.2036384      0.00026113543
   5632000   0.049629669   -0.31477959     0.035175513   -0.20516438     0.00029160865
   5633000   0.04963123    -0.31514315     0.035672495   -0.20502861    -0.00036864521
   5634000   0.049487092   -0.3148243      0.035551179   -0.20504727    -0.00051123412
   5635000   0.049725948   -0.31492409     0.036312701   -0.20402728     0.00035155766
   5636000   0.050286421   -0.31453933     0.035862703   -0.20325186    -0.00030932192
   5637000   0.049682955   -0.3146919      0.03580419    -0.20436808     0.001052252  
   5638000   0.050029626   -0.3147354      0.035669594   -0.20402621     0.00079805113
   5639000   0.049796977   -0.31470099     0.036078185   -0.20393216    -0.00040780135
   5640000   0.050456431   -0.31494841     0.036105812   -0.20316284     0.00061665253
   5641000   0.050262241   -0.31458382     0.035936282   -0.20325904    -8.4769693e-05
   5642000   0.050181602   -0.31496994     0.0355379     -0.2041645     -0.00054817082
   5643000   0.050112415   -0.314808       0.035775554   -0.20386868    -0.00050768219
   5644000   0.050045284   -0.31454315     0.036154064   -0.20332601    -0.0005115342 
   5645000   0.050413255   -0.31500717     0.036137429   -0.20325473     0.00015216684
   5646000   0.050192656   -0.31505538     0.035578056   -0.2041932      7.4784212e-05
   5647000   0.04979579    -0.31478841     0.035509976   -0.20458957     0.00089848951
   5648000   0.050133918   -0.31500428     0.035226311   -0.20458195     3.402353e-05 
   5649000   0.050254961   -0.31462591     0.03580159    -0.20344674     0.00064389138
   5650000   0.050567509   -0.31464442     0.035291312   -0.20350674     0.00025824231
   5651000   0.049286498   -0.31468929     0.035848725   -0.20491559    -0.00041410563
   5652000   0.049856519   -0.31508606     0.035790365   -0.20451574     0.00016944836
   5653000   0.05029121    -0.31499317     0.036384051   -0.20317718    -0.00036019751
   5654000   0.050138978   -0.31513256     0.035777912   -0.20415103    -0.0013817542 
   5655000   0.050064878   -0.31559075     0.035640935   -0.20485734     0.00021228775
   5656000   0.049168497   -0.31484398     0.034943499   -0.20615249    -2.5194279e-05
   5657000   0.050182127   -0.31526354     0.035884946   -0.20411026    -0.00045257488
   5658000   0.050200554   -0.31474428     0.035831569   -0.20361674     8.8854552e-05
   5659000   0.05037444    -0.31499658     0.036519748   -0.20292005     0.00021663895
   5660000   0.049779664   -0.31496529     0.036043192   -0.20425742     0.00031169709
   5661000   0.05002289    -0.31484839     0.035425422   -0.20439347     0.00015591998
   5662000   0.050320036   -0.31489394     0.035564523   -0.20385424     0.00052454274
   5663000   0.050396649   -0.31510053     0.035840367   -0.20367007    -2.337515e-05 
   5664000   0.050353266   -0.31550545     0.035835326   -0.2041451     -3.6056072e-05
   5665000   0.050236843   -0.3154013      0.035936204   -0.20411469     6.5767084e-05
   5666000   0.049800435   -0.31479026     0.035733699   -0.20436073     0.00025170822
   5667000   0.049843235   -0.31508908     0.035419367   -0.20490969     0.00015210788
   5668000   0.04951882    -0.31514477     0.035682293   -0.20518904    -0.00079535747
   5669000   0.049772137   -0.31509755     0.036431327   -0.20401283    -0.00021615612
   5670000   0.049807438   -0.3153828      0.036434972   -0.20424149    -2.9179811e-05
   5671000   0.049968748   -0.31535081     0.034985707   -0.20541681     0.00063120569
   5672000   0.050083858   -0.31507532     0.035044214   -0.20491017    -0.00099232866
   5673000   0.049302578   -0.31527477     0.035707552   -0.20561812    -0.00042957056
   5674000   0.049558832   -0.31525013     0.036008348   -0.20490833     0.00038574349
   5675000   0.049789148   -0.315201       0.035065409   -0.20545669     0.0013051098 
   5676000   0.049866882   -0.31510367     0.036196324   -0.20411185    -0.0007151496 
   5677000   0.049933604   -0.31508237     0.035746236   -0.20444056     0.00022889412
   5678000   0.050252515   -0.31482359     0.03627311    -0.20317657    -3.1417295e-05
   5679000   0.050146224   -0.31503205     0.035600615   -0.20421695     0.00017607681
   5680000   0.050257361   -0.31500318     0.035671966   -0.20395003     0.00080545537
   5681000   0.05010745    -0.31534198     0.035879942   -0.20430571    -0.00068216673
   5682000   0.049343071   -0.31488548     0.035701987   -0.20517366     0.00037931856
   5683000   0.049643084   -0.31470723     0.03563915    -0.20460826     0.00039851859
   5684000   0.049516473   -0.31501797     0.035453007   -0.20529505     0.0001745173 
   5685000   0.049670056   -0.31536905     0.036298371   -0.2045704     -5.9197757e-05
   5686000   0.050401598   -0.31527273     0.035725665   -0.20394955     0.00014945379
   5687000   0.050022299   -0.31529661     0.035289665   -0.20497834    -0.00015200152
   5688000   0.050193515   -0.31571277     0.035861175   -0.20456618    -0.00063328497
   5689000   0.050322856   -0.31498928     0.036075476   -0.20343439    -4.3509584e-05
   5690000   0.049572137   -0.31534332     0.036498341   -0.20449157    -0.00053024695
   5691000   0.050138092   -0.3153032      0.035015599   -0.20508532    -0.00062986806
   5692000   0.050436078   -0.31541551     0.035904889   -0.20386138     0.00018703664
   5693000   0.050620212   -0.31472226     0.0356722     -0.20312464     0.00047149593
   5694000   0.050161509   -0.3155653      0.035646692   -0.2046812      0.00054844525
   5695000   0.049734661   -0.31579623     0.035539006   -0.20566004     2.1718447e-05
   5696000   0.049566486   -0.31517382     0.036160924   -0.20466796     0.00047838023
   5697000   0.05006204    -0.31489678     0.035987641   -0.20382093     0.00049765857
   5698000   0.049740161   -0.3153825      0.036306067   -0.204471      -0.00036960364
   5699000   0.049351397   -0.31538362     0.036210192   -0.2051511     -0.00027292087
   5700000   0.050016224   -0.31571401     0.035663641   -0.20503087     0.00028264337
   5701000   0.049578724   -0.31544485     0.035426659   -0.2056549      0.0004608939 
   5702000   0.049736931   -0.31490353     0.034917574   -0.20538537    -0.00043705086
   5703000   0.049790025   -0.31512405     0.035389782   -0.20505405     0.00033384346
   5704000   0.050732039   -0.31541959     0.035893906   -0.20343254     0.00070539749
   5705000   0.049762095   -0.31515483     0.036579773   -0.20393673    -0.000347718  
   5706000   0.050584353   -0.31511858     0.035440652   -0.2038063      0.00082693101
   5707000   0.050137244   -0.31531242     0.035787015   -0.2043244     -0.00021410983
   5708000   0.049972132   -0.31553162     0.03548629    -0.20509197    -0.0004164687 
   5709000   0.050389454   -0.31530809     0.036082165   -0.20364663     0.00020997734
   5710000   0.049967313   -0.31517043     0.035831982   -0.20439231    -0.0012496341 
   5711000   0.05010139    -0.31537626     0.036047736   -0.20418129    -0.00090861525
   5712000   0.05068679    -0.31552868     0.036038104   -0.20346529     1.3728059e-05
   5713000   0.050431752   -0.31544322     0.035681026   -0.20411944    -0.00068295301
   5714000   0.05005028    -0.31522036     0.035790159   -0.20435963    -0.00034633557
   5715000   0.049680476   -0.31513766     0.035556912   -0.20506485    -0.00032381331
   5716000   0.049177573   -0.31508691     0.035543815   -0.20578149     6.840522e-06 
   5717000   0.049940191   -0.31499992     0.035857066   -0.2042374      0.00050791677
   5718000   0.049730864   -0.31532939     0.035780062   -0.20495784     0.00060984837
   5719000   0.049832535   -0.31536883     0.035738291   -0.20488656    -6.2019902e-05
   5720000   0.049651056   -0.31571607     0.03596144    -0.20528285    -0.00075296367
   5721000   0.049685354   -0.31517969     0.035519764   -0.20513671     0.00049902438
   5722000   0.049797589   -0.31543885     0.035201302   -0.20554598     0.0003284842 
   5723000   0.049190687   -0.31516867     0.035368872   -0.20601853     0.00060110621
   5724000   0.049879493   -0.31527852     0.035968311   -0.2044958      0.00063443721
   5725000   0.04983307    -0.31540337     0.035582105   -0.20507648     0.00029298425
   5726000   0.0499535     -0.31523334     0.035229216   -0.20507871    -0.0001438399 
   5727000   0.049826985   -0.31513907     0.036030282   -0.20437313     0.00012512337
   5728000   0.049988416   -0.31519303     0.036156026   -0.20405921     0.00072643383
   5729000   0.049799563   -0.31539545     0.0354236     -0.20527733    -0.00051602822
   5730000   0.049307683   -0.31578448     0.035554188   -0.20627354    -0.00056804405
   5731000   0.050255313   -0.31542195     0.035728474   -0.20431537     7.9592652e-05
   5732000   0.050047571   -0.3151776      0.035563758   -0.20454733     0.00021400904
   5733000   0.050336788   -0.31542405     0.035801354   -0.20412238     0.00051198346
   5734000   0.049898528   -0.31562035     0.036501455   -0.20427593     0.00011336798
   5735000   0.050511677   -0.3154738      0.035781262   -0.20392991    -0.00069826632
   5736000   0.04988052    -0.31497339     0.035473023   -0.20468441    -0.00041971538
   5737000   0.049842049   -0.31560528     0.035990926   -0.20485611    -0.00039650908
   5738000   0.049824392   -0.3158716      0.035500994   -0.20563884    -9.5759892e-05
   5739000   0.050063032   -0.31551035     0.035561411   -0.20485923     0.0006642958 
   5740000   0.050339289   -0.31545287     0.036103849   -0.20384496    -0.00065801695
   5741000   0.049991358   -0.31520368     0.035860987   -0.2043605     -0.00084060705
   5742000   0.050144025   -0.31510259     0.035924858   -0.20396654    -5.9469401e-05
   5743000   0.049596839   -0.31546571     0.035505783   -0.20556946     0.00017133622
   5744000   0.049757482   -0.31570779     0.035807009   -0.20526937     0.00054800057
   5745000   0.049749487   -0.31522606     0.035793258   -0.20481339     0.00059145191
   5746000   0.049868575   -0.31529302     0.035932366   -0.20456262    -1.8432203e-05
   5747000   0.050361342   -0.31549807     0.035800243   -0.20416069     0.0013405627 
   5748000   0.050042129   -0.31547439     0.036044922   -0.20437112    -8.4196613e-05
   5749000   0.04970054    -0.31558324     0.034772116   -0.20626512     0.00057442674
   5750000   0.05004894    -0.31529363     0.035646887   -0.20457817     0.00017149993
   5751000   0.049448091   -0.31528238     0.035377758   -0.20573727    -0.00044480035
   5752000   0.049705753   -0.31536267     0.035616626   -0.20519223     0.00053939016
   5753000   0.050029922   -0.31587817     0.03576289    -0.20507524    -0.00057287218
   5754000   0.050264902   -0.31539731     0.035669822   -0.204335       0.00026732472
   5755000   0.049768652   -0.31572808     0.035481938   -0.20559798     0.00038565595
   5756000   0.049168066   -0.31554212     0.034890546   -0.20690423     0.00096681657
   5757000   0.049860427   -0.31565136     0.035887512   -0.20497804    -0.00029249707
   5758000   0.049876101   -0.31582774     0.035899509   -0.2051189      0.00011324667
   5759000   0.050238822   -0.31567583     0.035219864   -0.2051026      6.3402293e-05
   5760000   0.050600212   -0.31538641     0.035232804   -0.20425819     0.00021340152
   5761000   0.049776269   -0.31540965     0.036243454   -0.20450661     0.00038689196
   5762000   0.049734229   -0.31540125     0.035394292   -0.20541043     0.00089325838
   5763000   0.049797393   -0.31564895     0.03518876    -0.20576892     0.00035180658
   5764000   0.049534176   -0.31564932     0.035599793   -0.20575306     7.7291108e-05
   5765000   0.049757525   -0.31541371     0.035132058   -0.20565018    -6.9046604e-05
   5766000   0.049515954   -0.31540854     0.035309499   -0.20582991     0.00028086172
   5767000   0.050098996   -0.31517545     0.035460432   -0.20457137     0.00087077341
   5768000   0.04966312    -0.31522853     0.035514952   -0.2052237     -7.3341969e-05
   5769000   0.04936399    -0.31552586     0.035937417   -0.20554724     0.00027612716
   5770000   0.049978571   -0.31490715     0.035429777   -0.20451436     0.00072634967
   5771000   0.05022296    -0.31557064     0.035664373   -0.20457669     0.00016961791
   5772000   0.050322712   -0.3153896      0.035755116   -0.20415528     0.00045483189
   5773000   0.05038603    -0.31548964     0.036002494   -0.20391298    -0.00023665963
   5774000   0.050013643   -0.31536888     0.035361797   -0.20499146     0.00031688463
   5775000   0.049260252   -0.31533715     0.035742695   -0.20570884    -3.4348329e-05
   5776000   0.049715397   -0.3155767      0.036170027   -0.20483839    -0.0014551338 
   5777000   0.049747562   -0.31517338     0.035811336   -0.20474552     0.00048495867
   5778000   0.050244943   -0.31504268     0.035564625   -0.2041155     -9.1424067e-05
   5779000   0.050030487   -0.31560401     0.036048695   -0.20451443     1.074048e-05 
   5780000   0.049587018   -0.31550974     0.035646282   -0.20548773     7.3219142e-05
   5781000   0.05010967    -0.31539239     0.035935492   -0.20429724    -0.00045109194
   5782000   0.050302267   -0.31550624     0.036409104   -0.2036486     -0.00010541952
   5783000   0.0499214     -0.31541006     0.035984507   -0.20454828    -5.5414386e-05
   5784000   0.050169335   -0.31553322     0.036357706   -0.20392637     0.00039918556
   5785000   0.050182431   -0.31553395     0.03597656    -0.2042886     -0.00033821326
   5786000   0.049523513   -0.31552573     0.035543649   -0.2057016      0.00031142916
   5787000   0.049781278   -0.31575685     0.035726235   -0.20536351    -0.00040885648
   5788000   0.050105327   -0.31495816     0.035799751   -0.20400527    -0.00091848248
   5789000   0.049782334   -0.31524595     0.03601711    -0.20456016     0.00059598897
   5790000   0.05014322    -0.3152896      0.036365933   -0.20371369    -0.00041199762
   5791000   0.049717033   -0.31544015     0.036370443   -0.20449897     0.00013874526
   5792000   0.050440962   -0.31552958     0.035829353   -0.20404366    -0.00033903496
   5793000   0.050394545   -0.31556998     0.036073824   -0.20390922     0.001107708  
   5794000   0.049935221   -0.31585339     0.036286343   -0.20466905    -6.0823874e-05
   5795000   0.050274322   -0.31544289     0.035770929   -0.20426535    -0.00054673326
   5796000   0.050236288   -0.3153222      0.036192079   -0.20378055     0.00033725744
   5797000   0.050026598   -0.31562362     0.035692933   -0.20489563     5.4843618e-05
   5798000   0.050212669   -0.31543065     0.035403158   -0.20471334    -0.00022597877
   5799000   0.049976518   -0.31574953     0.035652653   -0.20513693     8.1975986e-05
   5800000   0.049800412   -0.31541947     0.035814875   -0.2049088      0.00029608555
   5801000   0.049731668   -0.31572593     0.035343836   -0.2057894     -0.00010286991
   5802000   0.049707692   -0.31567495     0.035490158   -0.20562807    -0.00060780554
   5803000   0.050243155   -0.31558061     0.036003192   -0.20421755     7.6889997e-05
   5804000   0.050378175   -0.31560604     0.036057473   -0.20398618     0.00069597155
   5805000   0.049770776   -0.31563661     0.036321847   -0.20466341    -0.00021279077
   5806000   0.050292135   -0.31579387     0.035709281   -0.20465125     0.00017591128
   5807000   0.049773032   -0.31559473     0.035381315   -0.20555869    -0.0011973527 
   5808000   0.049717676   -0.31585983     0.035623128   -0.205665      -0.0005234609 
   5809000   0.050241759   -0.31599466     0.035941514   -0.20469536     2.9658083e-05
   5810000   0.050482967   -0.31562821     0.035413446   -0.2044952     -0.0002130269 
   5811000   0.050209456   -0.3155923      0.035624067   -0.2046589      0.00015282731
   5812000   0.050474927   -0.3151724      0.035261232   -0.20420366    -0.00034623024
   5813000   0.050462231   -0.31541756     0.035997265   -0.20373183     0.00017352405
   5814000   0.05003546    -0.31587301     0.035696797   -0.20512786     0.00056376465
   5815000   0.050343911   -0.31585213     0.03633187    -0.20400927    -0.0003460481 
   5816000   0.050763915   -0.3151954      0.036553193   -0.20250124    -0.00056869132
   5817000   0.050380535   -0.3156821      0.035988515   -0.20412766     0.00034283972
   5818000   0.049873053   -0.31595763     0.035967047   -0.20518583     0.00022986068
   5819000   0.050001081   -0.31576021     0.03589249    -0.20487094     0.00045087494
   5820000   0.050220873   -0.31585209     0.035835882   -0.20468976    -3.0510348e-05
   5821000   0.049776707   -0.3159117      0.035795043   -0.20545641     0.00036261787
   5822000   0.049835172   -0.31573043     0.036025177   -0.20495732     0.00029946939
   5823000   0.050111432   -0.31580549     0.035558764   -0.20508443     0.00013079634
   5824000   0.050358473   -0.31565042     0.036295623   -0.20382196     0.00032729868
   5825000   0.049596194   -0.31594501     0.035613566   -0.20594196    -0.0004219442 
   5826000   0.049908424   -0.31568825     0.035305434   -0.20552501    -0.00025429758
   5827000   0.050273353   -0.3160888      0.0362232     -0.20446044    -0.00026760135
   5828000   0.04938597    -0.31539596     0.035815123   -0.20550666    -0.00020000731
   5829000   0.05016034    -0.31554446     0.035925183   -0.20438363    -0.00078538065
   5830000   0.050845686   -0.31587482     0.036194108   -0.20341711     0.0005378488 
   5831000   0.049831      -0.31571317     0.036001758   -0.20496973     0.00052784702
   5832000   0.050023597   -0.31602616     0.03524472    -0.20575088     0.00033362175
   5833000   0.049819784   -0.31573752     0.036083185   -0.20492948     0.00098260446
   5834000   0.050345398   -0.31542561     0.036005243   -0.20390714     0.00054424442
   5835000   0.049960513   -0.31544925     0.035790325   -0.20472299    -0.00030295431
   5836000   0.050279656   -0.31576909     0.036381827   -0.20397265    -0.00014493564
   5837000   0.050537635   -0.31560135     0.036200236   -0.20359955     0.00029846013
   5838000   0.050123765   -0.31528614     0.035114192   -0.20499115     0.00029758457
   5839000   0.050101884   -0.31577795     0.035150076   -0.20547989     0.00044073262
   5840000   0.049730965   -0.31565584     0.036039074   -0.20502513    -0.00028422313
   5841000   0.049843545   -0.31571049     0.035685928   -0.20526407    -1.1743699e-05
   5842000   0.04956688    -0.31595873     0.035413828   -0.20619938    -0.00047133923
   5843000   0.049812861   -0.31587611     0.035554373   -0.20560727    -0.00031532228
   5844000   0.04982558    -0.31541355     0.034930626   -0.20574937     0.00079683377
   5845000   0.049903611   -0.31584448     0.035074657   -0.20591923    -0.00077258101
   5846000   0.049714304   -0.31567384     0.035895737   -0.20521146     0.0011928362 
   5847000   0.049806707   -0.3158642      0.03593353    -0.20522543     6.738622e-06 
   5848000   0.04985828    -0.3157639      0.035512578   -0.20546873     0.00010992785
   5849000   0.049858698   -0.31576427     0.035574277   -0.20540678     0.00022088042
   5850000   0.049705526   -0.3158405      0.035923287   -0.20536374     0.000186351  
   5851000   0.049732078   -0.31610862     0.035847645   -0.20566767    -0.00028127884
   5852000   0.050056891   -0.31574778     0.035313591   -0.20535369     0.00015527147
   5853000   0.049523198   -0.31613087     0.035514281   -0.20633658     0.00011162206
   5854000   0.050083066   -0.31620914     0.035362672   -0.20572672     0.00031302505
   5855000   0.049681456   -0.3159203      0.035324059   -0.20607887     0.00032590519
   5856000   0.050141679   -0.31605078     0.035683128   -0.20515999     0.00047503727
   5857000   0.049992917   -0.31605731     0.035312091   -0.20576068    -0.00042692038
   5858000   0.049927297   -0.31600069     0.035938446   -0.20517613     0.00010001475
   5859000   0.049955259   -0.3161541      0.035587443   -0.2056386      0.0002967342 
   5860000   0.050110199   -0.31579864     0.035909453   -0.20472874    -9.1484628e-05
   5861000   0.050091986   -0.3159185      0.035560467   -0.2052249      5.6824925e-05
   5862000   0.050171728   -0.31611335     0.03484153    -0.20601908     0.0017092124 
   5863000   0.050232387   -0.31583181     0.035972098   -0.204516      -0.00016976654
   5864000   0.050010144   -0.31632378     0.035535623   -0.20577778     8.7771816e-05
   5865000   0.049686466   -0.31609201     0.035987315   -0.2055798     -0.00028313739
   5866000   0.049511056   -0.31609696     0.035406584   -0.20642858     0.0013181536 
   5867000   0.049630246   -0.31583891     0.035575325   -0.20582302     0.00018462855
   5868000   0.049992722   -0.3159227      0.036141351   -0.20479711     6.4884185e-05
   5869000   0.050237723   -0.315949       0.035886184   -0.20471109     0.00047330491
   5870000   0.050131905   -0.31591042     0.036054665   -0.20466275    -0.00043969496
   5871000   0.050413832   -0.31623935     0.035663453   -0.20496003     0.00052299856
   5872000   0.049319783   -0.31608014     0.03607142    -0.20603382    -0.0001088439 
   5873000   0.049964443   -0.31604667     0.036146083   -0.20495876    -0.00075420648
   5874000   0.050016106   -0.31586289     0.035227843   -0.20561573     0.00068960253
   5875000   0.050379396   -0.31627571     0.035359257   -0.20535223     3.0372758e-05
   5876000   0.049691344   -0.31610385     0.03588044    -0.20569121     0.0013512327 
   5877000   0.050119772   -0.31625685     0.036200259   -0.20488178    -0.00030188739
   5878000   0.050324723   -0.31670425     0.035558362   -0.20566367     0.00018418671
   5879000   0.049964641   -0.31574956     0.036184396   -0.20462303    -6.4437937e-05
   5880000   0.050288353   -0.31586108     0.035905764   -0.20452765    -0.00010935596
   5881000   0.050499131   -0.31618941     0.036238285   -0.20420732    -0.00030563947
   5882000   0.050622508   -0.31619718     0.036243606   -0.20402471    -0.00027357808
   5883000   0.04959981    -0.31568448     0.035595043   -0.20569453     0.0002267887 
   5884000   0.049613923   -0.31589238     0.036005297   -0.205471      -0.0007172973 
   5885000   0.049882783   -0.3161587      0.035516726   -0.20582262    -9.3353603e-05
   5886000   0.04979401    -0.31575672     0.036002009   -0.20506852     0.00026364502
   5887000   0.049851136   -0.31611023     0.035147712   -0.20619064     0.00070946623
   5888000   0.049934036   -0.31605344     0.035703024   -0.20545419     0.00069533429
   5889000   0.049731415   -0.31580302     0.035579132   -0.20563158     0.00037862508
   5890000   0.050269404   -0.31651808     0.035854936   -0.20526391     0.00014664326
   5891000   0.049953644   -0.31630422     0.036083403   -0.20529518    -0.00028234389
   5892000   0.05058222    -0.31632502     0.03602654    -0.20443005    -0.00046736215
   5893000   0.049971483   -0.31602706     0.036099472   -0.2049752     -0.00044263987
   5894000   0.049455037   -0.31603802     0.035853793   -0.20600646     4.5443716e-05
   5895000   0.049500592   -0.31598257     0.03547999    -0.20625648     0.00056859896
   5896000   0.050234454   -0.31612361     0.035073191   -0.2057036     -0.00031034405
   5897000   0.050330218   -0.31600207     0.035436889   -0.20507472     0.00074406006
   5898000   0.049540052   -0.31635097     0.035786774   -0.20625891    -0.00056277539
   5899000   0.050200638   -0.315957       0.035667853   -0.20499305     3.9077476e-05
   5900000   0.050412414   -0.31603995     0.035856803   -0.2045694     -0.0007829813 
   5901000   0.050108298   -0.31647955     0.035871247   -0.20545071     0.00038330672
   5902000   0.049585422   -0.31628067     0.036044584   -0.20586275    -0.00041047843
   5903000   0.049844198   -0.31665255     0.035407315   -0.20648376    -0.00043854466
   5904000   0.049580567   -0.31646092     0.03638547    -0.20570939    -0.00089135811
   5905000   0.05012748    -0.31634143     0.035755027   -0.20540003    -0.00030519446
   5906000   0.050076574   -0.31614792     0.03505016    -0.20598774     0.00065427442
   5907000   0.050047367   -0.31638668     0.035889315   -0.20543116    -0.00076589141
   5908000   0.050050632   -0.31682278     0.036183573   -0.2055681      0.00041427415
   5909000   0.050272446   -0.31661084     0.035910821   -0.20529622    -0.00035098687
   5910000   0.049914617   -0.31643019     0.03555848    -0.20600461    -0.00069646109
   5911000   0.049928077   -0.31633012     0.035745656   -0.20569718    -5.7620138e-05
   5912000   0.050158921   -0.31620006     0.035883063   -0.20508347     0.0010760935 
   5913000   0.049660604   -0.31645169     0.035850684   -0.20611491     9.0405537e-05
   5914000   0.049700815   -0.31675114     0.035370486   -0.20683424    -4.1487296e-05
   5915000   0.049932682   -0.31676021     0.035386999   -0.20647902    -7.8492639e-06
   5916000   0.049484708   -0.31690492     0.036410979   -0.20627167    -0.00016513174
   5917000   0.049811129   -0.31642073     0.036120875   -0.20558798    -0.00076095694
   5918000   0.050534109   -0.31654436     0.03606924    -0.20467885    -1.0492e-05   
   5919000   0.050149177   -0.31646584     0.035597224   -0.2056497     -0.00041216057
   5920000   0.050138779   -0.31663741     0.03627469    -0.2051594      0.00025223321
   5921000   0.05032864    -0.3165033      0.034992025   -0.20602319     0.00060437781
   5922000   0.049336663   -0.31677171     0.035829561   -0.20694193    -5.6641602e-07
   5923000   0.049546721   -0.31639886     0.035817507   -0.20626607    -0.00063203564
   5924000   0.049961561   -0.31675889     0.0358399     -0.20598149     0.00040687674
   5925000   0.050613404   -0.31669264     0.035472909   -0.20530452     0.00010732581
   5926000   0.050967812   -0.31677302     0.036295437   -0.20403079     0.00033471433
   5927000   0.050449906   -0.3165488      0.035645079   -0.20523375     0.00034160749
   5928000   0.049887482   -0.31644014     0.035935494   -0.20567825     0.0012065809 
   5929000   0.050488652   -0.31674108     0.036647788   -0.2043652     -0.0010820723 
   5930000   0.050312906   -0.31684965     0.036096458   -0.2052887     -0.001102952  
   5931000   0.050089884   -0.31620256     0.035727614   -0.20534497     0.00098455639
   5932000   0.049931504   -0.3164933      0.03570155    -0.20589932     0.00038941763
   5933000   0.050420055   -0.31636163     0.035478103   -0.20525833    -0.0001409377 
   5934000   0.049872384   -0.31631688     0.035663395   -0.20584973     0.00026413471
   5935000   0.050116438   -0.31637974     0.035951793   -0.20525814    -4.6064225e-06
   5936000   0.050344328   -0.31648453     0.035702994   -0.20526992    -0.00025359274
   5937000   0.049992867   -0.31616211     0.035633142   -0.20554451    -1.4753317e-05
   5938000   0.050278544   -0.31612803     0.036205577   -0.20450951     0.00040851172
   5939000   0.04982002    -0.31623457     0.036297196   -0.20521216    -0.00072658902
   5940000   0.050125404   -0.31643288     0.036110209   -0.20513942    -0.00021776245
   5941000   0.050148844   -0.31669383     0.035928198   -0.20554722     0.0001070272 
   5942000   0.050529861   -0.31684078     0.035903108   -0.20514777    -0.00019001649
   5943000   0.049498467   -0.31691354     0.035740592   -0.20693004     0.00039419044
   5944000   0.049854307   -0.31647697     0.035303237   -0.20639709    -0.00057808377
   5945000   0.049989315   -0.31666704     0.035695924   -0.20599198    -0.00017536435
   5946000   0.04956658    -0.31647317     0.035492388   -0.20663571     0.00040277421
   5947000   0.050332264   -0.3164723      0.035785171   -0.2051936     -0.00011586215
   5948000   0.050358498   -0.31716173     0.036532217   -0.20509664    -0.00087552675
   5949000   0.049960909   -0.31632552     0.035457803   -0.20593119    -0.00027268458
   5950000   0.050014941   -0.31630598     0.035342706   -0.2059457      0.00079487181
   5951000   0.050051213   -0.31637037     0.035581689   -0.20571671     0.00035041716
   5952000   0.050099135   -0.31632465     0.035384339   -0.20579646     0.00062785833
   5953000   0.050083729   -0.31691097     0.035481044   -0.20630918    -0.00060632775
   5954000   0.050389861   -0.31647158     0.034842115   -0.20604955    -0.0004141684 
   5955000   0.049877411   -0.31607209     0.035386816   -0.20587398     0.0010484831 
   5956000   0.050188708   -0.31652113     0.0355476     -0.20569532    -2.5278196e-06
   5957000   0.049780083   -0.31692101     0.035708745   -0.20654696     0.00031796259
   5958000   0.049731707   -0.31685369     0.035493007   -0.20676794    -0.00021270365
   5959000   0.04948002    -0.31665696     0.035717728   -0.20672399    -0.00049511947
   5960000   0.049652474   -0.31688917     0.036290851   -0.20612441    -0.00064811053
   5961000   0.049982207   -0.31654531     0.036409816   -0.20516703     0.00012112508
   5962000   0.050045942   -0.31624713     0.035670835   -0.20551223     0.00071673257
   5963000   0.050343966   -0.31624663     0.035534407   -0.20520115     0.00022787108
   5964000   0.049610931   -0.31664629     0.036298224   -0.20593647    -0.00066343173
   5965000   0.050001627   -0.31680988     0.03641774    -0.20539454    -0.00053082195
   5966000   0.050193153   -0.3167481      0.035342226   -0.206121       0.00026509676
   5967000   0.05019211    -0.31625235     0.036116109   -0.20485293     0.00067123352
   5968000   0.050402568   -0.31630197     0.036153157   -0.20454984    -0.00015057974
   5969000   0.050189019   -0.31662843     0.035863537   -0.20548622    -0.0001710398 
   5970000   0.050028581   -0.31664221     0.035777076   -0.20582711    -0.0002644326 
   5971000   0.05019982    -0.31644125     0.035321764   -0.20582461    -0.00012249505
   5972000   0.050187194   -0.31681378     0.035609261   -0.20592858     0.00089560029
   5973000   0.049971478   -0.31620219     0.035776366   -0.20547345     0.0012423265 
   5974000   0.049973538   -0.31659131     0.036014181   -0.20562166    -4.8918853e-05
   5975000   0.049876387   -0.31712188     0.036259773   -0.20605235    -0.00098032313
   5976000   0.049610072   -0.31632302     0.035131954   -0.20678076    -1.9817721e-05
   5977000   0.049373677   -0.31658184     0.035828971   -0.20669713     0.00024202721
   5978000   0.050130659   -0.31650123     0.03540355    -0.20590654     0.00055384163
   5979000   0.049915368   -0.31672328     0.035359564   -0.20649549     0.00029293593
   5980000   0.049979267   -0.31609543     0.035275752   -0.20585562     0.00036593824
   5981000   0.049557782   -0.31636827     0.035818165   -0.20621823    -0.00050825486
   5982000   0.049895691   -0.31663968     0.035489805   -0.20631117     0.00015603058
   5983000   0.0499618     -0.31682003     0.035731749   -0.20615042    -0.00020578022
   5984000   0.049696288   -0.31690734     0.035908555   -0.20645916    -0.0003040998 
   5985000   0.049952361   -0.31672789     0.035447875   -0.2063563     -0.00034366328
   5986000   0.049529369   -0.31672        0.035726811   -0.20670393     0.00045401046
   5987000   0.050018914   -0.31622364     0.035603758   -0.20559635     0.00048845472
   5988000   0.049942183   -0.31653907     0.035650274   -0.20598035     3.9265683e-05
   5989000   0.049769502   -0.31637231     0.035173037   -0.20654984     0.00020865156
   5990000   0.049485618   -0.31652526     0.035115109   -0.20718651    -0.00012298425
   5991000   0.049639057   -0.31665996     0.035850029   -0.20635615     0.00053414032
   5992000   0.050022839   -0.317113       0.035192962   -0.20689062     0.00011853726
   5993000   0.049988462   -0.31688203     0.036122865   -0.20578131     0.0002006224 
   5994000   0.050244006   -0.31677167     0.035270761   -0.20613976     0.00042212777
   5995000   0.049807078   -0.31654972     0.035413474   -0.20643045     0.00031431218
   5996000   0.049737054   -0.3165031      0.035400689   -0.20650164     0.00048431999
   5997000   0.05024186    -0.31643404     0.035634236   -0.20544188     0.00035798729
   5998000   0.050511937   -0.31675592     0.035880165   -0.20511274    -0.00034608593
   5999000   0.050339741   -0.31630169     0.035908057   -0.2048889      0.00086882308
   6000000   0.049992954   -0.31680235     0.036647387   -0.20517037    -8.522839e-05 
   6001000   0.049564861   -0.31665874     0.035343633   -0.20697261     0.00051226481
   6002000   0.04996177    -0.31705312     0.035111895   -0.20700341     0.00061287345
   6003000   0.050000274   -0.31644613     0.035401265   -0.20604929     0.0009798406 
   6004000   0.050268057   -0.31651241     0.035472691   -0.20564249     0.00021870953
   6005000   0.049669852   -0.31674478     0.036546268   -0.20569854    -0.00032897231
   6006000   0.049962475   -0.31645463     0.035682564   -0.20583319    -0.00042895145
   6007000   0.049840225   -0.31632859     0.035592458   -0.20598061     0.00088293475
   6008000   0.050752624   -0.31659749     0.036473372   -0.20400009    -0.0012143045 
   6009000   0.050297224   -0.31667051     0.035878109   -0.20535143    -0.00059754895
   6010000   0.049969587   -0.31660891     0.035298642   -0.20636072     0.00056729261
   6011000   0.050154703   -0.31677748     0.036011395   -0.20553889     0.001009419  
   6012000   0.050264964   -0.31631572     0.035928054   -0.20499509     0.0004555276 
   6013000   0.050129958   -0.31662974     0.036027687   -0.20541196    -6.7818604e-05
   6014000   0.049945355   -0.31655814     0.035791332   -0.20585361    -1.140829e-05 
   6015000   0.050045611   -0.31635392     0.035977951   -0.2053124      0.0011992744 
   6016000   0.050601648   -0.31670187     0.0362116     -0.2045927     -0.00050191902
   6017000   0.050516494   -0.3167218      0.035589578   -0.20536237     7.2049605e-05
   6018000   0.050709142   -0.31718245     0.035517099   -0.20560654     0.00074556044
   6019000   0.049838509   -0.31605507     0.036615889   -0.20468624     8.4140948e-05
   6020000   0.050004984   -0.31643911     0.036112762   -0.20532371     0.0004413382 
   6021000   0.050211946   -0.31662235     0.035459957   -0.20584934     0.00063415814
   6022000   0.050109489   -0.31678513     0.035461826   -0.20616392     0.00069905226
   6023000   0.049250955   -0.31672866     0.035889334   -0.20696766    -6.3263005e-05
   6024000   0.050467985   -0.31688404     0.035746109   -0.20544083     0.00069440317
   6025000   0.049720552   -0.31658486     0.035756504   -0.20625234     0.00047459633
   6026000   0.04987489    -0.3169463      0.035605245   -0.20653355     0.00022775177
   6027000   0.050485288   -0.31686881     0.036008659   -0.20513711     0.00038580694
   6028000   0.050371122   -0.31658126     0.035711255   -0.2053182     -0.00016379375
   6029000   0.049962346   -0.31710899     0.035424875   -0.20674543     0.00027149441
   6030000   0.050130679   -0.31687776     0.035243419   -0.20644317     0.00030023159
   6031000   0.049668082   -0.3167869      0.036433477   -0.20585611     0.00084178994
   6032000   0.050331172   -0.31669503     0.035689715   -0.20551343    -0.00017398417
   6033000   0.050377874   -0.31659333     0.035404672   -0.20562672     0.00092780414
   6034000   0.049631741   -0.31672052     0.035839986   -0.20643773     0.00038812142
   6035000   0.050216199   -0.31677068     0.035734987   -0.20571626     1.3198081e-06
   6036000   0.05032571    -0.31650225     0.034929198   -0.20608936    -0.00015331738
   6037000   0.049685107   -0.31686924     0.036185567   -0.20616082    -0.00082219601
   6038000   0.050119189   -0.31718113     0.035242624   -0.20676457     0.00033433362
   6039000   0.049581914   -0.3167639      0.035621465   -0.20677436     6.7377033e-05
   6040000   0.050170239   -0.3162588      0.035036983   -0.20597132     0.00035192246
   6041000   0.049406549   -0.31642658     0.035661644   -0.20665989    -0.0006529227 
   6042000   0.049951543   -0.31674845     0.035181928   -0.20664404     0.0004189488 
   6043000   0.049666561   -0.31682891     0.036283409   -0.20605047    -6.7004142e-05
   6044000   0.049800177   -0.31667513     0.035890119   -0.20608956    -0.00075348339
   6045000   0.049864495   -0.31658275     0.035420622   -0.20637021     0.00032806624
   6046000   0.050076629   -0.31654197     0.036072646   -0.20535922    -0.00020962924
   6047000   0.049822105   -0.31713298     0.035916097   -0.20648855     0.00047815957
   6048000   0.050678349   -0.31649891     0.035685903   -0.20480039    -0.00034439842
   6049000   0.050000059   -0.31670449     0.035820874   -0.20588837    -0.00071451501
   6050000   0.049983009   -0.31667418     0.036130167   -0.20557434    -0.00034933229
   6051000   0.050249466   -0.3170083      0.035877533   -0.20576143     0.00021049671
   6052000   0.049875126   -0.31690143     0.035907146   -0.20618642    -0.00072293315
   6053000   0.049745146   -0.31670024     0.035333326   -0.20675401     0.00047588101
   6054000   0.050059905   -0.31637596     0.035728389   -0.20556256    -0.00023170127
   6055000   0.050134197   -0.31685581     0.036028434   -0.20563093    -0.00057334078
   6056000   0.04994556    -0.31652228     0.035968545   -0.20564023    -0.00065934357
   6057000   0.050213907   -0.31689222     0.035513989   -0.20606223     0.00063263478
   6058000   0.049794759   -0.31669129     0.035988328   -0.20601565    -0.00020989016
   6059000   0.049654967   -0.3167998      0.035759633   -0.20656252     0.00032354319
   6060000   0.049798489   -0.31713915     0.035495794   -0.20695045     0.0010276123 
   6061000   0.050155147   -0.31702718     0.035853985   -0.20594533    -0.00052161887
   6062000   0.049853036   -0.31691841     0.036313105   -0.20583058     0.00016508716
   6063000   0.050475688   -0.31674005     0.036299465   -0.20473194     0.000657388  
   6064000   0.049526443   -0.31683288     0.036317274   -0.20623074     0.00012507325
   6065000   0.049936119   -0.31705239     0.035291699   -0.20686135    -5.7996761e-06
   6066000   0.050033639   -0.31691731     0.036048056   -0.20582363    -0.00079864732
   6067000   0.051096308   -0.3169508      0.035781439   -0.20452984     0.00045371921
   6068000   0.050813072   -0.31697694     0.035763649   -0.2049986     -0.00039709273
   6069000   0.05022229    -0.31695825     0.035964645   -0.20566503    -0.00018913621
   6070000   0.050682837   -0.31678922     0.036012863   -0.20475701    -0.00094429592
   6071000   0.049977108   -0.31673519     0.036303645   -0.20547072     0.0010088518 
   6072000   0.050211684   -0.31699739     0.035840829   -0.2058439      0.00021673712
   6073000   0.050189703   -0.31693521     0.035647078   -0.20600844    -0.00057011867
   6074000   0.049974355   -0.31717542     0.036191349   -0.20602738    -0.00066142358
   6075000   0.049446388   -0.31710956     0.03587078    -0.20707398    -0.00090534144
   6076000   0.050069859   -0.31724292     0.036227203   -0.20591578     0.00073282133
   6077000   0.049753331   -0.31666121     0.035554597   -0.20648144     5.8416132e-05
   6078000   0.051025424   -0.31686184     0.036208957   -0.20411969    -3.671752e-05 
   6079000   0.050286476   -0.31716722     0.036419019   -0.20532335    -0.00023512058
   6080000   0.050032092   -0.31674052     0.035959465   -0.20573776    -0.00014639175
   6081000   0.049472293   -0.31670885     0.035359665   -0.20714553     0.00037896689
   6082000   0.050239061   -0.31680307     0.035963767   -0.20548557     0.00075376083
   6083000   0.049502288   -0.31684317     0.035196222   -0.2073983      0.0013796095 
   6084000   0.049620812   -0.31743912     0.035718948   -0.20729376     0.00011889287
   6085000   0.049556785   -0.31701345     0.035644261   -0.2070388      0.00039858313
   6086000   0.050218908   -0.31673572     0.035701835   -0.20571038    -0.00082123566
   6087000   0.049563096   -0.31700759     0.035879894   -0.20678784    -0.00049478635
   6088000   0.050040737   -0.31694753     0.036263495   -0.20562777    -4.1473186e-05
   6089000   0.050000604   -0.31679094     0.035228839   -0.20656603    -0.00092685735
   6090000   0.049836484   -0.31723238     0.035510498   -0.20697198     0.00017623828
   6091000   0.050311029   -0.31741859     0.035988935   -0.20596798    -0.00055425793
   6092000   0.049941417   -0.31715103     0.035947152   -0.20629659    -0.00045155968
   6093000   0.050118192   -0.31704657     0.035542433   -0.2063317     -0.00014442926
   6094000   0.049631023   -0.31707041     0.036527335   -0.20610134    -0.00028673685
   6095000   0.050184182   -0.31673842     0.035746633   -0.20572037     0.00018735731
   6096000   0.050040461   -0.31683542     0.035983329   -0.20579624     0.0002306967 
   6097000   0.050259522   -0.3170593      0.035564315   -0.20611057     5.0234237e-06
   6098000   0.050044722   -0.31712655     0.035791487   -0.20627282    -0.00030071093
   6099000   0.049580013   -0.31664695     0.036107501   -0.20617423     0.00050097243
   6100000   0.050499116   -0.31703429     0.035534195   -0.2057563     -0.00020072112
   6101000   0.049584758   -0.31709952     0.035396258   -0.20733092    -0.00010677887
   6102000   0.050032091   -0.31668414     0.035654435   -0.20598641     8.3411393e-05
   6103000   0.049530211   -0.31703036     0.036067434   -0.20667241    -0.00030762639
   6104000   0.049841185   -0.31702551     0.035659412   -0.20660914    -4.97319e-05  
   6105000   0.050145121   -0.31692324     0.035646339   -0.20606407     0.00064582678
   6106000   0.050052732   -0.31710615     0.035798719   -0.20623318     0.00015834114
   6107000   0.050362506   -0.31694789     0.035817764   -0.20559124    -9.0528598e-06
   6108000   0.05074814    -0.31688671     0.03536938    -0.20540003     0.00032931208
   6109000   0.049704651   -0.31691389     0.036248612   -0.20611311    -0.00036556888
   6110000   0.05003464    -0.31655104     0.035824525   -0.2056794     -0.00019905934
   6111000   0.049847269   -0.31702529     0.035616498   -0.20664272     0.00038846142
   6112000   0.05002189    -0.31679964     0.035627534   -0.20614411    -0.00019352023
   6113000   0.050140725   -0.31707262     0.035343303   -0.20652309    -0.00011877419
   6114000   0.050082518   -0.3170142      0.036092757   -0.20580252    -0.00032832582
   6115000   0.050659786   -0.31711658     0.035708008   -0.20542379     0.0010154861 
   6116000   0.050599298   -0.31733678     0.035894845   -0.20554789     0.0001531169 
   6117000   0.049573137   -0.31697305     0.035519956   -0.20709819    -0.00045726899
   6118000   0.050206709   -0.31731316     0.035826985   -0.20618097     0.00049557954
   6119000   0.049248913   -0.31750011     0.035309352   -0.20832215    -0.00086437335
   6120000   0.049639814   -0.31718827     0.035655913   -0.20707743    -0.00048993356
   6121000   0.049676556   -0.31736048     0.035542504   -0.20730795     0.0010771933 
   6122000   0.049851228   -0.31736867     0.035398827   -0.20719783     0.00093884738
   6123000   0.049112286   -0.31729938     0.035870056   -0.20776565    -0.001025164  
   6124000   0.049845847   -0.31701928     0.035500879   -0.20675446    -0.00040541985
   6125000   0.050084948   -0.31754576     0.035960483   -0.2064627      0.00036597868
   6126000   0.050806945   -0.31755111     0.03595946    -0.20538615     0.00017689401
   6127000   0.049884524   -0.31703117     0.03646025    -0.20574896    -0.00019555748
   6128000   0.050398669   -0.31761576     0.034861373   -0.20716126     0.00060722703
   6129000   0.050482009   -0.31733273     0.035690488   -0.20592411    -7.3900243e-05
   6130000   0.050257407   -0.31726889     0.03601767    -0.20586997    -0.00048990884
   6131000   0.050375113   -0.31755138     0.036010452   -0.20598313     5.6259125e-05
   6132000   0.050178323   -0.31781392     0.035872681   -0.20667861     0.00063870825
   6133000   0.050292365   -0.31758792     0.035485621   -0.20666861     0.00020853054
   6134000   0.04990115    -0.31717045     0.036073037   -0.20625051     6.5194438e-05
   6135000   0.049981985   -0.31739436     0.035177992   -0.20724823     3.8776397e-05
   6136000   0.04975413    -0.31753185     0.035951222   -0.20695424     0.00089299523
   6137000   0.049826053   -0.3174346      0.03595525    -0.2067451      0.00056296995
   6138000   0.049565126   -0.31766079     0.035857412   -0.20746048     0.00011508165
   6139000   0.050006601   -0.31751272     0.03584748    -0.20666018     0.00062831988
   6140000   0.050393901   -0.31777396     0.035748033   -0.20643995     0.00057055944
   6141000   0.05002212    -0.31749012     0.035862375   -0.2065994      0.00034550857
   6142000   0.050770026   -0.31780064     0.035681248   -0.20596927     0.00016066489
   6143000   0.050067303   -0.31796657     0.035477537   -0.20739292    -0.00028923898
   6144000   0.050059921   -0.31800144     0.035525412   -0.20739099    -0.00059171351
   6145000   0.050646606   -0.31766631     0.035173938   -0.20652737     6.5271702e-05
   6146000   0.050270989   -0.31814496     0.035863775   -0.20687957     0.00026965771
   6147000   0.04993967    -0.31838127     0.035913281   -0.20756332    -0.00033012121
   6148000   0.049961254   -0.31831783     0.035592666   -0.20778811     0.00034998012
   6149000   0.050036223   -0.31792622     0.036076838   -0.20679989    -0.00019369331
   6150000   0.0510567     -0.31760954     0.035788968   -0.20524046     0.00055407019
   6151000   0.049740822   -0.31761867     0.036349445   -0.20666281    -0.00016236283
   6152000   0.049812586   -0.31777545     0.035920639   -0.20714075     2.5853872e-05
   6153000   0.049605098   -0.3182227      0.035698949   -0.2081209      0.00037562694
   6154000   0.0498263     -0.31788468     0.036100866   -0.20704919    -0.00051710847
   6155000   0.050344489   -0.31764118     0.035372234   -0.20675708    -0.0002720977 
   6156000   0.050432382   -0.31796089     0.035654467   -0.20666273     8.9994354e-06
   6157000   0.049597313   -0.31770774     0.035909415   -0.20740715     4.1728528e-05
   6158000   0.050531104   -0.3179713      0.036096691   -0.20608284    -0.0001799532 
   6159000   0.049521863   -0.31825339     0.036530251   -0.20744513     0.00079149588
   6160000   0.050017618   -0.31794187     0.035855773   -0.20706451    -0.00033291455
   6161000   0.050074486   -0.31795492     0.035685842   -0.2071622     -0.00062118729
   6162000   0.049837244   -0.31820163     0.035790152   -0.20766043    -0.0010693907 
   6163000   0.049796172   -0.31815226     0.035276859   -0.20818597     0.00052697412
   6164000   0.050360673   -0.31803902     0.036167595   -0.20633529    -9.3691514e-05
   6165000   0.049979457   -0.31758629     0.035606764   -0.20701517     0.00046153509
   6166000   0.050286578   -0.31794996     0.035822186   -0.20670277    -0.001215464  
   6167000   0.049889536   -0.31786441     0.035727574   -0.20730736    -7.9251566e-05
   6168000   0.049906058   -0.31774857     0.036238124   -0.20665619     0.00030481973
   6169000   0.050203246   -0.31821943     0.035574212   -0.20734521     0.0011121399 
   6170000   0.05000694    -0.31774098     0.035687003   -0.20704841     0.00048651903
   6171000   0.050364966   -0.31764016     0.036239211   -0.20585838    -0.00022454946
   6172000   0.049783007   -0.31808917     0.035747721   -0.20767175    -0.00022204461
   6173000   0.05013185    -0.31794698     0.035543983   -0.20721007    -1.3063546e-05
   6174000   0.049929537   -0.31830786     0.035700074   -0.20771831    -0.00093743095
   6175000   0.050325409   -0.31829158     0.03580532    -0.20700302     0.00026901718
   6176000   0.05045996    -0.31750942     0.035763573   -0.20606079    -5.7369185e-05
   6177000   0.050248475   -0.31769604     0.035751988   -0.2065762     -0.00018122353
   6178000   0.050584555   -0.31850762     0.03519721    -0.20743847    -3.9500918e-05
   6179000   0.049948835   -0.31814802     0.035615437   -0.20761416     0.00072364289
   6180000   0.04952139    -0.31824482     0.035817132   -0.20815039    -0.00030663257
   6181000   0.050299131   -0.31793157     0.035531398   -0.20695634    -0.00085358511
   6182000   0.049861326   -0.31778738     0.036150227   -0.20684999    -3.5591366e-05
   6183000   0.050561779   -0.31774421     0.035436945   -0.20646949     0.00045623812
   6184000   0.049844733   -0.3181125      0.035844075   -0.20750615     0.00022706083
   6185000   0.050183902   -0.31807058     0.035760928   -0.20703866    -0.00010214923
   6186000   0.050445266   -0.31799344     0.035448753   -0.20688167     0.00038205862
   6187000   0.049937439   -0.31821198     0.036052235   -0.20725842     0.0003630652 
   6188000   0.050276467   -0.31833203     0.035717194   -0.207205      -0.00037123381
   6189000   0.050341526   -0.31793698     0.035526603   -0.20690296    -0.00057353295
   6190000   0.050071026   -0.31831012     0.035869572   -0.20733885     0.00011048666
   6191000   0.049929661   -0.31825767     0.035952157   -0.20741586    -0.00035661649
   6192000   0.050308806   -0.31806029     0.035088441   -0.20751351     0.00047632022
   6193000   0.049350558   -0.31831001     0.036188767   -0.20810018     0.00010381078
   6194000   0.050118278   -0.31782625     0.035680487   -0.20697319     0.00068425944
   6195000   0.050099526   -0.31813011     0.036149489   -0.20683618     0.00024190121
   6196000   0.050156211   -0.31803177     0.036359589   -0.20644272    -0.00064067373
   6197000   0.050120379   -0.31815871     0.035762111   -0.20722088     0.00074941017
   6198000   0.050056013   -0.31863707     0.035821052   -0.20773685     0.00048158695
   6199000   0.049697254   -0.31811349     0.035174654   -0.20839776    -0.00013424418
   6200000   0.049374566   -0.31807852     0.035436432   -0.20858502    -1.946082e-05 
   6201000   0.049603017   -0.31881864     0.035184713   -0.2092342      0.00020508654
   6202000   0.049980047   -0.31784417     0.034676352   -0.20820258     0.00095598498
   6203000   0.049845076   -0.3182847      0.0361279     -0.20739401     0.0001774135 
   6204000   0.050073281   -0.31833599     0.035758025   -0.20747289    -0.00029269022
   6205000   0.050339344   -0.31818619     0.035366071   -0.20731597    -0.00066380992
   6206000   0.050016499   -0.31887368     0.03588962    -0.20796415    -0.00036729969
   6207000   0.049893348   -0.3183518      0.03557139    -0.20794521    -0.00042493906
   6208000   0.050213591   -0.31842003     0.03565576    -0.20744875     9.2216064e-05
   6209000   0.050148638   -0.31877164     0.035528051   -0.20802548    -2.711978e-05 
   6210000   0.049796187   -0.31805054     0.035483148   -0.20787793     0.00055179195
   6211000   0.0498885     -0.31865424     0.035622781   -0.20820353     0.00072020504
   6212000   0.049697286   -0.31817689     0.03610304    -0.20753274     0.00031394758
   6213000   0.049198123   -0.31831384     0.035666883   -0.20885453     0.00081338748
   6214000   0.049729157   -0.31834507     0.036504204   -0.20725194     0.00036986076
   6215000   0.049689774   -0.31810407     0.036159908   -0.20741431    -0.00023534125
   6216000   0.05018707    -0.31801355     0.035197645   -0.20754015    -1.6782688e-05
   6217000   0.049840586   -0.31870505     0.036357743   -0.20759125    -0.00037917715
   6218000   0.050110916   -0.31834322     0.035750062   -0.20743163    -0.00019455345
   6219000   0.049987251   -0.31831036     0.035702154   -0.20763217     0.00064680476
   6220000   0.050685334   -0.31850572     0.035670709   -0.20681191    -0.0003868297 
   6221000   0.049886996   -0.31812694     0.035906927   -0.20739435     0.00024066615
   6222000   0.049606167   -0.31790378     0.035539394   -0.20795994     0.00035894719
   6223000   0.050033212   -0.31843963     0.035768153   -0.2076265     -0.00019809172
   6224000   0.049683224   -0.31803414     0.035979075   -0.20753504    -0.00017463014
   6225000   0.050547586   -0.31793881     0.035867102   -0.20625522     0.00014787598
   6226000   0.049817251   -0.31807548     0.036395859   -0.20695857     0.00099570139
   6227000   0.04997351    -0.31864864     0.036122916   -0.20757029    -0.00048873278
   6228000   0.049911421   -0.31796913     0.035580665   -0.20752617    -0.0001581181 
   6229000   0.050473123   -0.31813083     0.036250798   -0.20617523     0.00044928442
   6230000   0.050242885   -0.31865281     0.035778054   -0.20751529    -0.00054324109
   6231000   0.05027808    -0.31842217     0.035843009   -0.20716691     0.00034722057
   6232000   0.050060909   -0.31838006     0.035610322   -0.20768322     0.00089514168
   6233000   0.050340169   -0.31837452     0.035939704   -0.20692943    -0.0001507249 
   6234000   0.050529283   -0.31822981     0.035735941   -0.20670484    -0.00063552259
   6235000   0.050015149   -0.31852396     0.035797365   -0.20770871     0.00012103621
   6236000   0.049773502   -0.31832866     0.036031906   -0.20764132    -0.00075549451
   6237000   0.050063892   -0.31838695     0.035763348   -0.20753261    -0.00062017261
   6238000   0.050138364   -0.31880146     0.03583072    -0.20776804     0.0002601211 
   6239000   0.050184639   -0.31851399     0.035969604   -0.20727229    -0.00025256801
   6240000   0.050078052   -0.31876184     0.035870789   -0.20777882     6.2232326e-05
   6241000   0.050092799   -0.31837081     0.035895239   -0.20734122     0.00059078522
   6242000   0.049474011   -0.3183583      0.036039725   -0.20811234    -0.00057278062
   6243000   0.050566878   -0.31847579     0.03589523    -0.20673514     0.00016694254
   6244000   0.05025391    -0.31810736     0.035747432   -0.20698393     0.0003955668 
   6245000   0.049988948   -0.3179083      0.036204903   -0.20672481     0.00048875934
   6246000   0.050248343   -0.31826273     0.035756433   -0.20713864    -0.00033444934
   6247000   0.05029966    -0.31848707     0.035676055   -0.2073664      0.00054757748
   6248000   0.050204149   -0.31803559     0.036381213   -0.20635302    -0.00061230566
   6249000   0.050134782   -0.31856393     0.036111824   -0.20725478     0.00021065641
   6250000   0.050286403   -0.31853759     0.035468912   -0.20764394     0.00015582447
   6251000   0.050457643   -0.31810681     0.036013678   -0.20641155     0.00080751151
   6252000   0.050184597   -0.31876105     0.035820582   -0.20766843    -2.1275045e-05
   6253000   0.049849433   -0.31836063     0.035520013   -0.2080713      0.00042232975
   6254000   0.04968538    -0.31833036     0.035716542   -0.20809056    -0.00027771629
   6255000   0.04985825    -0.31851866     0.0356004     -0.20813571     0.00022570706
   6256000   0.050510787   -0.31847473     0.03562862    -0.20708482     7.0427835e-05
   6257000   0.050092257   -0.3184305      0.035430466   -0.20786649    -7.5398527e-05
   6258000   0.049910138   -0.31830828     0.035718181   -0.20772972    -0.00012027147
   6259000   0.049837099   -0.31852302     0.035608986   -0.20816321     0.0009758717 
   6260000   0.049793028   -0.318644       0.036076754   -0.20788253     0.00067157365
   6261000   0.050342235   -0.31803915     0.035585759   -0.20694491     0.00079975709
   6262000   0.050168314   -0.31815702     0.035834781   -0.20707463    -0.00016000234
   6263000   0.04976614    -0.31825492     0.036138541   -0.20747199    -3.7571755e-05
   6264000   0.049840502   -0.31843604     0.035250016   -0.20843009    -0.00053847915
   6265000   0.049883386   -0.31828199     0.035000452   -0.20846129     0.00093937805
   6266000   0.049343665   -0.31838842     0.035895085   -0.20848261    -0.00034106598
   6267000   0.050303159   -0.31849307     0.035494665   -0.20754853     0.00043791542
   6268000   0.049764628   -0.31832705     0.035186053   -0.20849887    -0.0011449204 
   6269000   0.050152854   -0.31836234     0.0353649     -0.20777302    -0.00071861209
   6270000   0.049207307   -0.31853589     0.035864193   -0.20886549     0.0012119106 
   6271000   0.050129646   -0.31815361     0.035914016   -0.20704998     0.00069530219
   6272000   0.050347894   -0.31803092     0.036338071   -0.20617588     0.00042930447
   6273000   0.050448856   -0.31802323     0.036071418   -0.20628341     0.00078243565
   6274000   0.049774883   -0.31821566     0.035607746   -0.20795041     0.0004327119 
   6275000   0.049766059   -0.31820261     0.036024353   -0.20753399     0.00038873314
   6276000   0.050278645   -0.31818058     0.035792476   -0.206975      -0.00073818704
   6277000   0.049576781   -0.31807867     0.036019588   -0.2076987      0.00016339027
   6278000   0.049965661   -0.31865212     0.035457942   -0.20825053     0.0001880921 
   6279000   0.050593139   -0.31836473     0.035790899   -0.20668901    -0.00029097489
   6280000   0.050410744   -0.31847453     0.035766442   -0.20709685    -0.00011019119
   6281000   0.050115684   -0.31812843     0.036079793   -0.20687996    -0.00031785251
   6282000   0.049849341   -0.31807606     0.036380916   -0.20692596     0.00012381073
   6283000   0.050739351   -0.31838517     0.035547024   -0.20673403    -0.00032528836
   6284000   0.049914906   -0.31821337     0.035987852   -0.20735799     0.00069365368
   6285000   0.04943005    -0.31857847     0.036135555   -0.20830262    -0.00084742346
   6286000   0.049928865   -0.31839224     0.035644747   -0.20785903     0.0003927485 
   6287000   0.049974327   -0.31821095     0.035989758   -0.20726454    -0.001256605  
   6288000   0.050249238   -0.31844631     0.035769793   -0.20730752    -0.00023473691
   6289000   0.049212154   -0.31839859     0.036080349   -0.20850477     0.00014619651
   6290000   0.049760978   -0.31824335     0.035277085   -0.20832961     0.00027011582
   6291000   0.050056856   -0.31823859     0.03551193    -0.20764622     0.00042214593
   6292000   0.050167745   -0.31847327     0.036160479   -0.20706603     0.0011817512 
   6293000   0.050109641   -0.3184492      0.035441992   -0.2078476      0.00042997376
   6294000   0.049893579   -0.31880503     0.036590473   -0.20737902    -0.00036375056
   6295000   0.050002441   -0.31836522     0.035893466   -0.20747293     7.9644654e-06
   6296000   0.050056167   -0.31858078     0.035784445   -0.20771693    -8.3149635e-06
   6297000   0.050187915   -0.31843771     0.035344569   -0.20781613     0.00010480882
   6298000   0.050270598   -0.31803759     0.035719611   -0.20691695     0.00042872524
   6299000   0.050076834   -0.31810629     0.035371731   -0.20762416     0.00027412723
   6300000   0.050093148   -0.31872527     0.035817294   -0.2077731     -0.0001460713 
   6301000   0.049772827   -0.31834294     0.036028479   -0.20766004    -0.0001672769 
   6302000   0.050186544   -0.31841747     0.035700941   -0.20744157     0.0010029477 
   6303000   0.04957786    -0.31875005     0.035951927   -0.20843613    -0.00032975201
   6304000   0.049931385   -0.31877186     0.035586898   -0.20829272     0.00038916767
   6305000   0.049687348   -0.31872016     0.035475905   -0.20871804     0.00043766945
   6306000   0.049813545   -0.31888085     0.03572918    -0.20843617     0.00023543786
   6307000   0.049781263   -0.31862613     0.036191377   -0.20776767    -6.0534508e-05
   6308000   0.049846306   -0.31866522     0.035570477   -0.20833011     0.00059942544
   6309000   0.049872299   -0.31864439     0.035727919   -0.20811284    -8.0519248e-05
   6310000   0.050429864   -0.31836474     0.035313702   -0.20741112     0.00076264397
   6311000   0.050560566   -0.3188783      0.035840231   -0.20720211    -0.00066819019
   6312000   0.049881369   -0.31815417     0.03570909    -0.20762785     5.1848509e-05
   6313000   0.050815234   -0.31824832     0.035251966   -0.20677842     0.00030669374
   6314000   0.050301496   -0.3184424      0.03574729    -0.20724773     0.00085603573
   6315000   0.050214651   -0.31863918     0.035857726   -0.20746434     0.00067801147
   6316000   0.049639093   -0.31836237     0.036083557   -0.20782498     0.00079416715
   6317000   0.050277719   -0.31871254     0.036021277   -0.20727955     0.00056295595
   6318000   0.050560605   -0.31860374     0.03619348    -0.20657425    -0.0004179826 
   6319000   0.050463391   -0.31877123     0.03577866    -0.20730237     0.0003616393 
   6320000   0.049894556   -0.31827373     0.036000492   -0.20743623     0.0010478609 
   6321000   0.050552548   -0.31854831     0.035850816   -0.20687357     0.00048229179
   6322000   0.049547814   -0.31862307     0.036000854   -0.20830529    -0.00049407849
   6323000   0.050051769   -0.31835594     0.036023923   -0.20725921    -0.0001331372 
   6324000   0.050039345   -0.31864976     0.035696252   -0.20789933    -0.00044800076
   6325000   0.050391575   -0.31892492     0.035629928   -0.2077125      0.00011859538
   6326000   0.049740712   -0.31878215     0.035681047   -0.20849485    -0.0001332959 
   6327000   0.049806372   -0.31885971     0.036395203   -0.20775977     0.00016447919
   6328000   0.049718416   -0.3185705      0.035319527   -0.20867816     0.00020506594
   6329000   0.049980041   -0.31880992     0.035499053   -0.20834564     0.00031175451
   6330000   0.05014477    -0.31887433     0.03563781    -0.20802422     0.00039873217
   6331000   0.049764871   -0.31875787     0.035360701   -0.20875468     0.00016741055
   6332000   0.049942084   -0.31832243     0.035364152   -0.20804999     7.0027183e-05
   6333000   0.049915304   -0.31868143     0.035979575   -0.20783373     0.00053215527
   6334000   0.049480794   -0.31856768     0.035571981   -0.20877929     0.0002047213 
   6335000   0.04957615    -0.31893674     0.035867969   -0.20870935    -0.00034091112
   6336000   0.049621263   -0.31842898     0.03517885    -0.20882304     0.00070436951
   6337000   0.050621149   -0.31836976     0.035323275   -0.20711966    -0.00049744897
   6338000   0.04981709    -0.31842354     0.035681276   -0.20802145    -8.9520824e-05
   6339000   0.049935279   -0.31857785     0.035490047   -0.20818972    -0.00032389084
   6340000   0.049713891   -0.31828893     0.035436316   -0.20828659     3.6774031e-05
   6341000   0.050171988   -0.31863312     0.035667899   -0.20771209     0.00063254556
   6342000   0.049760412   -0.3190227      0.036159702   -0.2082272     -0.00063358649
   6343000   0.050034037   -0.3187936      0.035489554   -0.20825783     1.7655532e-05
   6344000   0.050168278   -0.31889176     0.036048384   -0.20759581    -0.00014407562
   6345000   0.049780263   -0.31821351     0.035066393   -0.20848154     0.00053158687
   6346000   0.049466901   -0.31865589     0.035452642   -0.20900768     0.0010298064 
   6347000   0.049672576   -0.31891403     0.036267414   -0.20814256    -0.00069914911
   6348000   0.049987901   -0.31880142     0.035791121   -0.20803328    -0.00042636825
   6349000   0.050050149   -0.31844163     0.036049474   -0.20732178     0.00031674019
   6350000   0.05005315    -0.31862628     0.035854895   -0.2076965      9.822584e-05 
   6351000   0.04988546    -0.3183592      0.035870787   -0.20766505     0.00075965801
   6352000   0.049401543   -0.31827591     0.035706752   -0.20847162     0.0001109846 
   6353000   0.049943176   -0.31863279     0.035577743   -0.20814512    -0.0001525306 
   6354000   0.049842247   -0.31892285     0.035464824   -0.20869948     2.9139387e-05
   6355000   0.04956264    -0.31880654     0.035401897   -0.20906548     0.00028732696
   6356000   0.049713889   -0.31862953     0.035944854   -0.20811866    -0.00037089795
   6357000   0.0501571     -0.31898509     0.035659902   -0.2080944      0.00012260659
   6358000   0.04967495    -0.31835997     0.035538308   -0.20831405    -0.00053850094
   6359000   0.049187714   -0.31853088     0.035920642   -0.20883342     0.00027295237
   6360000   0.050250052   -0.31865976     0.035584337   -0.20770521     0.00036352502
   6361000   0.049880776   -0.31863925     0.03566818    -0.20815473     0.00019375253
   6362000   0.049876693   -0.31864058     0.036269809   -0.20756055    -0.00067789929
   6363000   0.05026302    -0.31872633     0.035919516   -0.20741715     0.00026097559
   6364000   0.05057384    -0.31827698     0.035454871   -0.20696625    -3.0265736e-06
   6365000   0.050444029   -0.31851854     0.035636881   -0.2072205     -5.2737659e-06
   6366000   0.049996167   -0.31851348     0.035776481   -0.20774759     0.00090912499
   6367000   0.05025313    -0.3187924      0.036007223   -0.20741035    -0.00032957404
   6368000   0.049670343   -0.31844145     0.035476873   -0.20846387     0.00049953787
   6369000   0.04965014    -0.31885397     0.036061567   -0.208322      -0.00021118989
   6370000   0.049468705   -0.31925488     0.036791081   -0.20826552    -0.00026375584
   6371000   0.050364956   -0.31880734     0.035637835   -0.20762694     5.5435255e-06
   6372000   0.050569944   -0.31838264     0.035004195   -0.20752842    -0.00054087734
   6373000   0.05041932    -0.31871761     0.03566174    -0.20743177     0.00059457357
   6374000   0.050117567   -0.31888625     0.035985906   -0.20772885    -0.00066034601
   6375000   0.049736758   -0.31899811     0.035865596   -0.20853219    -0.0013339157 
   6376000   0.050281424   -0.31910994     0.035338123   -0.20835454     0.00043175727
   6377000   0.050175784   -0.31870373     0.036023788   -0.20742113     0.00043042337
   6378000   0.050190378   -0.31897846     0.036110839   -0.20758691    -0.00066764852
   6379000   0.050095621   -0.31868978     0.036165196   -0.207386      -3.235995e-05 
   6380000   0.050495205   -0.31909189     0.035699843   -0.20765413     0.00058497604
   6381000   0.050214953   -0.3192901      0.035783296   -0.20818924     0.00012833069
   6382000   0.050385272   -0.31890802     0.036012663   -0.20732232     0.0003781896 
   6383000   0.049665395   -0.31858568     0.035736805   -0.20835559    -0.00079457454
   6384000   0.049753738   -0.31847877     0.035526268   -0.20832672    -0.00051546934
   6385000   0.049783563   -0.31865086     0.035509246   -0.20847108    -0.00045598959
   6386000   0.050432432   -0.3186678      0.035474869   -0.20754916     0.00037240682
   6387000   0.04998771    -0.31843147     0.035984436   -0.2074703      0.00054418974
   6388000   0.05060545    -0.31820773     0.035779993   -0.20652446     0.00024054712
   6389000   0.050214413   -0.31879995     0.035673341   -0.20780985    -0.00031479556
   6390000   0.050389633   -0.31881323     0.035793289   -0.20744037     0.00098719764
   6391000   0.050500194   -0.31866498     0.035863505   -0.20705607     0.00029514284
   6392000   0.050219279   -0.31874329     0.03667351    -0.20674572    -0.00077743026
   6393000   0.049666732   -0.31875818     0.035685057   -0.20857783    -0.00041747976
   6394000   0.049137037   -0.31872784     0.035770811   -0.20925623    -0.0005674867 
   6395000   0.049490343   -0.31862671     0.03544356    -0.20895242    -0.00025867937
   6396000   0.04987751    -0.31862616     0.035612845   -0.20820188     0.00045122502
   6397000   0.049984993   -0.31898206     0.035770327   -0.20823908    -0.00013575791
   6398000   0.049987458   -0.31921528     0.035922536   -0.2083164      0.00011468622
   6399000   0.04997879    -0.31883214     0.036310411   -0.20755838     0.00010865228
   6400000   0.049799495   -0.3187964      0.036102321   -0.20799966     0.00059435279
   6401000   0.049916695   -0.31881002     0.034913856   -0.20902596    -0.00022277134
   6402000   0.050133739   -0.31882448     0.035946035   -0.20768268     0.00059126233
   6403000   0.049772022   -0.31882028     0.035871894   -0.20829517     6.4719522e-05
   6404000   0.05009975    -0.31872035     0.035243987   -0.20833159     0.00054838098
   6405000   0.049813583   -0.31880734     0.035499329   -0.20859245     0.00028423213
   6406000   0.049906174   -0.31843702     0.035323545   -0.20825904    -0.00026875454
   6407000   0.049594948   -0.31896563     0.035762449   -0.20881556    -0.00020393163
   6408000   0.050044643   -0.31882122     0.036181632   -0.20757747     0.00030597272
   6409000   0.05039271    -0.31886388     0.036086707   -0.20719299     0.00015138088
   6410000   0.050192484   -0.31877422     0.035340902   -0.20814945     0.00086014791
   6411000   0.049756192   -0.31873503     0.035844824   -0.20826074    -0.00040954176
   6412000   0.050031652   -0.3189376      0.035427242   -0.20846772    -0.00011024733
   6413000   0.050533442   -0.31888183     0.035639881   -0.20744667     0.00045412368
   6414000   0.050590084   -0.31850709     0.035601397   -0.20702546    -0.00022340991
   6415000   0.05031151    -0.31912931     0.035790629   -0.20787628     0.00081436348
   6416000   0.049561921   -0.31895024     0.035934788   -0.20867737    -0.00041100383
   6417000   0.049805219   -0.31933225     0.035455438   -0.2091738      0.00046191889
   6418000   0.049822894   -0.31857699     0.035552186   -0.20829528     0.00056789886
   6419000   0.049906154   -0.31886386     0.036844214   -0.20716524     0.00045838918
   6420000   0.049686595   -0.3188129      0.035464112   -0.2088237      0.00080676144
   6421000   0.049959329   -0.31925854     0.036231499   -0.20809288    -9.1299365e-05
   6422000   0.049976094   -0.319162       0.035990645   -0.20821205     0.00014893265
   6423000   0.049557281   -0.3190886      0.035570506   -0.20918697     0.00016592481
   6424000   0.049604      -0.31926943     0.036021849   -0.20884638    -0.00041232446
   6425000   0.049086573   -0.31875656     0.035491265   -0.20964019     0.00070975189
   6426000   0.050601467   -0.31934762     0.035517249   -0.20793307    -0.00017499721
   6427000   0.050193685   -0.3186264      0.035430553   -0.20791018     0.00098232886
   6428000   0.049971507   -0.31889545     0.035649126   -0.2082939      0.001276242  
   6429000   0.049822573   -0.31918879     0.03625377    -0.20820598     6.3748408e-05
   6430000   0.049571069   -0.31899207     0.035771898   -0.20886837     0.00023572575
   6431000   0.049792998   -0.31868315     0.035645603   -0.20835287     0.0003297941 
   6432000   0.050344324   -0.31929327     0.035022982   -0.20875867    -0.00076463216
   6433000   0.049767243   -0.31923253     0.035927286   -0.20865919    -0.00029400862
   6434000   0.050154157   -0.31908377     0.035832538   -0.20802485    -0.00054070671
   6435000   0.050152798   -0.31889397     0.03567358    -0.20799604    -0.00016482853
   6436000   0.050285815   -0.31862393     0.035875242   -0.20732483     0.00018236167
   6437000   0.05019446    -0.31886        0.035454975   -0.20811819    -0.00013912551
   6438000   0.049760953   -0.31892553     0.035782751   -0.20850616     0.00036612501
   6439000   0.050435003   -0.31909024     0.035964952   -0.20747767    -7.5010311e-05
   6440000   0.049662295   -0.31928583     0.036469728   -0.20832746    -0.00046540762
   6441000   0.049863643   -0.31915274     0.035260666   -0.20910143    -9.3517167e-05
   6442000   0.050470435   -0.3188993      0.035751337   -0.2074472      6.4479785e-05
   6443000   0.049858789   -0.31861605     0.035864367   -0.20796833     0.00053102853
   6444000   0.050107536   -0.31890332     0.035902343   -0.20784452    -0.00076466918
   6445000   0.050509242   -0.31896771     0.036080976   -0.20712776     0.00093469001
   6446000   0.050447618   -0.31863311     0.036061772   -0.20690479    -1.3460369e-06
   6447000   0.050009128   -0.31915739     0.035762489   -0.20838605     0.00045160184
   6448000   0.049502826   -0.31867684     0.035936733   -0.20849065     8.0670761e-05
   6449000   0.05025334    -0.31880506     0.035174984   -0.20825493     0.0012067473 
   6450000   0.049825262   -0.31887142     0.035827708   -0.20831064    -0.00034408315
   6451000   0.050279795   -0.31863689     0.036583942   -0.20663812     0.00051157149
   6452000   0.050344959   -0.31872977     0.03597365    -0.20724356     0.00046496069
   6453000   0.050052445   -0.31867274     0.035725762   -0.20787315    -0.000266049  
   6454000   0.050066091   -0.31879564     0.036237402   -0.20746395    -0.0008271779 
   6455000   0.049568119   -0.3189477      0.035932444   -0.20866787    -0.00074215507
   6456000   0.050399776   -0.3186172      0.036126828   -0.20689558     0.00026915766
   6457000   0.049968396   -0.31860701     0.036156929   -0.20750232    -0.00019081711
   6458000   0.050052355   -0.31825347     0.035939511   -0.20724027     0.0006334377 
   6459000   0.050748742   -0.31921347     0.035813214   -0.20728206     0.00055323944
   6460000   0.050101096   -0.31895953     0.035494071   -0.20831866     0.00024104892
   6461000   0.049941229   -0.31870924     0.035783972   -0.20801825     0.00074639656
   6462000   0.050223342   -0.31897196     0.035592736   -0.20804907    -0.00061287712
   6463000   0.050061749   -0.31900324     0.035554351   -0.20836111    -7.4981312e-05
   6464000   0.049989774   -0.31921653     0.036243207   -0.20799349    -0.00030552295
   6465000   0.049908375   -0.31888445     0.035604522   -0.2084222     -0.00061241567
   6466000   0.050407812   -0.31894793     0.035854964   -0.20748613    -0.00021639144
   6467000   0.049680086   -0.31848523     0.036075621   -0.20789429    -0.00076372442
   6468000   0.049402304   -0.31862481     0.036206214   -0.20831993     6.9000493e-05
   6469000   0.050170442   -0.31914042     0.035611537   -0.20827807    -0.00011114777
   6470000   0.050187539   -0.3187692      0.036324188   -0.20716856     0.00027285068
   6471000   0.050480365   -0.31891546     0.035515045   -0.20768476     0.00049991963
   6472000   0.049828594   -0.31915378     0.035829472   -0.20858624     1.1046372e-05
   6473000   0.050171825   -0.31860774     0.03528871    -0.20806615    -0.00013913019
   6474000   0.049812653   -0.31878151     0.036477848   -0.2075895      0.00055801232
   6475000   0.049942423   -0.31907303     0.035546905   -0.20861732    -0.00017782028
   6476000   0.05008229    -0.31895771     0.036498798   -0.20734033    -0.00042371202
   6477000   0.050349307   -0.31927198     0.035999956   -0.20775293     0.00016102793
   6478000   0.049590708   -0.31937447     0.035902614   -0.20909059     0.0005577796 
   6479000   0.050014482   -0.31889686     0.035892449   -0.20798753    -0.00022530714
   6480000   0.049396311   -0.3190085      0.036008615   -0.20891019    -0.00018240611
   6481000   0.05012472    -0.31914658     0.035468474   -0.20849588    -0.00037169767
   6482000   0.050130437   -0.31886218     0.035474061   -0.20819732    -6.396195e-05 
   6483000   0.049989608   -0.31884783     0.035678059   -0.2081902     -9.8331192e-05
   6484000   0.050597574   -0.31928988     0.036246734   -0.20715168    -0.00019332393
   6485000   0.049350347   -0.31858356     0.035631605   -0.20893121     0.0013472883 
   6486000   0.049863684   -0.31908077     0.035305806   -0.20898426    -0.00014922475
   6487000   0.050513464   -0.3190863      0.034997134   -0.20832386     0.00025966377
   6488000   0.049863775   -0.31882861     0.035899611   -0.20813816    -5.590982e-05 
   6489000   0.050506818   -0.31887023     0.035620794   -0.2074941     -0.00025129687
   6490000   0.049914813   -0.31868491     0.03614706    -0.20767046    -0.00011458377
   6491000   0.050416058   -0.31897019     0.036266869   -0.20708411    -0.00032629963
   6492000   0.050128573   -0.31897736     0.035795931   -0.20799342     0.00081135513
   6493000   0.049920481   -0.31880802     0.036053042   -0.20787909     0.00016145101
   6494000   0.050103255   -0.31922718     0.036415028   -0.20766212     0.00041736816
   6495000   0.049910524   -0.31916633     0.03648667    -0.20781871    -6.2168448e-05
   6496000   0.049862702   -0.31902533     0.03552939    -0.20870671     0.00053584058
   6497000   0.050073596   -0.31890398     0.035895619   -0.20790282     0.0003788934 
   6498000   0.050383908   -0.31874902     0.035918811   -0.20725922    -0.00076875102
   6499000   0.050244091   -0.31918242     0.035645302   -0.20817585    -0.00050600067
   6500000   0.050197595   -0.31897331     0.035902383   -0.20777939     0.0010436828 
   6501000   0.049919469   -0.31925757     0.035794477   -0.20858872    -0.00046774769
   6502000   0.049825534   -0.31899685     0.036209956   -0.20805342     0.0004281028 
   6503000   0.050310498   -0.31889653     0.035626785   -0.20780887     0.00023937703
   6504000   0.049869881   -0.3191         0.035745016   -0.20855499     2.4850466e-05
   6505000   0.050224323   -0.31889764     0.035719492   -0.20784652    -8.493164e-05 
   6506000   0.050291159   -0.31912878     0.036059251   -0.20763766     8.4702307e-05
   6507000   0.049875848   -0.31926044     0.035706613   -0.20874489    -0.00036247114
   6508000   0.049966211   -0.31890179     0.035457474   -0.20849983    -0.00078400109
   6509000   0.050180333   -0.31897498     0.035889854   -0.20781948     0.00081643576
   6510000   0.049522789   -0.3190817      0.035588458   -0.20921385    -0.00091847866
   6511000   0.050110844   -0.31930974     0.035433498   -0.20871482     0.00060757952
   6512000   0.049846688   -0.31897521     0.034994914   -0.20921509     0.00060711783
   6513000   0.05009646    -0.31874594     0.03642963    -0.20717646    -2.8627997e-05
   6514000   0.049865364   -0.31872955     0.036063808   -0.20787252     0.00068814452
   6515000   0.050702706   -0.31882067     0.035845811   -0.20692571    -0.00066884924
   6516000   0.050565169   -0.31893257     0.035938398   -0.20715131    -0.00094973552
   6517000   0.049878257   -0.31931697     0.035565116   -0.2089393      0.0004271165 
   6518000   0.050279404   -0.31893433     0.035785892   -0.2077342     -0.00025717782
   6519000   0.050321369   -0.3191366      0.035653597   -0.20800582     0.00044812722
   6520000   0.049489521   -0.31889737     0.035677906   -0.20898997     0.00047005922
   6521000   0.049471229   -0.31891727     0.03587824    -0.20883697    -0.00065143571
   6522000   0.049872463   -0.31901214     0.035686158   -0.20852212     0.00016195974
   6523000   0.049962781   -0.31907903     0.036184622   -0.20795508    -0.00030603576
   6524000   0.050252892   -0.31906801     0.035787485   -0.20790605     0.00027190601
   6525000   0.050271566   -0.31930077     0.036076356   -0.20782193     0.00038328025
   6526000   0.0501162     -0.31904957     0.036085099   -0.20779502     0.00045377711
   6527000   0.050327922   -0.31872809     0.036579809   -0.20666127     0.00096507143
   6528000   0.050083698   -0.3191085      0.036442599   -0.2075452      0.00021886775
   6529000   0.050124433   -0.31871003     0.035796688   -0.20773154    -0.00028475972
   6530000   0.049825332   -0.31892664     0.036421094   -0.20777237     0.00071125279
   6531000   0.049894061   -0.31947104     0.036063243   -0.20857153     0.00053631199
   6532000   0.049366177   -0.31889066     0.035946983   -0.20889919    -0.00019100321
   6533000   0.049695682   -0.31909328     0.036151743   -0.20840282    -0.00078970208
   6534000   0.050033468   -0.3187826      0.035364993   -0.20837225     0.00030487005
   6535000   0.050042186   -0.31887253     0.035464456   -0.20834963    -0.00020313345
   6536000   0.049470731   -0.31905593     0.036003758   -0.20885086    -0.00027184094
   6537000   0.049450961   -0.31904218     0.036433054   -0.20843747    -0.0003590691 
   6538000   0.050118774   -0.31903867     0.035807788   -0.20805757     0.00026917342
   6539000   0.050107353   -0.31869401     0.035726364   -0.20781147     0.00016632395
   6540000   0.049743536   -0.31869309     0.036247222   -0.20783537     0.00045280586
   6541000   0.050434867   -0.31878272     0.035813825   -0.20732148     3.8217747e-05
   6542000   0.050316595   -0.31906531     0.036432779   -0.2071625     -0.00040466923
   6543000   0.049693482   -0.31878216     0.035704612   -0.20854213    -8.6939129e-05
   6544000   0.049821654   -0.31914665     0.034929571   -0.20948942     0.00025935946
   6545000   0.049440767   -0.31941112     0.03616165    -0.2090931     -0.00074748854
   6546000   0.050338104   -0.31902419     0.035587734   -0.20793417     0.00071741851
   6547000   0.050233465   -0.31880568     0.035738596   -0.20772175     6.3992182e-06
   6548000   0.050713326   -0.31866754     0.035426998   -0.20717546     0.00032254324
   6549000   0.050455682   -0.31884674     0.036058858   -0.20710924     0.00035528874
   6550000   0.049985644   -0.31932029     0.036224874   -0.20812179    -0.00074674389
   6551000   0.049523339   -0.31892685     0.035921259   -0.20872538     0.00096819312
   6552000   0.050044412   -0.31903824     0.036243454   -0.20773301     0.0012227661 
   6553000   0.050079384   -0.31902174     0.035601401   -0.20830611     9.6946526e-05
   6554000   0.050067178   -0.31946558     0.036350679   -0.20801898    -0.0005248647 
   6555000   0.049961448   -0.31929013     0.036215998   -0.2081368      0.0001979677 
   6556000   0.050046682   -0.31899201     0.035744562   -0.20818226    -0.00069364945
   6557000   0.050219623   -0.31929311     0.03562233    -0.2083462      0.00028137936
   6558000   0.050142471   -0.31929454     0.035560254   -0.20852543     0.00026004402
   6559000   0.049877244   -0.31905092     0.035710939   -0.20852894     2.8995597e-06
   6560000   0.050374256   -0.31927043     0.035969995   -0.20774392    -0.00077853722
   6561000   0.049864498   -0.31928514     0.035958497   -0.20853472     0.001222927  
   6562000   0.050470229   -0.31882677     0.036451007   -0.20667531     0.00011970799
   6563000   0.050284927   -0.3189338      0.035425208   -0.20808606     3.5924413e-05
   6564000   0.049686619   -0.31916919     0.036461303   -0.20818277     0.0004017085 
   6565000   0.050509043   -0.31886756     0.035535486   -0.2075734     -0.00012987211
   6566000   0.050933879   -0.31908204     0.035735789   -0.20695036    -0.00046585228
   6567000   0.04965095    -0.3190792      0.035796532   -0.20881105     0.00032004747
   6568000   0.04994667    -0.31940227     0.035558267   -0.20892883    -2.9609724e-05
   6569000   0.049900558   -0.31894157     0.035420063   -0.2086755      0.00026944121
   6570000   0.050440051   -0.31866397     0.035625926   -0.20738285     1.1946176e-05
   6571000   0.050459235   -0.3188392      0.036061177   -0.20709405     5.899938e-05 
   6572000   0.049878851   -0.31887546     0.035984591   -0.20807742     4.4138371e-05
   6573000   0.049529777   -0.31911061     0.036211878   -0.20860886    -0.0010850858 
   6574000   0.050870659   -0.31928964     0.035721369   -0.20726721     8.0483257e-05
   6575000   0.049646411   -0.3192995      0.036099935   -0.20873475    -0.00079689299
   6576000   0.049446058   -0.31876827     0.035988871   -0.20861509    -1.8475172e-05
   6577000   0.050171616   -0.31902186     0.035952098   -0.20781719    -0.00047463193
   6578000   0.049994968   -0.31905657     0.035908007   -0.20816095    -0.00012509859
   6579000   0.049633992   -0.31892854     0.036361583   -0.20812078    -3.2123499e-05
   6580000   0.049779283   -0.31888128     0.036110875   -0.2081063      0.0012547004 
   6581000   0.049482831   -0.3185177      0.035649557   -0.20864868     0.00099416101
   6582000   0.049698609   -0.31855217     0.036212412   -0.20779665     0.00032518432
   6583000   0.050178812   -0.31910966     0.035664014   -0.20818228    -0.00033677808
   6584000   0.049801299   -0.31854219     0.036003481   -0.20784158     0.00017404129
   6585000   0.050006938   -0.31902402     0.035412485   -0.20860596     0.00099863234
   6586000   0.04922364    -0.31864634     0.035920283   -0.20889536    -5.6596039e-06
   6587000   0.049361298   -0.31901817     0.036213785   -0.20876721     0.00025971353
   6588000   0.049515171   -0.31874441     0.035756191   -0.20872026    -0.0001181461 
   6589000   0.049739059   -0.31896974     0.035714309   -0.20865166    -0.00026884725
   6590000   0.04935163    -0.31898271     0.035384123   -0.20957591    -8.9963743e-05
   6591000   0.050007011   -0.31877464     0.035449529   -0.20831944    -0.00034568802
   6592000   0.049674764   -0.31902604     0.035397051   -0.20912165     0.00037071451
   6593000   0.049980579   -0.31911808     0.035227769   -0.20892428     0.00018252805
   6594000   0.049645      -0.31900297     0.03551421    -0.20902606     0.00084480306
   6595000   0.049399902   -0.31897234     0.035755225   -0.20912204    -0.00052796772
   6596000   0.050190319   -0.31887409     0.035432813   -0.20816066    -0.00012673504
   6597000   0.050379838   -0.31895475     0.035889194   -0.20750068     0.00042744966
   6598000   0.050471735   -0.31864579     0.035835841   -0.20710723     0.00051992905
   6599000   0.050296218   -0.31899414     0.03604807    -0.20750661     0.00017538586
   6600000   0.049842813   -0.31875754     0.036128288   -0.20786985    -0.00027025384
   6601000   0.050659007   -0.31923        0.035501032   -0.20774536    -0.00033208053
   6602000   0.050735434   -0.31852846     0.035671781   -0.20675843    -0.00011641413
   6603000   0.049848541   -0.31897652     0.036041614   -0.20816692     0.00045904516
   6604000   0.049666266   -0.31889557     0.035868376   -0.20853261     0.00027257171
   6605000   0.049600054   -0.31870042     0.035200439   -0.2091047      0.00048917755
   6606000   0.049665171   -0.31904909     0.034988581   -0.20956756    -0.00022151276
   6607000   0.049562124   -0.31893082     0.036004387   -0.20858804    -0.00012385835
   6608000   0.049842758   -0.31886859     0.035855779   -0.20825349     0.00088208951
   6609000   0.049657558   -0.31893582     0.03558174    -0.20887255     0.0013690111 
   6610000   0.049614405   -0.31919489     0.035697718   -0.20908036    -0.00018338503
   6611000   0.050460487   -0.31938001     0.035773282   -0.20792089    -0.00037974454
   6612000   0.050071893   -0.31940086     0.035930984   -0.20836688    -0.00059911364
   6613000   0.050055128   -0.31924263     0.035534097   -0.20863069     0.00064520179
   6614000   0.050093496   -0.31892712     0.03569712    -0.2080946      0.00020040902
   6615000   0.049750687   -0.31893727     0.036630645   -0.20768541    -0.00086559706
   6616000   0.050018019   -0.31933596     0.035259385   -0.20905439     0.00032870224
   6617000   0.049731999   -0.31904274     0.036889107   -0.20756044     9.7146599e-05
   6618000   0.050570956   -0.31887392     0.036244135   -0.20677824     0.00042670729
   6619000   0.050355116   -0.3190731      0.036609035   -0.20693627    -0.00025851052
   6620000   0.050300665   -0.3191121      0.035659918   -0.20800605     0.00091586472
   6621000   0.049747804   -0.31893094     0.035932241   -0.20838181    -0.00011362457
   6622000   0.050242666   -0.3190351      0.035378243   -0.20829772     0.00036898209
   6623000   0.049591825   -0.31928862     0.035859831   -0.20904585    -0.00017371767
   6624000   0.049480612   -0.31891634     0.035974544   -0.20872566     0.00072523436
   6625000   0.049278762   -0.31915791     0.034994603   -0.21024994    -0.00022855584
   6626000   0.049276482   -0.31891891     0.035259095   -0.20974986     3.5261491e-05
   6627000   0.049584758   -0.31931238     0.035854325   -0.20908572     0.00023062208
   6628000   0.049303991   -0.31930727     0.036216931   -0.20913913    -0.00077164537
   6629000   0.049385682   -0.3186188      0.036151528   -0.20839353    -0.00026747247
   6630000   0.049597294   -0.31881765     0.035394      -0.20903251     0.00045624466
   6631000   0.049963967   -0.31913302     0.035567113   -0.20862479    -0.00046738619
   6632000   0.049929882   -0.31923022     0.035922021   -0.20841821    -0.00079860703
   6633000   0.049733155   -0.31892005     0.035383705   -0.20894143     0.00048659363
   6634000   0.049939893   -0.31962313     0.035789858   -0.20892826    -0.00065113612
   6635000   0.050566396   -0.31914649     0.035923933   -0.20737786    -0.00028007747
   6636000   0.050213519   -0.31909279     0.035920393   -0.20785698     8.4974771e-05
   6637000   0.04989584    -0.31927657     0.035470691   -0.20896695    -0.00034321888
   6638000   0.050585094   -0.31903998     0.035857767   -0.20730947    -0.00074689211
   6639000   0.050238763   -0.3189812      0.036490286   -0.20713763    -3.6637846e-06
   6640000   0.050131335   -0.319021       0.036429994   -0.20739885     1.9490714e-05
   6641000   0.050353642   -0.31920334     0.035904301   -0.20777344     0.00059696312
   6642000   0.050473362   -0.318891       0.035976763   -0.20720907     0.00064221493
   6643000   0.049817768   -0.31885851     0.035697439   -0.20843924    -0.00012175158
   6644000   0.05019093    -0.31894416     0.036006312   -0.20765631    -0.0009922105 
   6645000   0.050414152   -0.31908846     0.035718103   -0.207754      -0.00013388172
   6646000   0.049907385   -0.31901465     0.036213682   -0.20794472    -0.00084753035
   6647000   0.05026242    -0.31915025     0.035202649   -0.20855884     0.0012737841 
   6648000   0.050253237   -0.31907246     0.036005083   -0.20769238    -0.00030217806
   6649000   0.049769672   -0.31935263     0.036077979   -0.20862496    -0.00034915658
   6650000   0.049895042   -0.31930307     0.035230898   -0.20923443     0.00071013445
   6651000   0.049746104   -0.31906867     0.035712837   -0.20874149    -5.1097088e-05
   6652000   0.0495247     -0.31955554     0.035642897   -0.20963039    -0.00064268321
   6653000   0.049918773   -0.31925583     0.035238503   -0.209144      -0.00071693655
   6654000   0.050329631   -0.31916109     0.035633365   -0.20803815     0.00026897279
   6655000   0.050037985   -0.31914685     0.03592915    -0.20816556     3.1601784e-06
   6656000   0.04977598    -0.31966953     0.036135129   -0.20887525    -0.00010626522
   6657000   0.049638848   -0.31915742     0.035400441   -0.20930351     0.00038845374
   6658000   0.050481639   -0.3192774      0.035556697   -0.20800313    -0.00042048034
   6659000   0.050230498   -0.31962811     0.035161013   -0.20912621    -0.00026247555
   6660000   0.049804584   -0.31955174     0.035875205   -0.20897448    -7.9025673e-05
   6661000   0.04982085    -0.31882849     0.03592116    -0.20818088     0.00024233619
   6662000   0.049698476   -0.31926668     0.03597247    -0.2087513     -0.00064739822
   6663000   0.049724301   -0.31933211     0.035856842   -0.20889363     0.00047602147
   6664000   0.049689397   -0.31929447     0.035688139   -0.20907705    -0.0005859341 
   6665000   0.049836242   -0.31974265     0.035022669   -0.20997044     0.00067010838
   6666000   0.049846554   -0.31931193     0.035782235   -0.20876468     0.00067898496
   6667000   0.050370927   -0.31922358     0.035524953   -0.20814711    -0.00017053259
   6668000   0.050249068   -0.31942994     0.035508663   -0.20855254     0.00095360087
   6669000   0.050002529   -0.31924521     0.035526349   -0.20871991     0.00028897041
   6670000   0.050251683   -0.31910841     0.036528054   -0.2072077      0.00019065187
   6671000   0.049770602   -0.31903966     0.03599089    -0.20839769    -0.00058911989
   6672000   0.049577265   -0.31954847     0.035874211   -0.20931316    -1.234855e-05 
   6673000   0.049683658   -0.31951708     0.035741189   -0.20925522    -1.3870046e-05
   6674000   0.049803319   -0.31897202     0.035415885   -0.20885597     0.00028119196
   6675000   0.049838805   -0.31906058     0.036032877   -0.20827432    -8.3371554e-05
   6676000   0.049627621   -0.31926593     0.035820484   -0.20900881    -5.1399821e-05
   6677000   0.050442189   -0.31925541     0.035620147   -0.20797686     0.00033062195
   6678000   0.049637675   -0.31961998     0.035691597   -0.20947667    -0.00024032393
   6679000   0.049766407   -0.31944508     0.035931654   -0.20886863     6.4850098e-05
   6680000   0.050127104   -0.31934894     0.035509357   -0.20865378     3.7505142e-05
   6681000   0.050483185   -0.31935993     0.03602392    -0.20761611     0.00052249094
   6682000   0.050229426   -0.31947553     0.03543117    -0.20870508    -8.3199923e-05
   6683000   0.049481811   -0.31943942     0.035412511   -0.20980898     0.00070824145
   6684000   0.049476759   -0.31958251     0.036296834   -0.20907533    -0.00044897616
   6685000   0.050332711   -0.31924373     0.035874632   -0.2078749     -5.6799473e-05
   6686000   0.049912534   -0.31951593     0.035300813   -0.20935115    -0.00017635198
   6687000   0.050490835   -0.31939284     0.035981629   -0.20767984     4.225591e-05 
   6688000   0.0501158     -0.31959702     0.035572911   -0.20885525    -9.2358949e-05
   6689000   0.049966147   -0.31956813     0.035455493   -0.20916825     0.00030015315
   6690000   0.050140645   -0.31924559     0.036114431   -0.20792504     0.0010464896 
   6691000   0.050975322   -0.31922253     0.036087229   -0.20667725     2.1525187e-05
   6692000   0.050244812   -0.3190209      0.035860918   -0.20779763    -8.6360529e-05
   6693000   0.049619542   -0.31922992     0.035743261   -0.20906215     0.00010579894
   6694000   0.049573307   -0.3189574      0.035325913   -0.20927633     0.0002782855 
   6695000   0.049810045   -0.31967105     0.036021902   -0.2089389     -0.0010393128 
   6696000   0.04962603    -0.31941102     0.035992762   -0.20898402    -0.00052564955
   6697000   0.049489564   -0.31965565     0.035529558   -0.20989654    -0.00020033043
   6698000   0.050008348   -0.31953607     0.035956508   -0.20857187    -0.0004778848 
   6699000   0.050046769   -0.31954204     0.036011551   -0.20846518    -0.000456545  
   6700000   0.049819354   -0.31964721     0.035763578   -0.20915942    -0.00050319588
   6701000   0.04965414    -0.31967131     0.035471178   -0.20972373    -0.0001050573 
   6702000   0.050123707   -0.31985011     0.035430806   -0.2092386      0.00068324682
   6703000   0.050154833   -0.31914373     0.035600244   -0.20831609     5.0945412e-05
   6704000   0.050472903   -0.31928727     0.035211613   -0.20837119     0.00082140228
   6705000   0.050053706   -0.31936081     0.036352675   -0.20793242    -8.1952835e-05
   6706000   0.049832902   -0.31922552     0.035927805   -0.20855318     0.00057148073
   6707000   0.049731783   -0.31979185     0.035351057   -0.20984793     0.00016113159
   6708000   0.049871345   -0.31966322     0.035727301   -0.20913373    -0.00099515543
   6709000   0.049345335   -0.31938622     0.035746721   -0.20962627     0.00040403205
   6710000   0.049797172   -0.31930748     0.035544709   -0.20907183    -0.0008246288 
   6711000   0.049689965   -0.3192055      0.035322741   -0.20935262    -0.00066226218
   6712000   0.050187847   -0.31952458     0.035246898   -0.20900077     0.0015234641 
   6713000   0.050304061   -0.31945161     0.035616516   -0.20838387     2.0305335e-05
   6714000   0.050191343   -0.31919756     0.035697346   -0.20821806     0.00015395383
   6715000   0.050100041   -0.31957792     0.035872575   -0.20856014     0.00076486339
   6716000   0.049898695   -0.31963223     0.035810048   -0.20897897     0.00057433939
   6717000   0.049739935   -0.31927716     0.035784715   -0.20888736     0.0011504296 
   6718000   0.049495458   -0.31931205     0.035651484   -0.20942217     0.0005332206 
   6719000   0.049494902   -0.31933549     0.036154821   -0.2089431      0.00012216045
   6720000   0.049827521   -0.32004069     0.035686596   -0.20961764     0.00061339359
   6721000   0.049480459   -0.31910376     0.035811281   -0.20907658     0.00052419503
   6722000   0.049489004   -0.31967115     0.036202599   -0.20923984    -2.8596724e-05
   6723000   0.049903585   -0.31984053     0.035577085   -0.2094129      0.00024573993
   6724000   0.049865228   -0.31971507     0.03561262    -0.20930943     0.00034441257
   6725000   0.049867968   -0.31937359     0.035621753   -0.20895471     0.0001574871 
   6726000   0.050068595   -0.32010126     0.036106932   -0.20889628    -7.0939668e-05
   6727000   0.049599449   -0.31925536     0.035976228   -0.20888476     0.00010512741
   6728000   0.04996808    -0.31955193     0.035720834   -0.20888381     0.00023910695
   6729000   0.049745309   -0.31948335     0.035587892   -0.20928231     0.0003770701 
   6730000   0.050263231   -0.31902895     0.035568866   -0.2080701      0.00030622046
   6731000   0.050408927   -0.31951217     0.035748692   -0.20815497    -0.00030248426
   6732000   0.050511963   -0.31931689     0.036189793   -0.20736404     4.6234885e-05
   6733000   0.050445538   -0.31977681     0.03619984    -0.20791354     0.00019487785
   6734000   0.050609053   -0.31992136     0.035615126   -0.20839755    -0.00043263113
   6735000   0.04971622    -0.31980721     0.035579637   -0.20965805     0.00059763966
   6736000   0.049635133   -0.3196391      0.03585355    -0.20933765    -0.00011574144
   6737000   0.049940759   -0.31981011     0.035906012   -0.20899779     0.0010609025 
   6738000   0.050346421   -0.31966889     0.035935024   -0.2082191      0.00027849768
   6739000   0.050042647   -0.31947014     0.035942583   -0.20846843     0.00049222271
   6740000   0.049940083   -0.31949429     0.035462683   -0.20912632    -0.00012319168
   6741000   0.049502136   -0.31961876     0.035740045   -0.2096303     -4.7948295e-05
   6742000   0.04983893    -0.31976467     0.035950331   -0.20906076    -0.00050745282
   6743000   0.050184073   -0.31962135     0.035861738   -0.20848836     0.00032480235
   6744000   0.050112344   -0.31960543     0.036357197   -0.20808457     0.00030558762
   6745000   0.050692692   -0.31942968     0.035853303   -0.20754225     0.00024984519
   6746000   0.050158368   -0.31970149     0.036421699   -0.20804709    -0.0009274614 
   6747000   0.050421081   -0.32001674     0.03578652    -0.20860348    -8.1773417e-05
   6748000   0.050463987   -0.31942672     0.035817407   -0.20791822    -0.0001951566 
   6749000   0.050540487   -0.32000164     0.036795327   -0.20740047    -0.00042486266
   6750000   0.050279081   -0.31988517     0.036032009   -0.20843941     0.00079743442
   6751000   0.050039074   -0.31989295     0.035611035   -0.20922815    -4.9229417e-05
   6752000   0.049915253   -0.31998192     0.035257673   -0.2098562      0.00035720929
   6753000   0.050247899   -0.31975806     0.035839492   -0.20855158     0.00023285064
   6754000   0.050210087   -0.31990823     0.036000626   -0.20859733    -0.00063244892
   6755000   0.05045978    -0.31972229     0.035907731   -0.20812977    -0.00017718533
   6756000   0.050346999   -0.31959734     0.036031175   -0.20805054     4.0336232e-05
   6757000   0.050211876   -0.31974661     0.036585119   -0.20784853    -0.00067506685
   6758000   0.050498988   -0.31991337     0.035047813   -0.20912196    -0.00020366184
   6759000   0.049756851   -0.31975802     0.035816505   -0.20931105     0.00062873353
   6760000   0.05033295    -0.31959666     0.035865091   -0.20823702     5.7134116e-05
   6761000   0.050331502   -0.31978132     0.036396626   -0.20789231    -0.00043076824
   6762000   0.050101354   -0.3197001      0.035665259   -0.20888766     2.4839728e-05
   6763000   0.049888554   -0.31955163     0.036030257   -0.20869337     0.00035088274
   6764000   0.050062797   -0.31977611     0.036298491   -0.20838827    -0.00013845709
   6765000   0.049715187   -0.31981962     0.036447246   -0.20880441    -0.00023234601
   6766000   0.050270106   -0.31989154     0.03564218    -0.20884907     5.6227211e-05
   6767000   0.049441345   -0.31939967     0.036428572   -0.20881387    -8.2498826e-05
   6768000   0.049918279   -0.31978233     0.036150277   -0.20875947    -0.00072668183
   6769000   0.049947181   -0.31992718     0.035461791   -0.20954945     0.00012381908
   6770000   0.050188736   -0.31974837     0.035592112   -0.20887801     0.00018372584
   6771000   0.050083859   -0.32013032     0.035966411   -0.20904297     0.00025025726
   6772000   0.049841531   -0.32015434     0.036212852   -0.20918401     0.00041502372
   6773000   0.049773654   -0.3199495      0.035782782   -0.20951105     0.00065083252
   6774000   0.050207167   -0.31964144     0.03569778    -0.20863777    -0.00067126079
   6775000   0.050513036   -0.31936988     0.035568863   -0.20803635    -0.00018618295
   6776000   0.050185555   -0.31999671     0.035622784   -0.20910045     0.0010277233 
   6777000   0.050404058   -0.32004443     0.036276175   -0.20816704    -0.00081706116
   6778000   0.050175006   -0.31996962     0.035779304   -0.20893267     6.030929e-05 
   6779000   0.049503686   -0.31993557     0.036563762   -0.20912107    -0.00031298892
   6780000   0.050202597   -0.31989701     0.035305041   -0.20929293    -5.5898504e-05
   6781000   0.0499959     -0.31985656     0.035569993   -0.20929756    -5.5837132e-06
   6782000   0.049654349   -0.32006818     0.035316172   -0.21027529    -0.00050438602
   6783000   0.050302922   -0.32011615     0.035923234   -0.2087434      2.2128074e-06
   6784000   0.0496204     -0.31991526     0.036411159   -0.20907831    -0.000703763  
   6785000   0.050622582   -0.32038626     0.035897763   -0.20855952     0.0004217812 
   6786000   0.050091385   -0.31986557     0.036118138   -0.2086152     -0.00053725686
   6787000   0.049804562   -0.32017966     0.036463388   -0.20901425     0.00072730471
   6788000   0.049749068   -0.32002427     0.035885794   -0.20951969    -0.00017135509
   6789000   0.050001285   -0.31975559     0.035778963   -0.20897954    -0.00023019772
   6790000   0.049787122   -0.32032479     0.035733505   -0.20991542     0.00029197922
   6791000   0.049447679   -0.32027678     0.036081333   -0.21002872    -0.00066803038
   6792000   0.049721433   -0.31994256     0.035626396   -0.20973882     0.00088235197
   6793000   0.050612771   -0.31957801     0.035938881   -0.20772487    -4.7196799e-05
   6794000   0.050127188   -0.31996253     0.035685678   -0.20909092     7.5848122e-05
   6795000   0.050213169   -0.31997236     0.035889661   -0.2087678      0.00058331777
   6796000   0.050258116   -0.31998855     0.036191451   -0.20841479     0.00015742947
   6797000   0.049863218   -0.31998427     0.035788099   -0.20940616    -0.00038518055
   6798000   0.049585235   -0.31999427     0.03594797    -0.20967325     0.0011675538 
   6799000   0.050202871   -0.31975161     0.035123387   -0.20932877     0.00072977919
   6800000   0.05011323    -0.31982264     0.03587958    -0.20877806    -0.00012169143
   6801000   0.049783499   -0.32035228     0.036191221   -0.20949062     0.00039086515
   6802000   0.050195917   -0.3197541      0.035536183   -0.2089289      0.00023661336
   6803000   0.049672237   -0.31989529     0.035869826   -0.20952191     0.00027456298
   6804000   0.049826916   -0.31998771     0.035530349   -0.20972181    -0.00041442279
   6805000   0.05022924    -0.32024535     0.03546785    -0.2094385      1.9893334e-05
   6806000   0.049733487   -0.32018246     0.035983414   -0.20960363    -9.604831e-06 
   6807000   0.050390201   -0.3200048      0.035668296   -0.20875608     0.0011873047 
   6808000   0.049541115   -0.31983035     0.035684981   -0.20983849     0.0011156053 
   6809000   0.049775262   -0.31980455     0.035801718   -0.20934476    -0.00045534351
   6810000   0.050348714   -0.32003603     0.035213363   -0.20930447    -2.0188762e-05
   6811000   0.049882527   -0.3197461      0.036171446   -0.20875569     0.00036152147
   6812000   0.050098634   -0.32049756     0.035564128   -0.20979033     7.6019483e-05
   6813000   0.050442644   -0.32025653     0.036188372   -0.20840908     0.00056414524
   6814000   0.049954453   -0.31985487     0.035737282   -0.20919074    -0.00028064976
   6815000   0.049687441   -0.31991922     0.03657654    -0.20881633    -0.00038128588
   6816000   0.049742869   -0.32001224     0.035704463   -0.20969828     0.00012731629
   6817000   0.049276972   -0.31988479     0.035087982   -0.21088612     0.00039865374
   6818000   0.050088055   -0.31972452     0.035199142   -0.20939814     0.00017091998
   6819000   0.050181663   -0.32024499     0.03542775    -0.20954961     0.00014991723
   6820000   0.050847511   -0.32004218     0.035316774   -0.20845906     7.5134145e-05
   6821000   0.049694087   -0.31990167     0.035713049   -0.2096523     -7.8753221e-05
   6822000   0.049619067   -0.32038057     0.035333996   -0.21062277    -0.00021727622
   6823000   0.049610547   -0.32008479     0.035221199   -0.21045257     0.00034637984
   6824000   0.050278703   -0.32018755     0.034582659   -0.2101917      0.00029469771
   6825000   0.0497897     -0.32023227     0.035905907   -0.20964663    -0.00044496142
   6826000   0.049876881   -0.32004558     0.035910935   -0.20932415    -0.00041096483
   6827000   0.049255853   -0.31990088     0.035329648   -0.21069222     2.2677245e-05
   6828000   0.049973324   -0.32046069     0.035212375   -0.21029317     0.00044892854
   6829000   0.049549865   -0.32022826     0.035761635   -0.21014662     0.00020291214
   6830000   0.050014238   -0.32037153     0.036051014   -0.209304       0.00020242085
   6831000   0.049988222   -0.31998082     0.035816198   -0.20918712    -0.00032922817
   6832000   0.050370312   -0.32034527     0.036135209   -0.20865947     0.0001815757 
   6833000   0.049581194   -0.32038711     0.035971786   -0.21004833     0.00054309377
   6834000   0.049803636   -0.32049214     0.035265799   -0.2105257      0.0001423762 
   6835000   0.050033353   -0.32004102     0.035895116   -0.20910071    -0.00089816834
   6836000   0.049163732   -0.32031047     0.036182733   -0.2103869     -0.00059054672
   6837000   0.049955743   -0.32054809     0.035656148   -0.20996316    -0.00031877434
   6838000   0.050395486   -0.32010793     0.036273827   -0.20824575     7.0125292e-05
   6839000   0.050094627   -0.32030544     0.036051074   -0.20911728     0.0004548397 
   6840000   0.050717301   -0.32056955     0.036638803   -0.2078597      0.00076071782
   6841000   0.050091829   -0.32057828     0.035971368   -0.20947402    -0.00093447479
   6842000   0.050541786   -0.32041217     0.036718259   -0.20788612    -0.00044913451
   6843000   0.05059496    -0.32024688     0.036100552   -0.20825878    -2.2394068e-05
   6844000   0.050354644   -0.32053878     0.035720258   -0.20929143    -0.00019806032
   6845000   0.049687115   -0.32009682     0.036085112   -0.20948584    -0.00031082745
   6846000   0.050047009   -0.32058144     0.035578428   -0.20993735     0.00020963537
   6847000   0.050735372   -0.32023731     0.035977645   -0.20816152     9.4457353e-06
   6848000   0.050526418   -0.32082447     0.03586913    -0.2091706     -0.0014516962 
   6849000   0.049448665   -0.3203227      0.036045106   -0.21010938    -0.00018382905
   6850000   0.049673456   -0.32032594     0.035103871   -0.21071669     0.00029149552
   6851000   0.050133298   -0.32058964     0.035794168   -0.20960037    -0.00026389844
   6852000   0.050281798   -0.32024554     0.036061612   -0.2087661     -0.00025269912
   6853000   0.050157343   -0.32034142     0.036266026   -0.20884424    -0.00010034919
   6854000   0.050328824   -0.32027415     0.035358721   -0.20942706     0.0011532365 
   6855000   0.050455328   -0.32013424     0.035684992   -0.20877114     0.00014836882
   6856000   0.050646679   -0.32025435     0.03584272    -0.20844651     0.00051480481
   6857000   0.049771796   -0.32021319     0.035834997   -0.20972531     0.00072052032
   6858000   0.050610338   -0.32068188     0.035856971   -0.2089143     -2.415759e-05 
   6859000   0.050449609   -0.32041374     0.035795185   -0.20894902    -5.5260588e-05
   6860000   0.050585625   -0.32083947     0.035891771   -0.20907416     4.4420822e-05
   6861000   0.050235172   -0.32065222     0.035529313   -0.20977501     0.00030460918
   6862000   0.05012274    -0.32083636     0.036135378   -0.20952172    -0.0010149004 
   6863000   0.049998714   -0.32080529     0.035560039   -0.21025202     0.0004012612 
   6864000   0.049960734   -0.32103495     0.035653409   -0.21044528     0.0005181187 
   6865000   0.050000909   -0.32049763     0.035912613   -0.20958849    -0.00093813923
   6866000   0.049717267   -0.32067154     0.03592419    -0.21017627     0.00074027102
   6867000   0.050041083   -0.32048004     0.035602178   -0.20982108     0.00030627781
   6868000   0.049704095   -0.3205667      0.0361496     -0.20986577    -1.7008934e-05
   6869000   0.049725243   -0.32091068     0.035786909   -0.21054072    -0.00019791749
   6870000   0.04989013    -0.32064155     0.035822455   -0.20998872    -0.00017659515
   6871000   0.049648256   -0.32089429     0.035828272   -0.21059844     0.000184143  
   6872000   0.049479355   -0.32098444     0.035382874   -0.21138732     0.00043880831
   6873000   0.050039524   -0.32076166     0.035387844   -0.21031937     0.00044559329
   6874000   0.049807367   -0.32053617     0.036046473   -0.20978347    -0.00059762344
   6875000   0.049694004   -0.32049448     0.035572451   -0.21038583     0.0003655886 
   6876000   0.050139323   -0.3209427      0.035981168   -0.2097574      0.00066605664
   6877000   0.050338625   -0.32059885     0.035731805   -0.20936398     0.00021609988
   6878000   0.050351274   -0.32052934     0.035657905   -0.20934939    -0.00017102289
   6879000   0.050240007   -0.32113225     0.035379504   -0.2103976      0.0016633098 
   6880000   0.05013672    -0.32063241     0.03577287    -0.20965931    -0.00034612821
   6881000   0.049759815   -0.3205953      0.035539947   -0.21042045    -0.00039362556
   6882000   0.050177571   -0.32089188     0.035882263   -0.20974812     0.00085247779
   6883000   0.049960977   -0.32046444     0.036162504   -0.20936531     0.00019593697
   6884000   0.05034175    -0.3206542      0.036344756   -0.2088017     -0.00034238478
   6885000   0.05019723    -0.32042606     0.036121011   -0.20901406     0.00044943228
   6886000   0.050131188   -0.32050215     0.036285141   -0.20902508     8.2736258e-05
   6887000   0.049302066   -0.32010798     0.035778432   -0.21038122    -0.00018129356
   6888000   0.050487119   -0.32055126     0.035850437   -0.20897503     0.00041204055
   6889000   0.050234877   -0.32032763     0.036017389   -0.20896279     0.00063250512
   6890000   0.050357657   -0.32076207     0.035555541   -0.20967492    -0.00035334149
   6891000   0.049821499   -0.32057116     0.035673468   -0.21017027     0.00098946136
   6892000   0.049748537   -0.32024051     0.035714398   -0.20990812    -0.00043950729
   6893000   0.04985696    -0.3208196      0.035993118   -0.21004586     0.00022863425
   6894000   0.049510553   -0.3205345      0.035667831   -0.21060563     4.767992e-05 
   6895000   0.049735321   -0.32034428     0.035302565   -0.21044355     0.00048972969
   6896000   0.049578555   -0.32027328     0.035067031   -0.21084321     0.00081792676
   6897000   0.049828054   -0.32032566     0.03634214    -0.20924626     0.00054140709
   6898000   0.050404822   -0.32067208     0.036022207   -0.20904752     1.8088345e-05
   6899000   0.050135149   -0.32041476     0.036128888   -0.209088      -0.00031415578
   6900000   0.050184575   -0.32107177     0.035334072   -0.2104657      0.00058917113
   6901000   0.04974604    -0.32089093     0.036443212   -0.20983347     0.00020379158
   6902000   0.049258829   -0.32030553     0.03649232    -0.20992973    -0.0016552311 
   6903000   0.050356723   -0.32076063     0.03533789    -0.20989253     0.00044712023
   6904000   0.050138294   -0.3202356      0.035792286   -0.20924072    -0.00040327506
   6905000   0.050369561   -0.32073552     0.036248536   -0.20893752    -0.0013188659 
   6906000   0.050472368   -0.32057257     0.036491074   -0.20837783     0.00056615242
   6907000   0.050108041   -0.32054315     0.036433227   -0.20895271     0.0001326031 
   6908000   0.050287711   -0.3206039      0.036450999   -0.2087262      0.00058771029
   6909000   0.050735398   -0.32105315     0.03615751    -0.20879745     0.00043593715
   6910000   0.050076162   -0.32056608     0.035814048   -0.20964264     0.00079280815
   6911000   0.050139771   -0.32030076     0.035788117   -0.20930784    -0.00015550763
   6912000   0.050076017   -0.32031992     0.036007509   -0.20920323     6.0014068e-05
   6913000   0.050164492   -0.32052794     0.036185537   -0.20910052     1.2237834e-05
   6914000   0.050289418   -0.3207615      0.035861234   -0.209471       0.000144657  
   6915000   0.050004578   -0.32088765     0.036108397   -0.20977723    -0.00027696755
   6916000   0.049970621   -0.3205849      0.035526237   -0.21010756     0.00011841393
   6917000   0.050463675   -0.32052087     0.035997983   -0.20883226     0.00039068357
   6918000   0.049979077   -0.32046668     0.035835047   -0.20966785    -0.00063928348
   6919000   0.049782808   -0.32037861     0.036185199   -0.20952402    -0.00046607043
   6920000   0.050529382   -0.32062801     0.03598337    -0.20885546     0.00091506635
   6921000   0.050325381   -0.32054061     0.035210047   -0.20984736     0.00059273806
   6922000   0.050397884   -0.32059138     0.036092576   -0.20890686     0.00033384933
   6923000   0.05047404    -0.32046362     0.035312914   -0.20944453     0.00053170144
   6924000   0.050035406   -0.3204251      0.036056149   -0.20932068     0.00063660544
   6925000   0.04993451    -0.32061291     0.036135943   -0.20958004    -0.00048814172
   6926000   0.050116467   -0.32064175     0.03555058    -0.20992132     0.0017566279 
   6927000   0.049695941   -0.32079379     0.036284426   -0.20997026     0.00029475496
   6928000   0.050755948   -0.32045972     0.036290078   -0.20804063     0.00029564311
   6929000   0.050617854   -0.32023282     0.036358046   -0.20795289     0.00020700474
   6930000   0.050432652   -0.32066583     0.036058683   -0.20896305     0.001253844  
   6931000   0.050288682   -0.32042254     0.035857895   -0.20913649     0.00053406417
   6932000   0.05039934    -0.32070713     0.035768991   -0.20934401     0.00020800759
   6933000   0.049847998   -0.32038345     0.036315497   -0.20930078    -0.00040145145
   6934000   0.05028347    -0.3206404      0.035920204   -0.20929985    -0.0009249868 
   6935000   0.050048165   -0.32047552     0.035728694   -0.20967942     0.00033065987
   6936000   0.049792824   -0.32053135     0.035848319   -0.20999861    -0.00065435391
   6937000   0.049906005   -0.32067222     0.035893602   -0.20992444    -0.00033434287
   6938000   0.050139409   -0.32052354     0.036325319   -0.20899396     0.00019854024
   6939000   0.050445466   -0.32046724     0.035948759   -0.20885517     0.00070256585
   6940000   0.049859411   -0.32079232     0.035452918   -0.21055511    -0.00062311182
   6941000   0.04985579    -0.3204564      0.036198124   -0.20947941     0.00015173571
   6942000   0.049855059   -0.3209743      0.036096034   -0.2101005     -0.00013139201
   6943000   0.05022777    -0.32098866     0.035468225   -0.21018364     2.1187903e-05
   6944000   0.049876709   -0.3209318      0.035790085   -0.21033148     1.3605381e-05
   6945000   0.050564255   -0.32052983     0.03560445    -0.20908389     0.000103598  
   6946000   0.050244327   -0.32051369     0.035735953   -0.20941611     4.4694913e-05
   6947000   0.049915933   -0.32097426     0.036360511   -0.20974468     0.00084515498
   6948000   0.050368582   -0.32086902     0.035949537   -0.20937149    -0.00021558467
   6949000   0.050051581   -0.32035949     0.035602371   -0.20968459     0.00025071389
   6950000   0.050693403   -0.32063424     0.035779729   -0.20881931     0.0004649897 
   6951000   0.050235016   -0.32075037     0.036233811   -0.2091689     -0.00076582115
   6952000   0.050184865   -0.32058651     0.035744988   -0.20956908     3.3303425e-05
   6953000   0.050131508   -0.32066758     0.035782002   -0.20969317     0.00057346219
   6954000   0.049651681   -0.32080608     0.036005153   -0.21032821    -0.00033751693
   6955000   0.050405652   -0.32083354     0.035371743   -0.20985819    -1.9790317e-06
   6956000   0.049701863   -0.32067975     0.035576634   -0.21055513     2.5969995e-05
   6957000   0.04987905    -0.32060186     0.035382756   -0.21040536     0.00033403007
   6958000   0.050707439   -0.32087328     0.035572862   -0.20924417    -0.001017529  
   6959000   0.050424938   -0.32080744     0.035917344   -0.20925756     0.000431578  
   6960000   0.049917566   -0.32077007     0.035659407   -0.21023914    -0.00010594903
   6961000   0.050516597   -0.32061161     0.036076491   -0.20876511     0.00065030873
   6962000   0.050458354   -0.32066786     0.035808353   -0.20917686     0.00058187665
   6963000   0.050046435   -0.32087247     0.036338629   -0.20946903    -1.7190361e-05
   6964000   0.049918518   -0.32035523     0.035886819   -0.20959547     0.00049866313
   6965000   0.049888103   -0.32077337     0.035441308   -0.21050474     0.00053701719
   6966000   0.049883105   -0.32108592     0.035460276   -0.21080581    -5.5080042e-05
   6967000   0.049750662   -0.32040351     0.036461171   -0.20932116    -0.00073894647
   6968000   0.049746828   -0.32086223     0.035764526   -0.21048228    -0.00069965278
   6969000   0.049901485   -0.32087752     0.036622586   -0.20940754    -0.00084302827
   6970000   0.050218501   -0.32058126     0.035873202   -0.20938516     0.00085372344
   6971000   0.049887416   -0.32077821     0.035683199   -0.21026872    -0.00014039359
   6972000   0.050062139   -0.32092806     0.03613689    -0.20970281    -0.00023540985
   6973000   0.04993345    -0.32092109     0.03622309    -0.20980266    -0.00026443532
   6974000   0.049651442   -0.32081152     0.036092473   -0.21024669     9.2726609e-05
   6975000   0.050160868   -0.32081208     0.036115736   -0.2094599     -0.00023877217
   6976000   0.049773331   -0.3207609      0.035801171   -0.21030455     0.00038987016
   6977000   0.049614591   -0.32077256     0.035794023   -0.21056145    -0.00022961172
   6978000   0.049929351   -0.32113572     0.036142308   -0.21010421    -0.00013509124
   6979000   0.050365362   -0.32053956     0.035071606   -0.20992479     0.00061686274
   6980000   0.05005172    -0.32063735     0.036225653   -0.20933896     0.00025814448
   6981000   0.049927194   -0.32074041     0.035977943   -0.2098765     -0.00063997287
   6982000   0.050083081   -0.32103624     0.035438273   -0.21047819     0.00095054685
   6983000   0.04974128    -0.32107758     0.035596033   -0.21087444    -0.00041989521
   6984000   0.049930031   -0.32075403     0.035714135   -0.21014968     0.00077786946
   6985000   0.049776294   -0.3209521      0.035840603   -0.21045187     0.0004472208 
   6986000   0.049994904   -0.32063369     0.036037906   -0.20960827     0.00029298278
   6987000   0.05048667    -0.32040773     0.035679026   -0.20900358     0.0002035396 
   6988000   0.0499875     -0.32081309     0.035900701   -0.20993598    -0.00097495318
   6989000   0.049883117   -0.32106403     0.03603959    -0.21020459    -1.4897719e-05
   6990000   0.050027196   -0.32104707     0.035667906   -0.21034321    -0.00033578975
   6991000   0.050098057   -0.32087815     0.035477376   -0.21025854     3.8334483e-05
   6992000   0.050018994   -0.32106976     0.035538617   -0.21050749     0.00021580615
   6993000   0.049759763   -0.32083499     0.036181813   -0.21001835    -3.0955244e-05
   6994000   0.04980051    -0.32116222     0.035670838   -0.21079544     0.00046173733
   6995000   0.049773454   -0.32077602     0.034993571   -0.21112709     0.00010862757
   6996000   0.049279192   -0.32086664     0.035569897   -0.21138272     0.00038647751
   6997000   0.05001277    -0.32095641     0.036063505   -0.20987859    -0.00036409521
   6998000   0.05000768    -0.32074686     0.035524518   -0.21021566     0.00085036631
   6999000   0.049864134   -0.32085219     0.035721224   -0.21033959     0.00073982763
   7000000   0.049322497   -0.32100788     0.036212131   -0.21081677    -0.00068479695
   7001000   0.049763458   -0.32114106     0.03636694    -0.21013375     0.00039677827
   7002000   0.050232086   -0.3211314      0.035895787   -0.20989234     0.00041490268
   7003000   0.049854555   -0.32070376     0.035342445   -0.21058431     0.00043258669
   7004000   0.049769958   -0.32101064     0.035290328   -0.21107019     0.00072392301
   7005000   0.049420794   -0.32125259     0.036012469   -0.21111371     0.00026963594
   7006000   0.050374761   -0.32077087     0.036287646   -0.20892596    -0.00044795908
   7007000   0.049572487   -0.32082637     0.036145711   -0.21032673     0.00034033621
   7008000   0.049978669   -0.32102321     0.036075519   -0.20998452    -0.00010709639
   7009000   0.05029658    -0.32100854     0.035906078   -0.20966246    -0.00040661089
   7010000   0.049750433   -0.32131969     0.035994147   -0.21070471     5.4252415e-05
   7011000   0.05032734    -0.32126195     0.035736965   -0.21003884    -0.00027281674
   7012000   0.049456301   -0.32079661     0.035781027   -0.21083592     5.6122362e-05
   7013000   0.049974419   -0.32121775     0.036141465   -0.21011949     8.0771791e-05
   7014000   0.049292917   -0.3214446      0.03597424    -0.21153575    -0.00061575378
   7015000   0.049501646   -0.32111244     0.03516596    -0.21169881    -0.00037082651
   7016000   0.050080204   -0.32129911     0.036020802   -0.21016285    -5.7362344e-05
   7017000   0.05038154    -0.32120263     0.036021891   -0.2096133      0.00068317268
   7018000   0.049898027   -0.32094078     0.035988104   -0.21011046     0.00045972395
   7019000   0.049829454   -0.32057544     0.035565446   -0.21027064    -9.4341259e-05
   7020000   0.049519192   -0.32080288     0.035606111   -0.21092277     0.00021572057
   7021000   0.050265588   -0.32090152     0.035663747   -0.20984425     0.00073463801
   7022000   0.049932331   -0.32109643     0.035897109   -0.21030566    -0.00069244118
   7023000   0.050175015   -0.32073516     0.034954687   -0.21052281     0.00062282622
   7024000   0.05009934    -0.32127406     0.035909555   -0.21022034    -0.0003655634 
   7025000   0.05046222    -0.32080797     0.036026194   -0.20909333    -0.00041238034
   7026000   0.05027666    -0.32082511     0.035605782   -0.20980921     8.8922037e-05
   7027000   0.050304236   -0.32107352     0.035940862   -0.20968117    -0.00014153084
   7028000   0.049670838   -0.32094523     0.035917638   -0.21052614     0.00016799948
   7029000   0.049978041   -0.32141487     0.035978767   -0.21047388    -0.0001779632 
   7030000   0.050092456   -0.32080926     0.035816704   -0.20985872     0.00015196634
   7031000   0.050290794   -0.32086931     0.035625266   -0.20981272     0.00056642392
   7032000   0.05045268    -0.32145815     0.035760684   -0.21002333    -0.00025956373
   7033000   0.049804474   -0.3209781      0.035881992   -0.21039422     0.00041497343
   7034000   0.050361367   -0.32105709     0.036070102   -0.20944982     0.00041702766
   7035000   0.049800073   -0.32120951     0.035941046   -0.21057318     0.00054704962
   7036000   0.049627209   -0.32112035     0.035973663   -0.21071067    -1.0428148e-05
   7037000   0.049549724   -0.32138247     0.035620257   -0.21144242     0.00040648415
   7038000   0.049871324   -0.32112619     0.035738565   -0.21058547     0.00032014205
   7039000   0.049377464   -0.32146511     0.035708107   -0.21169559    -0.00091404565
   7040000   0.050090926   -0.32088813     0.036231534   -0.20952505     0.00075715508
   7041000   0.05010966    -0.32126201     0.035709305   -0.21039306     0.00011191605
   7042000   0.049918442   -0.32099409     0.035394515   -0.21072674     0.00062599107
   7043000   0.049740865   -0.32082107     0.035932189   -0.21028239     0.00064824509
   7044000   0.049809522   -0.32107372     0.035915138   -0.21044912     0.00039496101
   7045000   0.049904066   -0.32118515     0.036322995   -0.21001089    -0.00031683761
   7046000   0.049948788   -0.32122098     0.035465788   -0.21083685     0.0003190412 
   7047000   0.050230817   -0.32138479     0.036005224   -0.21003821     0.00057872944
   7048000   0.049892596   -0.32085295     0.035610477   -0.21040841     0.00029193086
   7049000   0.049946491   -0.32126949     0.036206813   -0.21014777    -3.872349e-05 
   7050000   0.050299903   -0.32114304     0.035993913   -0.20970414    -0.00046044513
   7051000   0.050196232   -0.3206988      0.035886073   -0.20952323     0.00014721147
   7052000   0.049891765   -0.32072134     0.0362238     -0.20966472     1.8597696e-05
   7053000   0.049729504   -0.3212197      0.035823726   -0.21080653     0.00065692046
   7054000   0.050423186   -0.32128709     0.035719781   -0.20993741     0.00033950975
   7055000   0.050116838   -0.32118515     0.035707412   -0.21030733     0.00038479637
   7056000   0.050319831   -0.32096952     0.036262989   -0.20923165    -0.00015877204
   7057000   0.050463165   -0.32168211     0.03629066    -0.20970158     0.00033786731
   7058000   0.049983749   -0.32115793     0.036275475   -0.20991166     4.7908449e-05
   7059000   0.050316431   -0.32126152     0.035930506   -0.20986123    -0.00044184521
   7060000   0.0499249     -0.32129327     0.035290858   -0.2111199     -0.00030051633
   7061000   0.049652106   -0.32096557     0.035817012   -0.2106752      0.00071509317
   7062000   0.050321587   -0.32140824     0.035450636   -0.2104801      0.00033909084
   7063000   0.050420527   -0.3209666      0.036443208   -0.20889749     5.0594929e-05
   7064000   0.050157611   -0.32124255     0.035671294   -0.21033969     0.00036245512
   7065000   0.050279817   -0.32077727     0.035430594   -0.20993181    -4.1933698e-06
   7066000   0.049559177   -0.32106376     0.035456807   -0.21127299     0.00017700648
   7067000   0.049682607   -0.32130155     0.036163323   -0.21061913    -0.00013429203
   7068000   0.050452838   -0.32126771     0.035841106   -0.20975223     8.4092926e-05
   7069000   0.050138845   -0.32101946     0.035420309   -0.21039573     0.00055516291
   7070000   0.050380464   -0.32109763     0.035716311   -0.2098155      0.00020568865
   7071000   0.049925736   -0.32108945     0.035441868   -0.21076381     9.3075583e-05
   7072000   0.050024883   -0.32083784     0.035809654   -0.20999571    -0.0003103945 
   7073000   0.050286254   -0.32114302     0.036039907   -0.2096786      0.00073693151
   7074000   0.050273287   -0.32126258     0.036344838   -0.20951268     4.9999196e-05
   7075000   0.049625365   -0.32075643     0.036004498   -0.21031869    -0.00060628913
   7076000   0.050121845   -0.32088989     0.035713572   -0.2099984      0.00029267655
   7077000   0.050036586   -0.32151904     0.036284649   -0.21018435    -0.00069427569
   7078000   0.050011334   -0.32123204     0.036579815   -0.20964006    -0.00073135961
   7079000   0.049926238   -0.32129119     0.03598465    -0.21042202    -0.00069546736
   7080000   0.04965526    -0.32132307     0.035999001   -0.21084598     0.00053628454
   7081000   0.04954772    -0.32119837     0.035511479   -0.21137011    -0.00044863028
   7082000   0.050231348   -0.32115786     0.035911149   -0.20990455    -0.00049599614
   7083000   0.050003963   -0.32096347     0.035436591   -0.21052578     0.00085578046
   7084000   0.050622407   -0.32102257     0.035650356   -0.2094435      0.00011368563
   7085000   0.049967238   -0.32111957     0.036499014   -0.20967453    -0.00024279236
   7086000   0.050157823   -0.32130304     0.036135325   -0.20993583    -1.4932715e-05
   7087000   0.050578125   -0.32096235     0.035858049   -0.209242      -0.00049927134
   7088000   0.050455245   -0.3212553      0.035871705   -0.20970561     3.6602066e-05
   7089000   0.050376124   -0.3207684      0.036004052   -0.20920504     0.00040447733
   7090000   0.050695325   -0.32114942     0.036591858   -0.20851948     0.00080801228
   7091000   0.051036881   -0.32092597     0.035669232   -0.20870635     0.00055063951
   7092000   0.050188921   -0.32137865     0.036143553   -0.20995657    -0.00029413406
   7093000   0.049638735   -0.3211663      0.036062824   -0.21065018    -0.0011259062 
   7094000   0.050178619   -0.32116896     0.035333217   -0.21057267    -0.00029769038
   7095000   0.050346707   -0.32104217     0.035603409   -0.20992357     0.00056580124
   7096000   0.050016722   -0.32130718     0.035818086   -0.21046885     9.8126548e-05
   7097000   0.050151487   -0.32082151     0.035499401   -0.21009973    -0.00020949983
   7098000   0.049935781   -0.32106056     0.035701016   -0.21046071     0.00057574284
   7099000   0.049836237   -0.32110261     0.035988658   -0.21036441     0.00045476399
   7100000   0.04975856    -0.32089415     0.035715726   -0.2105454      0.00098376712
   7101000   0.049546433   -0.32093097     0.035472466   -0.21114365     0.00036952054
   7102000   0.049880955   -0.32126022     0.036050526   -0.21039308    -0.00040893459
   7103000   0.050080569   -0.32155799     0.035408428   -0.21103356     0.00020836673
   7104000   0.049807882   -0.32114167     0.035842101   -0.21059257    -0.00027444661
   7105000   0.049672797   -0.32090603     0.035828119   -0.21057353    -0.00076087714
   7106000   0.050587519   -0.32126596     0.035728859   -0.20966072    -0.00020575639
   7107000   0.049925703   -0.32144547     0.03599382    -0.21056793     6.7872182e-05
   7108000   0.05062353    -0.32127513     0.036059126   -0.20928561     0.0014010805 
   7109000   0.050110544   -0.32130848     0.036197866   -0.20994964    -0.00061085124
   7110000   0.050255207   -0.32073926     0.03585743    -0.20950388     0.00057233781
   7111000   0.050465327   -0.32109769     0.035862011   -0.20954257     0.00040937689
   7112000   0.049962336   -0.32125605     0.036120988   -0.21019639     0.00061784428
   7113000   0.050152117   -0.32139463     0.036539357   -0.20963195    -0.00028191653
   7114000   0.049848751   -0.32116364     0.036234642   -0.21016069    -0.00090287697
   7115000   0.049789826   -0.32113408     0.035970192   -0.21048396     0.00028704858
   7116000   0.050259218   -0.32097672     0.0353482     -0.21024455    -0.00082423965
   7117000   0.050348333   -0.320709       0.035698395   -0.20949298     0.00024351367
   7118000   0.049748389   -0.32116219     0.036173288   -0.21037113    -3.9886583e-05
   7119000   0.049776801   -0.32108852     0.036200713   -0.21022742    -0.00022948827
   7120000   0.050414556   -0.32131007     0.035436087   -0.21025703     0.00049534646
   7121000   0.050727786   -0.32112761     0.035406277   -0.20963456     0.0005727554 
   7122000   0.050206191   -0.32118361     0.035319583   -0.2105596      0.00058306285
   7123000   0.049891065   -0.32103135     0.036014665   -0.21018492     0.00018429424
   7124000   0.05033352    -0.32107533     0.03574488    -0.20983505    -0.00126548   
   7125000   0.050275649   -0.32134491     0.035562729   -0.21037358     5.79092e-05  
   7126000   0.05009641    -0.32132437     0.035745141   -0.21043946    -0.00072393167
   7127000   0.050385663   -0.32126225     0.035889036   -0.2097996      0.000509318  
   7128000   0.049952284   -0.32172022     0.035498613   -0.21129802    -0.00081833958
   7129000   0.049755922   -0.32131771     0.035498257   -0.21119039    -0.00070747384
   7130000   0.049717284   -0.32142133     0.035854452   -0.21099577    -0.00026446701
   7131000   0.049640676   -0.32126058     0.035304554   -0.21149981    -0.0003394184 
   7132000   0.050481053   -0.32145099     0.035828092   -0.2099062     -0.00019211936
   7133000   0.049374651   -0.32100301     0.035495068   -0.21145074     7.4668293e-05
   7134000   0.049300208   -0.32130347     0.035697049   -0.21166088    -0.00031722219
   7135000   0.049722482   -0.32106594     0.036191397   -0.21029563    -0.00042808354
   7136000   0.05022894    -0.32105108     0.035637872   -0.21007466     0.00011251924
   7137000   0.050112175   -0.32087        0.036135764   -0.20957083     0.00054249288
   7138000   0.049593886   -0.32128585     0.035293758   -0.21160606     0.00040067562
   7139000   0.04986209    -0.32116247     0.035375898   -0.21099826     0.00077076933
   7140000   0.049184039   -0.32144592     0.036343841   -0.21133078     0.00034837544
   7141000   0.05013809    -0.3213408      0.034956009   -0.21118251    -5.1251069e-05
   7142000   0.049839358   -0.32111735     0.035396275   -0.21096686     0.00015584556
   7143000   0.050218852   -0.32084411     0.035759018   -0.20976167    -2.4073249e-05
   7144000   0.050767901   -0.32123539     0.035954245   -0.2091342     -0.00016812588
   7145000   0.049450859   -0.32114226     0.036409332   -0.21056142    -0.00030058965
   7146000   0.049951732   -0.32123136     0.036059203   -0.21024939     0.00065670935
   7147000   0.050733159   -0.32114412     0.036279651   -0.20876964    -9.2390073e-05
   7148000   0.05020272    -0.32104768     0.035799519   -0.20994894     6.9940869e-05
   7149000   0.050369135   -0.32091547     0.036170339   -0.20919631     0.00042134217
   7150000   0.050792399   -0.32153988     0.036336049   -0.20902015     0.00024632909
   7151000   0.049995351   -0.32114569     0.035906802   -0.2102507     -1.3928611e-05
   7152000   0.050287621   -0.32171301     0.035807278   -0.21047917     0.00040856537
   7153000   0.050261653   -0.32083938     0.035926938   -0.20952482     0.00064956136
   7154000   0.050546032   -0.3209138      0.035578088   -0.20952155     0.0012737382 
   7155000   0.050308912   -0.32121739     0.035996808   -0.20976208     0.00016561031
   7156000   0.049929606   -0.32099224     0.035446328   -0.21065633    -0.00034286362
   7157000   0.050269453   -0.32095909     0.035329842   -0.21022993     0.00051911732
   7158000   0.049993933   -0.32072705     0.036378967   -0.20936202     0.00086296682
   7159000   0.049662023   -0.32101758     0.035623139   -0.21090622    -0.00035685582
   7160000   0.05032812    -0.32128338     0.03572229    -0.21007379    -0.0003620213 
   7161000   0.050402006   -0.32145322     0.035984209   -0.20987088     0.00023014953
   7162000   0.050149947   -0.3213826      0.036228544   -0.20993399    -0.00084069742
   7163000   0.050100982   -0.32098615     0.035823268   -0.21001626     0.00053187738
   7164000   0.049930943   -0.32169603     0.035892019   -0.21091243     0.0001366971 
   7165000   0.050151142   -0.32129358     0.035829411   -0.21024231     0.00043997655
   7166000   0.050539998   -0.32091556     0.035447421   -0.20966303    -0.00062498316
   7167000   0.05011588    -0.3212191      0.036262896   -0.20978723    -0.00016054821
   7168000   0.050190788   -0.32117778     0.035475841   -0.21042062     0.00070834642
   7169000   0.049825872   -0.32160196     0.035818907   -0.21104906    -0.00065000793
   7170000   0.050150551   -0.32195735     0.035916088   -0.21082029    -0.00044544803
   7171000   0.050479892   -0.32080635     0.0359785     -0.2091129      0.00033040547
   7172000   0.050282834   -0.32133298     0.036176605   -0.20973699    -0.00051354797
   7173000   0.049865046   -0.32092218     0.035376171   -0.21075326     2.0608662e-05
   7174000   0.049625647   -0.320996       0.036156007   -0.21040632     0.00034430913
   7175000   0.048981366   -0.32127393     0.035287883   -0.21251874    -3.6433718e-05
   7176000   0.050367043   -0.32119622     0.035592484   -0.21005804    -0.00027986437
   7177000   0.050055968   -0.32088837     0.035572898   -0.21023637     0.00020276949
   7178000   0.050072393   -0.32112672     0.036158256   -0.20986472     0.00018586661
   7179000   0.049967497   -0.32136331     0.036051175   -0.21036573     9.8740162e-05
   7180000   0.050040136   -0.3213539      0.036003351   -0.21029519    -8.9502872e-05
   7181000   0.049933767   -0.32079091     0.035887399   -0.21000769    -0.00062581903
   7182000   0.050041006   -0.32104536     0.035956526   -0.21003217     0.00031335333
   7183000   0.050015263   -0.32075138     0.035782349   -0.20995097     6.9068024e-05
   7184000   0.049916399   -0.3214355      0.035490325   -0.21107541    -0.00016042954
   7185000   0.049715651   -0.32108799     0.036166399   -0.21035293     0.0004840325 
   7186000   0.04972093    -0.32126739     0.035923629   -0.21076718    -0.0004849837 
   7187000   0.049998241   -0.32089393     0.036307015   -0.20959439     6.0688903e-05
   7188000   0.049561891   -0.32130556     0.035737448   -0.21123007     2.1273265e-05
   7189000   0.050593445   -0.32140537     0.035728805   -0.20979129    -0.00063579091
   7190000   0.049803316   -0.32133339     0.036384992   -0.21024824    -0.00024479326
   7191000   0.050034714   -0.32115228     0.036128715   -0.20997634     0.001144705  
   7192000   0.049587695   -0.3214024      0.035998908   -0.21102675     5.4577671e-05
   7193000   0.049683599   -0.32152088     0.03532358    -0.21167671     0.00068384021
   7194000   0.04987854    -0.3212756      0.036306388   -0.21015622    -0.00027586246
   7195000   0.049685279   -0.32132912     0.03593403    -0.21087198     9.8072105e-05
   7196000   0.050043503   -0.32091765     0.035063502   -0.21079374     0.00051108271
   7197000   0.050581877   -0.32088534     0.035562722   -0.2094547     -0.00032992128
   7198000   0.050314918   -0.32123772     0.035577078   -0.21019313    -2.2067442e-05
   7199000   0.05005564    -0.32135226     0.035921836   -0.21035181    -0.00020911153
   7200000   0.050113536   -0.32150111     0.036104905   -0.21023075    -0.00042851192
   7201000   0.050307103   -0.32163493     0.035863892   -0.21031525    -0.00030113013
   7202000   0.049501932   -0.3210817      0.035446321   -0.21138727    -0.00055762349
   7203000   0.049667308   -0.32129903     0.0357893     -0.21101358     0.00014910436
   7204000   0.049398205   -0.32107776     0.035623539   -0.21136169     0.00035071186
   7205000   0.049950202   -0.32140025     0.035992619   -0.21048716    -0.00097967946
   7206000   0.050171065   -0.32140874     0.035582255   -0.21057474     0.00067976574
   7207000   0.049884739   -0.3214087      0.035311128   -0.21127529    -0.00070364137
   7208000   0.049931674   -0.32107425     0.03596686    -0.21021471    -1.7452223e-05
   7209000   0.050081324   -0.32096934     0.035821609   -0.21003059     0.00032659209
   7210000   0.050239666   -0.32074036     0.035767633   -0.20961809     0.00040540469
   7211000   0.050076184   -0.32111852     0.035876223   -0.21013286     0.00016340394
   7212000   0.0494762     -0.32142277     0.036272286   -0.21094097     0.00055732588
   7213000   0.049824618   -0.32071758     0.036092903   -0.20989257    -0.00033759882
   7214000   0.050330776   -0.3213057      0.035800451   -0.21001395     0.00047933579
   7215000   0.050066566   -0.32140437     0.035246142   -0.21106323     0.00011543427
   7216000   0.049513546   -0.32155011     0.03606581    -0.21121877     1.476205e-05 
   7217000   0.049755344   -0.32119678     0.035859981   -0.2107086     -0.0012775894 
   7218000   0.049751243   -0.32172215     0.036294813   -0.21080529    -0.00028178647
   7219000   0.049680133   -0.32074183     0.035805705   -0.21042073     0.00023286757
   7220000   0.050416098   -0.32143039     0.035900583   -0.20991054     0.00022955144
   7221000   0.050446238   -0.32161692     0.036248922   -0.20970352    -0.00069032177
   7222000   0.049596089   -0.32123786     0.035705019   -0.21114351    -0.00026697247
   7223000   0.049682914   -0.32170309     0.036415808   -0.21076772    -0.0011607302 
   7224000   0.050032381   -0.32132635     0.036194277   -0.21008834     0.00064655564
   7225000   0.050107396   -0.32120631     0.035389969   -0.2106601     -9.5049133e-05
   7226000   0.049869709   -0.32100183     0.035693527   -0.21050856     0.00086225697
   7227000   0.049816415   -0.32133169     0.035995273   -0.21061662     0.00035107845
   7228000   0.049626119   -0.32120631     0.036072759   -0.21069917     0.00040157175
   7229000   0.050265978   -0.32096338     0.035843792   -0.20972549     0.00081988563
   7230000   0.050760612   -0.32153048     0.036259131   -0.20913534    -0.00017603317
   7231000   0.050717131   -0.32149312     0.035781572   -0.20964076    -0.00024026368
   7232000   0.049772585   -0.32095469     0.035952871   -0.21034776     0.00042052653
   7233000   0.050208226   -0.32146801     0.03566823    -0.2104923     -0.00022876841
   7234000   0.050226282   -0.3217093      0.035474056   -0.21090068    -0.00051593937
   7235000   0.049602124   -0.32165162     0.035547739   -0.21170549    -0.00076728473
   7236000   0.049774556   -0.32158035     0.035795547   -0.21112778    -0.00025965641
   7237000   0.049921748   -0.32153967     0.03580163    -0.21086025     8.7278608e-05
   7238000   0.049933529   -0.32144824     0.035861827   -0.21069095    -0.00056138101
   7239000   0.049655568   -0.32124099     0.035262906   -0.21149954    -0.00082396195
   7240000   0.050035176   -0.32125266     0.035694704   -0.21051003     0.00095803788
   7241000   0.049176661   -0.32146862     0.035233614   -0.21247477    -0.00051118729
   7242000   0.049560768   -0.32116008     0.035507588   -0.21131614    -0.00041446065
   7243000   0.049667603   -0.32156159     0.036358702   -0.21070629    -0.00014837307
   7244000   0.049983729   -0.32153496     0.035783689   -0.21078051    -0.00033969329
   7245000   0.050226554   -0.32112594     0.035676295   -0.21011468    -0.00021242151
   7246000   0.049940316   -0.32117712     0.036006983   -0.2102645     -0.00059533045
   7247000   0.049721595   -0.32150762     0.035261665   -0.21166837     6.3105618e-05
   7248000   0.049526939   -0.3213073      0.036061776   -0.2109599      0.00066439879
   7249000   0.049669623   -0.3212183      0.035643395   -0.21107527     4.2084218e-05
   7250000   0.049663945   -0.32122174     0.035754271   -0.21097636    -0.00017331692
   7251000   0.049177361   -0.3211703      0.035686511   -0.21172251     4.9903776e-05
   7252000   0.049911062   -0.3213962      0.035539823   -0.21099462     0.000312078  
   7253000   0.049593894   -0.32136158     0.035712827   -0.21126271    -0.00049183497
   7254000   0.049717582   -0.32142964     0.035663775   -0.21119431    -0.00025965877
   7255000   0.049877254   -0.32157497     0.035229474   -0.21153444     0.00060919263
   7256000   0.050102545   -0.32137953     0.035590928   -0.21063963    -7.0350505e-07
   7257000   0.050282362   -0.32090279     0.035616954   -0.20986716    -0.00040031784
   7258000   0.050133478   -0.32134963     0.035705734   -0.21044853    -0.00044830245
   7259000   0.050171693   -0.32166782     0.035763659   -0.21065148     0.00045648484
   7260000   0.049825511   -0.32148553     0.035241353   -0.21151073    -0.0001354237 
   7261000   0.050282577   -0.32136106     0.03523066    -0.21071141    -0.0001800836 
   7262000   0.049848063   -0.32133109     0.035573255   -0.21099056    -7.8643035e-05
   7263000   0.049982065   -0.32149231     0.036218794   -0.21030525     0.00054545903
   7264000   0.050222086   -0.32125791     0.036227173   -0.20970247     0.0001041501 
   7265000   0.049986928   -0.32085223     0.035445691   -0.21043098     7.9746415e-05
   7266000   0.050221012   -0.32143739     0.036031375   -0.21007936     4.3896015e-05
   7267000   0.050581164   -0.32133287     0.03548473    -0.20998129     0.00054606788
   7268000   0.049353512   -0.32111797     0.036294182   -0.2107983     -0.00057711012
   7269000   0.049771546   -0.32152534     0.035094026   -0.21177881     0.00070833724
   7270000   0.049496342   -0.32164312     0.03559962    -0.21180378     0.00037493694
   7271000   0.050465273   -0.32160372     0.035858009   -0.21005269    -5.6379055e-05
   7272000   0.049635098   -0.32027639     0.035742332   -0.21008621    -0.00012392345
   7273000   0.050121312   -0.3209758      0.035827242   -0.20997144     0.0003756165 
   7274000   0.050165383   -0.32139783     0.0355707     -0.21058391    -7.3804428e-05
   7275000   0.049494103   -0.32099552     0.035750932   -0.21100823     0.00086285606
   7276000   0.050207716   -0.32094086     0.035624499   -0.21000965     9.3519396e-05
   7277000   0.049974355   -0.32127084     0.035691506   -0.21062263     0.00029877061
   7278000   0.049518689   -0.32101048     0.036035321   -0.21070192    -0.000664491  
   7279000   0.050274121   -0.32120143     0.036151462   -0.20964365    -8.1002779e-05
   7280000   0.05027307    -0.32083429     0.036201124   -0.20922843     6.3207784e-05
   7281000   0.049958809   -0.3209343      0.035908334   -0.21009259     7.2560199e-05
   7282000   0.049821952   -0.32140878     0.035778558   -0.21090211    -0.00038255489
   7283000   0.050256576   -0.32090681     0.035981717   -0.2095451      0.00059202809
   7284000   0.050002228   -0.32120191     0.035866999   -0.2103364     -0.00033426637
   7285000   0.050073615   -0.32097959     0.035715706   -0.2101583     -0.00030540736
   7286000   0.050009799   -0.32085204     0.03591577    -0.20992641     0.0001787087 
   7287000   0.050055157   -0.32144886     0.035652405   -0.21071856    -0.0007018523 
   7288000   0.049689825   -0.32157536     0.035976767   -0.21106867    -0.00054182159
   7289000   0.049493462   -0.3211516      0.03632263    -0.21059357    -0.00049851832
   7290000   0.049953608   -0.32127107     0.0351515     -0.211194       1.8506831e-06
   7291000   0.049562742   -0.32109347     0.035888031   -0.21086613    -0.00079846066
   7292000   0.050058981   -0.32131955     0.035635839   -0.21060009     0.0005833023 
   7293000   0.04938417    -0.32112033     0.036327938   -0.21072092     0.0004653124 
   7294000   0.049693124   -0.32096439     0.036433129   -0.20999639    -6.96263e-05  
   7295000   0.050110425   -0.32114989     0.035285653   -0.21070345     0.00044104591
   7296000   0.049795      -0.32169265     0.036205596   -0.21079938    -0.00087750625
   7297000   0.050227916   -0.32094229     0.036255389   -0.20934989     0.00010072966
   7298000   0.050076497   -0.32118113     0.035928499   -0.21014274     0.00018281717
   7299000   0.050084774   -0.321514       0.035351099   -0.21104059    -0.00073518074
   7300000   0.049596887   -0.32141037     0.036030212   -0.21098963    -0.00050764026
   7301000   0.049754253   -0.32116729     0.035423109   -0.21111761     0.00092754582
   7302000   0.049680028   -0.32126954     0.035139849   -0.21161445     0.00023432886
   7303000   0.049778295   -0.32093545     0.03507777    -0.21119506    -4.9842492e-05
   7304000   0.049843909   -0.32098753     0.035920075   -0.21030642    -0.00016073883
   7305000   0.049322883   -0.3213215      0.035296332   -0.21204562    -0.00042048004
   7306000   0.049817566   -0.32141467     0.035996016   -0.21069712    -0.00057604779
   7307000   0.049806349   -0.32131215     0.035711926   -0.21089552    -0.00010824759
   7308000   0.049962438   -0.32088132     0.035370101   -0.21057239     0.0001145945 
   7309000   0.049566577   -0.32108683     0.035644941   -0.21109682    -0.00044637312
   7310000   0.05019812    -0.32104188     0.035921991   -0.20982756     3.3848964e-05
   7311000   0.049882619   -0.32151897     0.036117726   -0.21058214    -0.00055360834
   7312000   0.050068345   -0.32165746     0.036229928   -0.21032986    -0.00049628199
   7313000   0.049594652   -0.32133898     0.036207057   -0.21074474    -0.00028702959
   7314000   0.050243626   -0.3214696      0.035922592   -0.21018644     0.00011825034
   7315000   0.050242656   -0.32141607     0.035669599   -0.21038734     0.000942825  
   7316000   0.050013445   -0.32157159     0.035674412   -0.21088186    -0.00067018708
   7317000   0.049348806   -0.32117062     0.035462538   -0.21168965    -5.3746063e-05
   7318000   0.049918906   -0.32162921     0.036093006   -0.21066267    -0.0001068963 
   7319000   0.05010596    -0.3216876      0.035966449   -0.21056706    -0.00070584514
   7320000   0.049962613   -0.32151877     0.035694305   -0.21088538    -9.8543002e-05
   7321000   0.049528666   -0.32112859     0.035554888   -0.21128549    -0.00077055337
   7322000   0.049554234   -0.32133        0.03560857    -0.21139487     9.2004935e-05
   7323000   0.048839231   -0.32107605     0.035371892   -0.21245004     7.5794568e-05
   7324000   0.050035881   -0.32130651     0.035738814   -0.21051872    -0.00063007474
   7325000   0.049634577   -0.32114701     0.035519621   -0.21118033     0.00043995558
   7326000   0.049862905   -0.32127237     0.03497986    -0.21150298    -0.00024816981
   7327000   0.049331004   -0.32095669     0.035351601   -0.21161336     0.0010759952 
   7328000   0.049816352   -0.32115646     0.035827628   -0.21060912     0.00060000032
   7329000   0.050186713   -0.32151004     0.036159763   -0.21007507     0.00046042076
   7330000   0.049895163   -0.32097278     0.035822936   -0.21031193     8.491131e-05 
   7331000   0.049922868   -0.32110443     0.035898483   -0.21032647     0.00010324874
   7332000   0.049898787   -0.32123223     0.036297646   -0.21009123     0.0005606161 
   7333000   0.050277638   -0.32150846     0.035846534   -0.21025033     0.00050524016
   7334000   0.050323482   -0.32094077     0.035955468   -0.20950495     0.0013913957 
   7335000   0.049903463   -0.32091569     0.035979519   -0.21008581     0.00020299452
   7336000   0.050259325   -0.32145847     0.03622067    -0.20985368     0.00025103672
   7337000   0.050573114   -0.32073023     0.035896816   -0.20897863     0.0010673478 
   7338000   0.050242616   -0.3213873      0.036377458   -0.20965078     0.0004237194 
   7339000   0.049868039   -0.32114355     0.03640559    -0.20994073     0.00051373571
   7340000   0.049761787   -0.32148282     0.035846542   -0.21099841    -0.000470882  
   7341000   0.050269473   -0.32143209     0.036185104   -0.20984764    -0.000385299  
   7342000   0.049762887   -0.32131886     0.036544314   -0.21013503     0.00034422199
   7343000   0.049806743   -0.32113906     0.036519061   -0.2099147      0.00017111177
   7344000   0.050056346   -0.32156817     0.036255784   -0.21023271     0.00018627325
   7345000   0.049924168   -0.32127477     0.035629683   -0.21076367     0.00036094095
   7346000   0.050186953   -0.32139693     0.035281961   -0.2108394      6.7490541e-05
   7347000   0.049801382   -0.32114617     0.035814744   -0.21063417     0.00066919252
   7348000   0.050004153   -0.32157703     0.035626049   -0.21094959     0.00055486355
   7349000   0.049791653   -0.32150792     0.035252226   -0.21157304     0.00074287959
   7350000   0.049976696   -0.32146882     0.035527308   -0.2109813     -0.00022293961
   7351000   0.050071286   -0.3214787      0.035177506   -0.21119911     0.00066352153
   7352000   0.0500166     -0.32122888     0.036060092   -0.21014873     0.0010114141 
   7353000   0.049653554   -0.32206152     0.035939472   -0.21164652    -0.00050268033
   7354000   0.049755816   -0.32155634     0.035345719   -0.21158171     0.00035287897
   7355000   0.050023266   -0.32128043     0.035823663   -0.21042671    -0.00026444555
   7356000   0.049502434   -0.32146653     0.036012047   -0.21120562     0.0001252556 
   7357000   0.049446909   -0.32143688     0.0359836     -0.2112877     -0.00068076409
   7358000   0.050173825   -0.32163463     0.035511658   -0.21086709    -0.00063703337
   7359000   0.049539087   -0.32148545     0.035533094   -0.21164852    -0.00014939587
   7360000   0.049480873   -0.32146611     0.035473787   -0.21177581     0.00067034793
   7361000   0.049953359   -0.32130608     0.035730239   -0.21065064     0.00035620479
   7362000   0.049684819   -0.32162515     0.03532821    -0.21177452     0.0006397183 
   7363000   0.049673237   -0.32147222     0.036201888   -0.21076528     5.8343115e-05
   7364000   0.050336462   -0.32138725     0.036056741   -0.20983069    -0.00042448967
   7365000   0.050775654   -0.3214086      0.035792991   -0.20945704    -0.00089567041
   7366000   0.050536025   -0.32107195     0.035653918   -0.20961889     0.00077093658
   7367000   0.050045552   -0.32155429     0.035733041   -0.21075777     0.00064880827
   7368000   0.049425431   -0.32152263     0.036440948   -0.21094832    -0.00035645895
   7369000   0.049758927   -0.32188269     0.035289463   -0.21195965     0.00057645714
   7370000   0.05000602    -0.32141477     0.036037866   -0.21037271    -0.00047438101
   7371000   0.049501923   -0.32195772     0.035791796   -0.21191783    -0.00025161861
   7372000   0.049894837   -0.32112122     0.035686873   -0.21059692     0.0009504195 
   7373000   0.050027495   -0.32148139     0.035650654   -0.21079434     0.00082762094
   7374000   0.050013641   -0.32129282     0.035824664   -0.21045253     0.00024875016
   7375000   0.049552307   -0.32171512     0.035181084   -0.21221037    -0.0005709956 
   7376000   0.049644078   -0.32151238     0.035511062   -0.21154        8.7626412e-05
   7377000   0.050030993   -0.32195891     0.035595965   -0.2113213     -0.00020578251
   7378000   0.050121828   -0.32159971     0.035935102   -0.21048672     0.00019432261
   7379000   0.049592137   -0.32153075     0.03619802    -0.21094933    -0.00051347934
   7380000   0.05013251    -0.32110171     0.035867185   -0.21004061    -0.00031651033
   7381000   0.050251428   -0.3218494      0.03617587    -0.21030125    -0.0004294271 
   7382000   0.049994504   -0.32187043     0.035801923   -0.21108158    -0.00017923977
   7383000   0.049659463   -0.32166694     0.035955464   -0.21122708     0.00056072127
   7384000   0.049596921   -0.32151441     0.035433007   -0.21169082     0.00078489643
   7385000   0.04943078    -0.3218351      0.035809252   -0.21188446     0.0010335374 
   7386000   0.049447426   -0.3215496      0.036069443   -0.21131381    -0.00034376737
   7387000   0.050313002   -0.32128218     0.035872718   -0.20994483     0.00062193312
   7388000   0.050069365   -0.32137892     0.035859777   -0.21041994    -0.00013265565
   7389000   0.049839294   -0.32111664     0.035574224   -0.2107883      2.1750541e-05
   7390000   0.049751519   -0.32138768     0.036115268   -0.21064994     0.00048772475
   7391000   0.049158153   -0.32202857     0.035851645   -0.21244445     2.2134152e-05
   7392000   0.049678031   -0.32143213     0.035384217   -0.21153568     0.00097792254
   7393000   0.050332126   -0.3211238      0.035650107   -0.20998038    -0.00099917818
   7394000   0.050185709   -0.32148839     0.03598338    -0.21023131    -0.00019157726
   7395000   0.050014484   -0.32151476     0.036257669   -0.21024021     0.00013383026
   7396000   0.050114413   -0.32156148     0.036036029   -0.21035868     0.00060148928
   7397000   0.049611132   -0.3219089      0.035986861   -0.21151014    -0.00018434256
   7398000   0.049913804   -0.32167707     0.035367806   -0.21144338     0.00060653675
   7399000   0.049914174   -0.32206743     0.035501748   -0.21169925    -0.0005625854 
   7400000   0.049840171   -0.32159184     0.035386018   -0.21145039     0.00013043743
   7401000   0.049782699   -0.32161856     0.036089688   -0.21085964     0.0001588811 
   7402000   0.050545739   -0.32148958     0.03562731    -0.21004855     0.00044196307
   7403000   0.05038957    -0.32143801     0.036499322   -0.20935921    -0.00071088422
   7404000   0.050977183   -0.32149867     0.035956088   -0.20908174     0.00086354561
   7405000   0.050313285   -0.32133458     0.035747103   -0.21012242     0.00095843181
   7406000   0.049296289   -0.32092235     0.036375055   -0.21060764     0.00058039566
   7407000   0.049774444   -0.32147987     0.036116694   -0.21070633    -3.1159616e-05
   7408000   0.04948356    -0.32146227     0.035980524   -0.2112612      0.0001125783 
   7409000   0.049554528   -0.32163532     0.03626781    -0.21104052     0.00025728551
   7410000   0.050438944   -0.32180631     0.03585602    -0.21029676     0.00036316398
   7411000   0.049898401   -0.32186586     0.03609315    -0.21092994     0.00021343414
   7412000   0.050089671   -0.32149789     0.036343699   -0.21002453     0.00029989525
   7413000   0.049799549   -0.32174631     0.035397601   -0.21165421    -0.00086226206
   7414000   0.049499562   -0.32150829     0.035914623   -0.21134911    -0.0004298553 
   7415000   0.04987771    -0.32182445     0.035791449   -0.21122126     0.00029599902
   7416000   0.049750076   -0.32146577     0.03607685    -0.21076862     0.00017077688
   7417000   0.05055165    -0.32135053     0.03528722    -0.21024073     5.4635366e-06
   7418000   0.049832642   -0.32173166     0.035972472   -0.21101505     0.0003431618 
   7419000   0.050317866   -0.32139528     0.035861926   -0.21006143     0.00053467387
   7420000   0.049805653   -0.3213962      0.035774021   -0.21091852    -2.107086e-05 
   7421000   0.050179266   -0.3216499      0.036233907   -0.21015195    -0.00034297839
   7422000   0.05005738    -0.32169572     0.03546415    -0.21115034    -0.00099198455
   7423000   0.049830013   -0.32145747     0.036043337   -0.21067394     0.00010251376
   7424000   0.050255058   -0.32177829     0.03590955    -0.21049101    -5.3230809e-05
   7425000   0.049936739   -0.32113836     0.036389479   -0.2098486      0.00060100306
   7426000   0.050483101   -0.32155417     0.035859163   -0.20997525     0.00069003235
   7427000   0.050069803   -0.32138366     0.035518261   -0.21076554     0.00086711882
   7428000   0.049652743   -0.32141905     0.035752521   -0.21119222     0.00020280667
   7429000   0.049981847   -0.32200164     0.036117627   -0.21091608     5.374247e-05 
   7430000   0.049622836   -0.32224602     0.036092725   -0.21172385    -0.00021380609
   7431000   0.049810904   -0.32168878     0.035268533   -0.21170871    -0.00025662274
   7432000   0.049355729   -0.32119121     0.035985378   -0.21117702     0.00039256847
   7433000   0.05013645    -0.3215929      0.035619472   -0.21077361    -0.00069538946
   7434000   0.049946757   -0.32161321     0.036050541   -0.21064737     0.00021871661
   7435000   0.049852214   -0.32146166     0.035923039   -0.21076512     7.4336091e-05
   7436000   0.050000086   -0.32182904     0.035498338   -0.21133541     0.00017219749
   7437000   0.049723106   -0.32188042     0.035505291   -0.21179528    -0.00056004393
   7438000   0.049911033   -0.3215809      0.036125587   -0.2105936      0.00032993573
   7439000   0.051057056   -0.32190674     0.036246347   -0.20907975    -8.1704498e-05
   7440000   0.049688392   -0.32153001     0.036297575   -0.21070465    -0.00042016207
   7441000   0.049596295   -0.32139666     0.035808805   -0.21119822     0.00024493941
   7442000   0.049900955   -0.32125046     0.035529349   -0.21087451     0.001521447  
   7443000   0.050093503   -0.32150035     0.035551665   -0.21081327     0.00087947166
   7444000   0.050195123   -0.32166946     0.035471201   -0.21091043    -4.5905661e-05
   7445000   0.049868217   -0.32139432     0.035848154   -0.21074866     2.9311948e-05
   7446000   0.050326406   -0.32145324     0.03591528    -0.21005322     0.00065872316
   7447000   0.05031272    -0.32144393     0.035691614   -0.21028811    -0.00078736485
   7448000   0.04972318    -0.32117591     0.035445098   -0.21115086    -0.00016774472
   7449000   0.049488657   -0.32174884     0.035641419   -0.21187923     0.00083743942
   7450000   0.050399394   -0.32178369     0.035740938   -0.21044854     0.00037428228
   7451000   0.050271602   -0.32151163     0.036217476   -0.20989162     0.00011474331
   7452000   0.050263638   -0.32167039     0.036275028   -0.21000477    -0.0009016597 
   7453000   0.050094637   -0.32176633     0.036460133   -0.21016909     7.4101364e-05
   7454000   0.050012476   -0.32133502     0.035985512   -0.21033563     0.0005428462 
   7455000   0.049387442   -0.32150886     0.035991587   -0.21144089     0.0011493789 
   7456000   0.049905935   -0.32160436     0.035772572   -0.21097772     0.00028496054
   7457000   0.049569014   -0.32159809     0.036355524   -0.21089385    -0.00094984117
   7458000   0.049764302   -0.32140176     0.035674005   -0.21108611     0.00057612475
   7459000   0.050160001   -0.32142093     0.036260758   -0.20992502     0.00078861726
   7460000   0.049873646   -0.3215785      0.036283082   -0.21048977    -0.0010206582 
   7461000   0.049793329   -0.32163274     0.03628411    -0.21066345    -8.7656993e-05
   7462000   0.050282425   -0.32147466     0.03536897    -0.21068692     0.00060326371
   7463000   0.050138278   -0.32143963     0.035702324   -0.21053474     0.00012929628
   7464000   0.049635425   -0.32111719     0.035986457   -0.2106824      0.0002291742 
   7465000   0.050102112   -0.32121378     0.035320259   -0.2107452      0.00029015925
   7466000   0.050222169   -0.32179917     0.036252651   -0.21021813    -0.00029026102
   7467000   0.050524054   -0.3216694      0.036223962   -0.20966425    -0.00060611528
   7468000   0.049899061   -0.32168103     0.035714229   -0.21112304     0.0005104919 
   7469000   0.049667493   -0.32171923     0.035518509   -0.21170429     0.00076861141
   7470000   0.050096992   -0.32162537     0.036200492   -0.21028424     0.00050533548
   7471000   0.050065741   -0.32137254     0.035410148   -0.21086863     0.00036649013
   7472000   0.049852323   -0.32164971     0.03595351    -0.21092254     0.00017473169
   7473000   0.049779167   -0.32161265     0.035648934   -0.21129979     0.00013630078
   7474000   0.049548454   -0.32171346     0.035676592   -0.21171899    -3.9974783e-05
   7475000   0.050038465   -0.32195832     0.035612839   -0.21129263     0.00039183809
   7476000   0.04970499    -0.32147109     0.035508066   -0.21141035     0.00091296175
   7477000   0.049826339   -0.32157244     0.036233455   -0.2106043      0.00058920804
   7478000   0.049928525   -0.32155262     0.035527908   -0.21113676    -2.9911528e-06
   7479000   0.050115718   -0.32178003     0.035910669   -0.21070063    -0.00044089769
   7480000   0.049653363   -0.32143705     0.035660788   -0.21130103    -0.00036214626
   7481000   0.050101885   -0.32144149     0.03585538    -0.21043813     0.00026802441
   7482000   0.050037471   -0.32143379     0.035715589   -0.21066684     8.7541871e-05
   7483000   0.049916231   -0.32174679     0.036479281   -0.21039799     0.00019201389
   7484000   0.050104333   -0.3214504      0.035638286   -0.21066046     0.00094873333
   7485000   0.049758818   -0.32200438     0.036324525   -0.21104644    -0.00036622686
   7486000   0.049837737   -0.32147429     0.036108064   -0.21061444    -0.00088781108
   7487000   0.049762895   -0.32139865     0.035869429   -0.21088969    -0.0001460122 
   7488000   0.049662867   -0.32200271     0.035970349   -0.21154287    -4.6354199e-05
   7489000   0.049549258   -0.32172515     0.035969711   -0.21143635    -0.00086010035
   7490000   0.049661976   -0.3218731      0.035821905   -0.21156304     0.00026846036
   7491000   0.050495866   -0.32167588     0.035814712   -0.21012225    -0.00086914043
   7492000   0.049838769   -0.32197797     0.035830055   -0.21139459    -0.00022824819
   7493000   0.04962212    -0.32162353     0.036141568   -0.21105358     0.00094874987
   7494000   0.050125206   -0.32200513     0.036499379   -0.21032279    -0.00061282025
   7495000   0.049542197   -0.32142868     0.035779679   -0.2113405      0.00024106536
   7496000   0.049514491   -0.32108249     0.035314296   -0.21150125     0.0009782673 
   7497000   0.050265898   -0.32133938     0.035848242   -0.21009716     0.00040905806
   7498000   0.049776546   -0.32160017     0.035430265   -0.21150991     0.00052209281
   7499000   0.049387256   -0.32201763     0.035567617   -0.21237391    -0.00030135287
   7500000   0.049581654   -0.32174591     0.035407468   -0.21197076    -0.00020380732
   7501000   0.049438306   -0.3217321      0.036191461   -0.21138797    -0.00059338412
   7502000   0.049923592   -0.32183459     0.035561947   -0.21139208     0.00059478173
   7503000   0.049878854   -0.3222256      0.03578404    -0.21162811    -0.00066486872
   7504000   0.049766845   -0.32194196     0.035636366   -0.21166015    -0.00028501942
   7505000   0.049689877   -0.32158381     0.035879507   -0.2111743      7.6156984e-05
   7506000   0.049715302   -0.32210938     0.036129872   -0.21141137    -0.00090823293
   7507000   0.050536841   -0.32133201     0.035818554   -0.20971308     0.0005659827 
   7508000   0.050270231   -0.3219067      0.036418657   -0.21008756     0.00051135737
   7509000   0.050334516   -0.32142791     0.036007271   -0.20992374    -0.0002487156 
   7510000   0.049951258   -0.32132117     0.035856415   -0.2105427      0.00032937966
   7511000   0.050549349   -0.32154624     0.036085912   -0.20964119     0.00056654011
   7512000   0.05016235    -0.32197473     0.036235588   -0.21050048     0.00030441414
   7513000   0.04924018    -0.32185772     0.036438285   -0.21156394    -0.00084888954
   7514000   0.050001699   -0.32166315     0.035238805   -0.21142663     0.000396329  
   7515000   0.050221282   -0.32171289     0.035786332   -0.2105995      7.1744415e-05
   7516000   0.04983437    -0.32182261     0.036173978   -0.2109019     -0.00062673346
   7517000   0.050342628   -0.32176902     0.035756348   -0.2105036     -0.00092456941
   7518000   0.050382658   -0.32132859     0.03556476    -0.21019472     0.00081926212
   7519000   0.049675565   -0.32151649     0.036382369   -0.21062559    -0.00081990204
   7520000   0.049280356   -0.32173194     0.036344478   -0.2114717     -0.00049816299
   7521000   0.049677896   -0.321325       0.036160545   -0.21065242     0.00028133621
   7522000   0.050150984   -0.32186783     0.035829533   -0.21081668     7.2138725e-05
   7523000   0.050500626   -0.32184147     0.035602316   -0.2104931      0.00057415864
   7524000   0.049924096   -0.32167836     0.035710062   -0.21108699     0.00064338115
   7525000   0.049405784   -0.32158199     0.035726566   -0.21175153     0.00034408738
   7526000   0.050116435   -0.32202575     0.035638029   -0.21121792    -0.00016485805
   7527000   0.049767862   -0.3220215      0.035720723   -0.2116538     -0.00093349236
   7528000   0.050658715   -0.32183247     0.035328572   -0.21052073    -5.8276149e-05
   7529000   0.049823823   -0.32158627     0.035588414   -0.21126694    -0.00097056611
   7530000   0.049826282   -0.32209738     0.036098097   -0.21126469    -7.5272507e-05
   7531000   0.050068636   -0.32177208     0.035730777   -0.21094319     0.00097809033
   7532000   0.050159617   -0.32192707     0.036210615   -0.21048188     0.00018114727
   7533000   0.051304195   -0.32163826     0.036264192   -0.20842274     9.1550095e-06
   7534000   0.050028713   -0.32145601     0.036358554   -0.21005923    -0.00036622912
   7535000   0.050791776   -0.32194501     0.036227293   -0.20953497     0.00032574355
   7536000   0.05043899    -0.32187063     0.035373461   -0.21084356     0.00040886881
   7537000   0.049112687   -0.32184588     0.035484122   -0.21269748    -7.5472289e-05
   7538000   0.049719934   -0.32233262     0.03559984    -0.21215769    -0.00049723043
   7539000   0.049867579   -0.32205455     0.035630505   -0.2116275      8.3936766e-05
   7540000   0.049821082   -0.32158309     0.036091643   -0.21076465    -0.00037815633
   7541000   0.050044824   -0.32179731     0.035737696   -0.21099722     0.00021546149
   7542000   0.049624479   -0.32174145     0.036604071   -0.21070546    -0.00035006506
   7543000   0.049763038   -0.32202081     0.035761086   -0.21161998     0.00027778727
   7544000   0.04996469    -0.32200091     0.035761342   -0.21129737     7.2153367e-05
   7545000   0.049954894   -0.32157715     0.036472812   -0.21017683    -0.00041506299
   7546000   0.050098528   -0.32234146     0.036217953   -0.21098057    -0.00035293685
   7547000   0.050445089   -0.32175073     0.035720693   -0.21036729     7.2664562e-05
   7548000   0.050138391   -0.32217676     0.036390938   -0.21058308     0.0001222536 
   7549000   0.050063336   -0.32218547     0.036005144   -0.21109017    -0.00023676502
   7550000   0.049672321   -0.32183191     0.03587615    -0.21145209    -4.5743692e-05
   7551000   0.05049138    -0.32178528     0.035888949   -0.21016415    -0.00043333411
   7552000   0.04994519    -0.32194003     0.03614273    -0.21088435    -0.0003885302 
   7553000   0.049539823   -0.32158195     0.035849037   -0.21142797     8.89127e-05  
   7554000   0.049424556   -0.32208784     0.035576971   -0.21237882     0.00017077193
   7555000   0.049954193   -0.32191979     0.036358507   -0.21063482     0.00054664692
   7556000   0.050239644   -0.32148413     0.036008496   -0.21012103     0.00027830799
   7557000   0.049924073   -0.32185454     0.035890269   -0.21108299    -0.00087667515
   7558000   0.049845909   -0.32189268     0.036294144   -0.2108345      0.00020502569
   7559000   0.049735127   -0.32246355     0.036118791   -0.21174689    -0.0010795931 
   7560000   0.050022897   -0.32203358     0.03543211    -0.21157196     0.00037859957
   7561000   0.050456569   -0.32197739     0.036375154   -0.20992226    -0.0001283118 
   7562000   0.04990417    -0.32184672     0.035830432   -0.21116486     0.00050386897
   7563000   0.04991144    -0.32210572     0.035730487   -0.2115129      0.00098769682
   7564000   0.049694432   -0.32218598     0.035672579   -0.21197656    -0.00012338779
   7565000   0.049957602   -0.32175364     0.035509298   -0.21131277     0.00010370122
   7566000   0.050422784   -0.32163577     0.035213339   -0.21079313     9.1461954e-05
   7567000   0.049763823   -0.3221887      0.035597695   -0.21195009     0.00028966548
   7568000   0.050431716   -0.32203051     0.035495293   -0.21089252    -6.176906e-05 
   7569000   0.049827278   -0.3222523      0.036150121   -0.21136608    -0.00037715938
   7570000   0.050104448   -0.32208006     0.036405408   -0.21052283    -0.0013371165 
   7571000   0.049992916   -0.32198906     0.03627453    -0.21072999     0.00015227363
   7572000   0.050064206   -0.32220465     0.035930613   -0.21118257     0.00052283184
   7573000   0.050304088   -0.32238693     0.035888731   -0.21104694    -0.00072525415
   7574000   0.050091632   -0.32213152     0.035465445   -0.21153347     0.00088621459
   7575000   0.049823738   -0.32197827     0.036232333   -0.21101515    -0.00019393638
   7576000   0.050015948   -0.32184443     0.035638554   -0.21118679     0.00040070561
   7577000   0.04975582    -0.32183271     0.035944626   -0.21125917     0.00017968217
   7578000   0.05012622    -0.32183401     0.034896166   -0.21175337    -4.9442606e-05
   7579000   0.04947961    -0.3219228      0.035520634   -0.21218754     0.00028367562
   7580000   0.049950064   -0.32230666     0.035151922   -0.21223447     0.00093856169
   7581000   0.049164188   -0.32191949     0.035904091   -0.21227387     0.00076821968
   7582000   0.050298836   -0.32239428     0.035725077   -0.21122581     0.00023903465
   7583000   0.049146594   -0.3220507      0.03648265    -0.21185292    -4.9010416e-05
   7584000   0.050059144   -0.32204258     0.035880308   -0.2110784     -0.00016578746
   7585000   0.050193965   -0.32191998     0.03598091    -0.21065298    -0.00032405455
   7586000   0.0500958     -0.32191812     0.035988997   -0.21079027    -0.00012402406
   7587000   0.049691961   -0.3216419      0.035890895   -0.21121788     0.0003701059 
   7588000   0.05001625    -0.32204481     0.035918477   -0.2111068     -0.00025267642
   7589000   0.05001787    -0.32205293     0.036168541   -0.21086243    -6.9947903e-05
   7590000   0.05026654    -0.32200729     0.035645517   -0.21096682     0.00011436161
   7591000   0.050322618   -0.32202381     0.036091297   -0.21045345     0.00081963204
   7592000   0.050047739   -0.32202164     0.036208911   -0.21074597     0.00081007907
   7593000   0.050262473   -0.32250484     0.035558032   -0.21155796     5.5002341e-05
   7594000   0.050260811   -0.32214133     0.036307149   -0.21044782     0.00083173674
   7595000   0.049688309   -0.32239579     0.035752625   -0.2121155      0.00011599615
   7596000   0.050217521   -0.32249715     0.036191864   -0.21098386    -0.00024019025
   7597000   0.049885686   -0.32250011     0.036413623   -0.21126279     3.7453654e-05
   7598000   0.049756496   -0.32206394     0.036535835   -0.21089818    -0.00027876978
   7599000   0.050161405   -0.32275177     0.035899937   -0.21161458     0.00080231134
   7600000   0.049661867   -0.32265593     0.036384264   -0.21178367    -0.0010682591 
   7601000   0.049802083   -0.3222492      0.035969307   -0.21158158     0.00010403999
   7602000   0.050130279   -0.32211105     0.035689842   -0.21123064     0.00045042428
   7603000   0.050248919   -0.32168203     0.03535493    -0.21095858     0.00042665391
   7604000   0.050708367   -0.32224157     0.035058686   -0.21112524     0.0012936136 
   7605000   0.050162445   -0.32256336     0.035663953   -0.2116606     -0.00035106829
   7606000   0.049538341   -0.32229034     0.035991102   -0.21199653     4.9983261e-05
   7607000   0.04953569    -0.32270521     0.03543548    -0.21297099    -0.00012695291
   7608000   0.050198774   -0.32256754     0.035674486   -0.21159975    -6.1650817e-05
   7609000   0.050226171   -0.32160896     0.035433799   -0.21084076     0.0012303084 
   7610000   0.05032812    -0.32219364     0.03562668    -0.21107965    -3.2778675e-05
   7611000   0.049956886   -0.32182316     0.036440134   -0.21045254    -0.00010816115
   7612000   0.050943053   -0.32250429     0.035703405   -0.21039124     0.00051393087
   7613000   0.050078205   -0.32231652     0.036073278   -0.21113079    -0.00044797397
   7614000   0.050566545   -0.32197446     0.03558375    -0.21054578    -2.2445506e-05
   7615000   0.050467657   -0.32212232     0.035788804   -0.21063691     0.00087538684
   7616000   0.05028469    -0.32201662     0.036460362   -0.2101341     -0.00019741415
   7617000   0.049935552   -0.32295562     0.036305968   -0.21175115    -0.00058822245
   7618000   0.050077114   -0.32239453     0.035917127   -0.21136658    -0.00029163936
   7619000   0.049825504   -0.32227901     0.036150129   -0.21139545     5.2514857e-05
   7620000   0.050077939   -0.32258671     0.035958276   -0.21151637    -0.0011736136 
   7621000   0.050278161   -0.32277423     0.03570551    -0.21165635     1.0326975e-05
   7622000   0.049696089   -0.32251812     0.036015909   -0.21196289     0.00064828695
   7623000   0.049951769   -0.32228318     0.035850029   -0.21151034     0.00054732479
   7624000   0.049449836   -0.32227854     0.035639339   -0.21246923    -0.00019907587
   7625000   0.049973764   -0.32224975     0.035755087   -0.21153886     0.00068832733
   7626000   0.050084968   -0.32259415     0.035854995   -0.21161655    -0.00016131292
   7627000   0.050018833   -0.3225613      0.035458908   -0.21207898     0.00046334113
   7628000   0.050252613   -0.32225429     0.035926539   -0.2109537     -0.00011306611
   7629000   0.05052544    -0.32248496     0.036019837   -0.21068185    -0.00027621429
   7630000   0.050069532   -0.32260565     0.035927273   -0.21157893    -0.00021981037
   7631000   0.049764906   -0.32197613     0.035684701   -0.21164889     0.00034153752
   7632000   0.050272155   -0.32276553     0.035431978   -0.21193019    -0.00080453472
   7633000   0.050045178   -0.32225267     0.03614598    -0.21104376     0.00013102482
   7634000   0.049825754   -0.32229204     0.035880007   -0.21167823    -0.00060252846
   7635000   0.050104366   -0.32223257     0.035557396   -0.21152348    -0.00045389744
   7636000   0.050140287   -0.32225381     0.035967896   -0.21108033     0.00022777664
   7637000   0.050143254   -0.32233393     0.035520333   -0.21160356    -0.00040309364
   7638000   0.049912142   -0.32231296     0.035384093   -0.21206548    -0.00020941648
   7639000   0.049642228   -0.32265691     0.036010845   -0.21218753     0.00030877229
   7640000   0.049578346   -0.3224468      0.03588515    -0.21219893    -0.00049705077
   7641000   0.050073367   -0.32228197     0.035630516   -0.21154625     0.00034077969
   7642000   0.049758547   -0.32280736     0.036372628   -0.21180173    -7.5881029e-05
   7643000   0.049577304   -0.32241458     0.035795786   -0.21225764    -0.00028632944
   7644000   0.050156381   -0.32242891     0.035717714   -0.21148148    -0.00020745436
   7645000   0.050087083   -0.32228749     0.035720633   -0.21144107     0.00017663578
   7646000   0.049819115   -0.32265622     0.035880268   -0.2120521     -0.00014816049
   7647000   0.050297152   -0.3222514      0.03645164    -0.2103589      0.00037556134
   7648000   0.050234973   -0.32242708     0.036774256   -0.21030523    -0.0011424555 
   7649000   0.050410434   -0.32267158     0.035836911   -0.2112239      0.00089494377
   7650000   0.050116179   -0.32257847     0.035677466   -0.21173159     0.0013504832 
   7651000   0.050212862   -0.32233562     0.036080069   -0.21094112    -0.00041780637
   7652000   0.050254192   -0.32221461     0.03554838    -0.21128981     0.00030011339
   7653000   0.050692129   -0.32282464     0.036591486   -0.21019987    -0.00066564575
   7654000   0.050271341   -0.32285253     0.035965485   -0.2114849      3.178096e-05 
   7655000   0.050063564   -0.32264169     0.035508551   -0.21204264    -0.00039258059
   7656000   0.050307208   -0.32248292     0.035127177   -0.2118998     -0.00025360945
   7657000   0.049753887   -0.32218641     0.035716406   -0.21184399     5.5606589e-05
   7658000   0.049884      -0.32229967     0.036470335   -0.21100816     7.4067741e-05
   7659000   0.049504713   -0.32215507     0.036119178   -0.21178361     0.00051817783
   7660000   0.049065413   -0.32240984     0.035109902   -0.21370657     0.0005490296 
   7661000   0.04984348    -0.32294108     0.035777146   -0.21240354    -0.00052382592
   7662000   0.049967418   -0.32231248     0.035987511   -0.21137868    -0.00061594606
   7663000   0.050055032   -0.32214896     0.035797809   -0.21127345    -0.0006525303 
   7664000   0.049951002   -0.32258294     0.035999235   -0.21166204    -0.00064624356
   7665000   0.049621843   -0.32226223     0.035364753   -0.21246951    -0.00018821081
   7666000   0.049469004   -0.32236497     0.035369856   -0.21279639    -0.00029123866
   7667000   0.049459563   -0.3224486      0.035997096   -0.21226695     3.3177602e-05
   7668000   0.049439581   -0.32237411     0.035697136   -0.21252239    -0.00048209945
   7669000   0.049955947   -0.32228701     0.035294129   -0.21206379     0.0010453307 
   7670000   0.050527786   -0.32253381     0.035566885   -0.21118013     0.00090060587
   7671000   0.049592254   -0.32241416     0.035522171   -0.2125084      0.00015071008
   7672000   0.05022759    -0.32229188     0.035414652   -0.2115407     -0.00024939182
   7673000   0.049623295   -0.32228202     0.035684769   -0.21216711    -4.396462e-05 
   7674000   0.049785888   -0.32213276     0.035546238   -0.2119125     -0.00023022522
   7675000   0.050088702   -0.32233409     0.036120834   -0.21108505    -0.00052160972
   7676000   0.050013748   -0.32283052     0.035897478   -0.21191726     0.00015435644
   7677000   0.049901716   -0.32273626     0.035843847   -0.21204467     0.00025046739
   7678000   0.050426287   -0.32242732     0.035534041   -0.21125873     0.00019261064
   7679000   0.050024983   -0.32253001     0.036366436   -0.21113094     6.993904e-05 
   7680000   0.05036243    -0.32286225     0.035388806   -0.21193467    -7.3470041e-05
   7681000   0.049585393   -0.32275493     0.036190675   -0.21219096    -0.0011424198 
   7682000   0.049900686   -0.3223491      0.035562916   -0.21193998     0.0010252345 
   7683000   0.049705158   -0.3225001      0.035710228   -0.21223694    -9.6974689e-05
   7684000   0.049302488   -0.32261251     0.035768111   -0.21289544    -0.0002051689 
   7685000   0.050079144   -0.32244976     0.035008799   -0.21232709     0.00042101309
   7686000   0.050586753   -0.32227053     0.035982293   -0.21041301    -0.00021901768
   7687000   0.050039271   -0.32269761     0.035855437   -0.21178811     0.00023384962
   7688000   0.050395069   -0.322128       0.036170139   -0.21037014     0.00052478889
   7689000   0.050423741   -0.32183499     0.03579943    -0.21040483     0.00023108944
   7690000   0.050148552   -0.32302353     0.035792217   -0.21201334    -0.00029880216
   7691000   0.049603527   -0.32273316     0.035675471   -0.21265719    -0.00018254174
   7692000   0.050580506   -0.3223204      0.035767472   -0.21068707     0.00016833233
   7693000   0.050444162   -0.32219063     0.036534297   -0.20999497    -0.00037433555
   7694000   0.050095804   -0.32234806     0.036002394   -0.21120681    -0.00011424676
   7695000   0.049900556   -0.32273238     0.035622217   -0.21226416     0.00092548006
   7696000   0.049399956   -0.32278094     0.035862446   -0.21282334    -5.7065747e-05
   7697000   0.049892797   -0.32230914     0.035862929   -0.21161184    -3.8552008e-06
   7698000   0.049783059   -0.32279384     0.036481032   -0.21164304    -0.0013370438 
   7699000   0.050093901   -0.32246837     0.035387776   -0.21194459     0.00031177863
   7700000   0.049884431   -0.32241476     0.035688816   -0.21190413     0.0001875465 
   7701000   0.050063176   -0.32251331     0.036006935   -0.21141645     0.00028924564
   7702000   0.049958616   -0.32242681     0.036053713   -0.21144001    -0.00066990197
   7703000   0.04954095    -0.3229478      0.036256964   -0.2123842     -0.00013767967
   7704000   0.049588654   -0.32286517     0.035310929   -0.21317606     0.00016614827
   7705000   0.049797996   -0.32245463     0.035888927   -0.21187353    -0.00098576505
   7706000   0.050066568   -0.32254393     0.03603488    -0.21141404    -0.00071640957
   7707000   0.050090342   -0.32276084     0.035890192   -0.21173999    -6.1751918e-05
   7708000   0.049661199   -0.32226256     0.035879574   -0.21189599    -0.00034738909
   7709000   0.049652515   -0.3219191      0.036287923   -0.21115721     0.00036732601
   7710000   0.04969467    -0.3225277      0.035478477   -0.21251202    -0.00074956982
   7711000   0.049432449   -0.32248626     0.036382243   -0.21196013     0.0002666745 
   7712000   0.049847978   -0.32266624     0.035761135   -0.21213796     4.3648164e-05
   7713000   0.050426631   -0.32220874     0.036134815   -0.21043886     0.00086688894
   7714000   0.049952892   -0.32209576     0.03565264    -0.21151862     0.00048574611
   7715000   0.050162629   -0.32252103     0.035582015   -0.21169992    -0.00072152232
   7716000   0.050063577   -0.32240753     0.035429117   -0.21188789    -3.6162056e-05
   7717000   0.049762901   -0.32245777     0.036178211   -0.21164002    -0.00041039765
   7718000   0.050298682   -0.32218839     0.03572492    -0.21102031     0.00031045215
   7719000   0.049739385   -0.32252961     0.035404337   -0.21252101    -8.5534251e-05
   7720000   0.049921558   -0.32214448     0.035619471   -0.2116475      0.0006333471 
   7721000   0.049963736   -0.32221298     0.035596256   -0.21167595    -0.00011545698
   7722000   0.050179995   -0.3226552      0.035849656   -0.21154041    -0.00025319313
   7723000   0.049437572   -0.32268603     0.036361095   -0.21217336     0.00069244869
   7724000   0.050213572   -0.32264992     0.035543831   -0.21179059     0.00044892424
   7725000   0.049930291   -0.32236177     0.035643533   -0.21182763     0.00040927201
   7726000   0.050394895   -0.32245169     0.035212962   -0.21165126     0.00056830559
   7727000   0.049973223   -0.32250475     0.035943726   -0.21160603     0.00097815535
   7728000   0.04986309    -0.32243694     0.035601445   -0.21204568     0.00050523241
   7729000   0.050122777   -0.32274223     0.035837433   -0.21172549     0.00063030111
   7730000   0.050031035   -0.32307751     0.035963439   -0.21207236    -0.00076822626
   7731000   0.049355567   -0.3227269      0.036380607   -0.21231772     1.5431945e-05
   7732000   0.050308243   -0.3226094      0.036416097   -0.21073581    -0.00017612169
   7733000   0.050364168   -0.32273523     0.0358553     -0.21133856     0.00038598879
   7734000   0.050339044   -0.32231442     0.036500822   -0.2103099     -0.00011326612
   7735000   0.050442517   -0.32260839     0.036355515   -0.21059398    -0.00048470351
   7736000   0.050247072   -0.32259968     0.035946009   -0.21128793    -0.000774081  
   7737000   0.049788194   -0.32248781     0.035937924   -0.21187242    -0.00021450903
   7738000   0.049881954   -0.32229657     0.035733066   -0.2117454      0.00017035267
   7739000   0.049968055   -0.32255517     0.035920396   -0.21168753    -0.00072359097
   7740000   0.049968699   -0.32303136     0.03591928    -0.21216387    -0.00032273427
   7741000   0.049944956   -0.32253816     0.035961287   -0.21166427    -0.00045599862
   7742000   0.051092638   -0.32243567     0.036452599   -0.20934906    -6.4112213e-05
   7743000   0.050031972   -0.32237517     0.03656741    -0.21076464    -0.00063707411
   7744000   0.049957939   -0.3223236      0.036345383   -0.21104615     5.6315172e-05
   7745000   0.049739561   -0.32229702     0.035577228   -0.21211526     0.0011911572 
   7746000   0.050113944   -0.32307988     0.036042194   -0.21187162     9.5429392e-05
   7747000   0.049824864   -0.32236994     0.036309656   -0.21132781    -0.00068941852
   7748000   0.051084166   -0.32273613     0.035907287   -0.21020754    -0.0010035811 
   7749000   0.050277958   -0.3222401      0.036200337   -0.21062769     0.00033252762
   7750000   0.050192361   -0.32233299     0.035552504   -0.2114968      0.00022607536
   7751000   0.050080869   -0.32254675     0.035941911   -0.21148839     0.0002931565 
   7752000   0.050050608   -0.32294229     0.035593992   -0.21227723     0.00039672362
   7753000   0.050124375   -0.32253058     0.035729611   -0.21161926     0.00060571202
   7754000   0.050238326   -0.32259156     0.035643672   -0.21159526     6.2163315e-05
   7755000   0.049852671   -0.32295193     0.036694778   -0.21148297    -0.00060377142
   7756000   0.049974803   -0.32255283     0.035227028   -0.21236844     0.00037852182
   7757000   0.04971199    -0.3222801      0.035881105   -0.21183582     0.0006439867 
   7758000   0.049709604   -0.32251118     0.03648318    -0.2114684      0.00017908057
   7759000   0.050428632   -0.32298501     0.0360833     -0.21126365    -0.00094167234
   7760000   0.050364366   -0.32222311     0.03590874    -0.2107727     -0.00052932937
   7761000   0.049975076   -0.32239567     0.036028847   -0.21140904    -0.00074677427
   7762000   0.04979153    -0.32262509     0.035820765   -0.21212185    -2.9275371e-05
   7763000   0.049710164   -0.32215698     0.036538937   -0.21105761    -0.00099410154
   7764000   0.049667234   -0.32264061     0.035731981   -0.21241258     7.1796297e-05
   7765000   0.050353518   -0.32235646     0.035467644   -0.21136341     0.00032122089
   7766000   0.050446584   -0.32268115     0.036432778   -0.21058338     0.00048541221
   7767000   0.049885024   -0.32326751     0.036265602   -0.2121792     -0.00061939225
   7768000   0.049549936   -0.32268493     0.036475253   -0.21188957     0.00015470264
   7769000   0.050151575   -0.32247728     0.035898855   -0.21135591    -0.00021844309
   7770000   0.05046621    -0.32287189     0.035554488   -0.21162297    -0.00056674462
   7771000   0.050044598   -0.32252068     0.03599893    -0.21145969     4.0819104e-05
   7772000   0.050154939   -0.32270011     0.036214004   -0.21125855    -0.0011792222 
   7773000   0.049988252   -0.32243128     0.035508822   -0.21194492     0.00019392354
   7774000   0.049927081   -0.32259336     0.035564125   -0.21214345     0.0002340996 
   7775000   0.049761811   -0.32274881     0.035901804   -0.2122091     -0.00056198113
   7776000   0.050359267   -0.32277153     0.035684236   -0.21155327    -0.00080876167
   7777000   0.049588542   -0.32230187     0.035888832   -0.21203503     0.00040007512
   7778000   0.049844771   -0.32241415     0.03576054    -0.21189128     0.00039323501
   7779000   0.050096491   -0.32277947     0.035739112   -0.21190047    -0.00025342733
   7780000   0.049627532   -0.32271707     0.036008808   -0.21227177    -0.00017722798
   7781000   0.049466008   -0.32275205     0.035508091   -0.21304974    -0.0013280542 
   7782000   0.050189154   -0.32259038     0.035130678   -0.21218083     0.0014785353 
   7783000   0.04945838    -0.32292051     0.035995852   -0.21274187    -0.00026493922
   7784000   0.049561115   -0.32263481     0.035922516   -0.21237542    -0.00016729433
   7785000   0.050092291   -0.32279575     0.035674069   -0.21198809     0.00029200899
   7786000   0.05010965    -0.32251896     0.03643637    -0.21092296    -0.00038974872
   7787000   0.050578985   -0.32278961     0.035823536   -0.21110249    -8.0215814e-05
   7788000   0.050604092   -0.32220476     0.03598       -0.21032352     0.00047409994
   7789000   0.050762616   -0.32283476     0.036114634   -0.21058112     0.00032445021
   7790000   0.049616813   -0.32290065     0.036159971   -0.21232026     0.00011160615
   7791000   0.049514034   -0.32293143     0.03616029    -0.21250488    -0.0011662748 
   7792000   0.05010837    -0.32298369     0.035832342   -0.21199364     0.00017857013
   7793000   0.050045529   -0.32291605     0.036409884   -0.21144271    -0.0008557171 
   7794000   0.050868265   -0.32261193     0.035920858   -0.2103936      0.00013547607
   7795000   0.050360856   -0.3224972      0.036114376   -0.21084642     0.0001660861 
   7796000   0.049842745   -0.32268336     0.036054644   -0.21186942     0.0004433005 
   7797000   0.049962857   -0.32262993     0.035553229   -0.21213725    -0.00015631302
   7798000   0.050366741   -0.32232708     0.036492309   -0.21028954    -0.00041124971
   7799000   0.050017544   -0.32245686     0.036019812   -0.21141558     0.00080109609
   7800000   0.049807341   -0.32271881     0.036235286   -0.21177733    -8.5785123e-05
   7801000   0.050004404   -0.32268348     0.036176883   -0.21150483    -0.00038268969
   7802000   0.050632508   -0.32266581     0.036175189   -0.21054676     0.00056143178
   7803000   0.050906783   -0.32278679     0.036451402   -0.20998014    -0.00059866305
   7804000   0.049618511   -0.32240994     0.036121306   -0.21186566     0.00020847719
   7805000   0.050599328   -0.3228689      0.036324915   -0.21064989    -0.00043496154
   7806000   0.050331054   -0.32284932     0.03657084    -0.21078677    -0.0011943662 
   7807000   0.049931128   -0.32247344     0.036053786   -0.21152779    -0.00030902342
   7808000   0.050711016   -0.32292061     0.035718899   -0.21114009     0.00031764855
   7809000   0.050541775   -0.32287506     0.035426192   -0.2116411      0.00066832259
   7810000   0.049906126   -0.32270994     0.036331752   -0.21152383    -0.00097524893
   7811000   0.049958291   -0.32270938     0.036293549   -0.21148322    -0.00067273145
   7812000   0.050294328   -0.32238648     0.035997802   -0.21095205     9.622797e-05 
   7813000   0.050760603   -0.3224895      0.035808336   -0.21054517     6.2332785e-06
   7814000   0.05030827    -0.3228643      0.035798662   -0.2116081      0.00046983562
   7815000   0.049945498   -0.32276333     0.035807147   -0.21204277     0.00054534736
   7816000   0.049993531   -0.32287155     0.035925391   -0.2119607      0.00057044453
   7817000   0.049922183   -0.32291462     0.035803199   -0.21223298     8.3547083e-05
   7818000   0.050262058   -0.32284184     0.035744981   -0.21170864     0.0012393047 
   7819000   0.049954734   -0.3226898      0.035967491   -0.21179504     0.00057277852
   7820000   0.049669914   -0.32266034     0.036028418   -0.21213186    -2.9887876e-05
   7821000   0.050843253   -0.32315168     0.035681912   -0.21120981     0.00035518444
   7822000   0.049838561   -0.32288735     0.036001348   -0.21213298    -0.00060292764
   7823000   0.049965715   -0.32270719     0.035408516   -0.21235494     0.00072478702
   7824000   0.049577137   -0.32298959     0.035368062   -0.21326062     0.0002567105 
   7825000   0.050173745   -0.32283183     0.035394388   -0.21218169    -0.0001252395 
   7826000   0.04947528    -0.32310478     0.036088225   -0.21280843     0.0007133115 
   7827000   0.050178935   -0.32313573     0.034995108   -0.21287708    -0.000121913  
   7828000   0.049898169   -0.32248598     0.034925706   -0.21271785     0.0008030046 
   7829000   0.049251428   -0.32304229     0.036048783   -0.21312113    -0.00013316076
   7830000   0.050560132   -0.3231118      0.035933919   -0.21134257    -0.00015099122
   7831000   0.049560995   -0.32302618     0.035920121   -0.21276936     0.00088486301
   7832000   0.05033818    -0.3228874      0.03570258    -0.21168242     0.00027398949
   7833000   0.050316739   -0.32303193     0.03626369    -0.211298       0.00033700185
   7834000   0.050033331   -0.32284682     0.035686132   -0.21211553     1.3120692e-05
   7835000   0.049993304   -0.32264697     0.036211314   -0.21145053     0.00068092969
   7836000   0.050234158   -0.32304676     0.036111686   -0.2115887     -0.00071849977
   7837000   0.049959595   -0.32297644     0.035904717   -0.21213717    -0.00051753837
   7838000   0.050341524   -0.32274065     0.03627731    -0.21095593    -0.00043947799
   7839000   0.050493427   -0.32319883     0.036586309   -0.21087727     1.018087e-05 
   7840000   0.04990592    -0.32244671     0.036422865   -0.21116979    -0.00075641319
   7841000   0.05047495    -0.32302436     0.03652253    -0.21079428     0.00071400443
   7842000   0.04958153    -0.32265154     0.035764097   -0.21251994     0.00023787351
   7843000   0.050030146   -0.32262782     0.035652888   -0.21193456     0.00027217705
   7844000   0.049476457   -0.32232732     0.035807021   -0.2123104      0.00032357542
   7845000   0.049820228   -0.32301585     0.035929006   -0.21236133     0.00061754619
   7846000   0.049909179   -0.32249638     0.036122581   -0.21151486    -1.6690025e-05
   7847000   0.04989089    -0.32271337     0.035966119   -0.21191574    -0.00018722858
   7848000   0.049606643   -0.3228466      0.036287082   -0.21215435     0.00046699425
   7849000   0.04995034    -0.32305151     0.035736958   -0.21239388     0.00058274747
   7850000   0.050040442   -0.32311174     0.036049754   -0.21200617    -9.2326907e-05
   7851000   0.050246786   -0.32320589     0.036171046   -0.21166953    -0.000364082  
   7852000   0.050165905   -0.3227981      0.036009542   -0.21154456    -0.00038857357
   7853000   0.049461989   -0.32255976     0.035211538   -0.21316003     0.00044681091
   7854000   0.049731228   -0.32281363     0.035439857   -0.21278175     0.00010675354
   7855000   0.050050369   -0.32289252     0.035981135   -0.21184068    -0.00028802577
   7856000   0.048912383   -0.32314603     0.036279277   -0.21350291    -0.00024705858
   7857000   0.049559015   -0.32287721     0.035756268   -0.21278722     0.00041965347
   7858000   0.049989228   -0.32288537     0.035565886   -0.21234048     0.00055801276
   7859000   0.050294776   -0.32309173     0.036020115   -0.21163432    -0.00029253459
   7860000   0.049998242   -0.3228185      0.036124744   -0.21170123     0.00048975467
   7861000   0.049587471   -0.32262243     0.035485378   -0.21276064    -0.00031386179
   7862000   0.050399018   -0.32300934     0.035848954   -0.21156673    -0.00089358284
   7863000   0.049460376   -0.32290494     0.035584179   -0.21313498    -0.00024962905
   7864000   0.04969065    -0.3230294      0.035241486   -0.21325675     4.4511471e-05
   7865000   0.050260459   -0.3229587      0.035868831   -0.21170405    -0.00033617279
   7866000   0.050339878   -0.32307008     0.035746319   -0.21181882    -0.00034214759
   7867000   0.050176925   -0.32274061     0.036169366   -0.21131071     0.00011951933
   7868000   0.050539208   -0.32301286     0.035995813   -0.21121312    -0.00068774318
   7869000   0.050187265   -0.32285183     0.035575737   -0.21200005    -0.00058860538
   7870000   0.049905468   -0.32278277     0.035895615   -0.21203378     0.00032831113
   7871000   0.050077454   -0.32282279     0.035568071   -0.21214338    -0.00055400358
   7872000   0.049504651   -0.32298866     0.03566281    -0.21307366     0.0004706581 
   7873000   0.050324307   -0.32273779     0.035954211   -0.21130199     0.0011882355 
   7874000   0.049839168   -0.32257849     0.035772304   -0.21205226     0.00020786688
   7875000   0.049998653   -0.32317976     0.035856779   -0.21232984    -0.00056141915
   7876000   0.05004434    -0.32330122     0.035728674   -0.21251087     0.00081261974
   7877000   0.050021762   -0.32286248     0.035435842   -0.21239884     0.00021058784
   7878000   0.049511926   -0.32307865     0.035391177   -0.21342437     3.0603344e-06
   7879000   0.049648705   -0.32284212     0.035479359   -0.21289451     0.00014429603
   7880000   0.049691882   -0.32276589     0.036090551   -0.21214232    -0.00050961474
   7881000   0.049660187   -0.32279811     0.034962364   -0.21335027     0.00025418042
   7882000   0.04933343    -0.32275835     0.035485698   -0.21327728    -0.00028203515
   7883000   0.049847508   -0.32289155     0.035107347   -0.21301777     0.00027700698
   7884000   0.04912552    -0.32302298     0.035370416   -0.21396904     0.00011991137
   7885000   0.04992118    -0.32280327     0.036117265   -0.21180906     0.00071201171
   7886000   0.051012853   -0.32302459     0.035888322   -0.21062193     0.00016814383
   7887000   0.049944976   -0.32278401     0.036405635   -0.21146574    -0.0011772258 
   7888000   0.050854283   -0.3228838      0.035820689   -0.21078661     0.00060581982
   7889000   0.049980341   -0.32274789     0.035949062   -0.21183315    -0.00028527629
   7890000   0.050257938   -0.32293161     0.035705627   -0.21184394    -0.00034674587
   7891000   0.049800963   -0.32295838     0.035722477   -0.21253928    -0.00024596191
   7892000   0.04997708    -0.32317534     0.03559736    -0.2126172     -0.00014492457
   7893000   0.05039103    -0.32319528     0.036046618   -0.211567       0.0001989817 
   7894000   0.04964535    -0.32270271     0.036172915   -0.21206658    -0.00019406406
   7895000   0.050228568   -0.3226852      0.03612084    -0.21122636    -0.0011296927 
   7896000   0.050171106   -0.32315224     0.035740383   -0.21216005    -0.00076051085
   7897000   0.049875365   -0.32282885     0.036027107   -0.21199352     0.00012873468
   7898000   0.050125026   -0.32314021     0.03642888    -0.21152864     5.7016337e-05
   7899000   0.049574415   -0.32324276     0.036320865   -0.21256507    -0.00010002798
   7900000   0.050017304   -0.32288974     0.035705536   -0.21216309    -0.00045061127
   7901000   0.049836791   -0.32303732     0.0356007     -0.21268625     0.00041808403
   7902000   0.0502596     -0.32285815     0.035468985   -0.21200463     0.00012291762
   7903000   0.050479051   -0.32258292     0.036131424   -0.21073781     5.8753849e-05
   7904000   0.050315773   -0.32276396     0.036118559   -0.21117661     0.0005842682 
   7905000   0.049856794   -0.32231907     0.035502217   -0.21203648     0.00035400693
   7906000   0.049576205   -0.32296154     0.035315067   -0.21328697     0.00044025499
   7907000   0.049968152   -0.32316445     0.036254403   -0.21196266    -4.6622791e-05
   7908000   0.049907745   -0.32308935     0.035631265   -0.2126013     -0.00034107644
   7909000   0.049729697   -0.32320345     0.0361241     -0.21248962    -0.00033810182
   7910000   0.049786668   -0.32298865     0.035732367   -0.21258109     7.712448e-06 
   7911000   0.049500338   -0.32302428     0.035869555   -0.21290901     5.2453214e-05
   7912000   0.049978433   -0.32308812     0.035846776   -0.21227854    -0.00076004181
   7913000   0.05066533    -0.32293975     0.035779549   -0.21116711     0.00093288034
   7914000   0.049986864   -0.32299466     0.035908668   -0.21211053    -0.0001532264 
   7915000   0.049683805   -0.32271209     0.035165684   -0.21302551     0.00091868467
   7916000   0.049881716   -0.32263018     0.035661212   -0.21215122    -7.8656619e-05
   7917000   0.049589284   -0.32280026     0.035541489   -0.21287965    -0.00010600124
   7918000   0.04998766    -0.32292076     0.035981498   -0.21196261     0.00046110957
   7919000   0.050160762   -0.32295437     0.035942078   -0.211776      -0.00065044181
   7920000   0.049802011   -0.32249715     0.035566549   -0.2122324      0.0004705067 
   7921000   0.049460532   -0.32273726     0.03584636    -0.21270489    -0.00050751665
   7922000   0.050562547   -0.32315793     0.035942115   -0.21137689     0.00088646356
   7923000   0.049876306   -0.32314486     0.035730543   -0.21260469    -0.00051951537
   7924000   0.049911984   -0.32326727     0.035789062   -0.21261507    -0.00032994811
   7925000   0.050234047   -0.32349743     0.035399253   -0.21275196    -0.00047051765
   7926000   0.0495336     -0.32284559     0.03563953    -0.21291045    -0.00052428154
   7927000   0.050378998   -0.32298911     0.035720873   -0.21170461    -0.00070124363
   7928000   0.050637611   -0.32285595     0.035427018   -0.21147741     8.8609501e-05
   7929000   0.050005944   -0.32255071     0.036197324   -0.21134931    -0.00066584924
   7930000   0.050656595   -0.32295703     0.035833952   -0.21114309     0.0010959445 
   7931000   0.050066353   -0.32275925     0.036212668   -0.2114519     -0.00030757637
   7932000   0.050633427   -0.3229182      0.035483387   -0.21148957     0.00080370828
   7933000   0.049780163   -0.32286681     0.035507631   -0.21269375    -0.00016452078
   7934000   0.05024031    -0.32290472     0.036313988   -0.21123513     0.00069504889
   7935000   0.050226883   -0.32330131     0.036482909   -0.21148294     0.00049779061
   7936000   0.050158578   -0.32314053     0.03625996    -0.21164756    -0.00056393898
   7937000   0.049694608   -0.32265581     0.036397728   -0.21172098     0.0004255203 
   7938000   0.050192028   -0.32321888     0.035910232   -0.21202547    -0.00011701205
   7939000   0.05003173    -0.32326437     0.035716962   -0.21250466     0.00012203799
   7940000   0.050396999   -0.32294474     0.036022893   -0.21133122    -0.00043965298
   7941000   0.050064443   -0.32303232     0.036676984   -0.21126351    -0.00012394387
   7942000   0.050361064   -0.32327885     0.03563468    -0.21210744    -0.00062820086
   7943000   0.049771941   -0.32322041     0.036516744   -0.21205057    -0.00024699896
   7944000   0.049975981   -0.32329578     0.036258973   -0.21207767    -6.3751878e-05
   7945000   0.050416297   -0.32318804     0.035580314   -0.21198816    -0.00012560245
   7946000   0.050320375   -0.32277582     0.035907515   -0.21139261    -0.00057805742
   7947000   0.049928086   -0.3229701      0.035748477   -0.21233432     0.00061465509
   7948000   0.049996529   -0.323173       0.036040342   -0.21214271    -0.0006937155 
   7949000   0.049978277   -0.32348831     0.036421232   -0.2121045     -0.00068920585
   7950000   0.050028831   -0.3230366      0.036135082   -0.21186311    -0.00047671366
   7951000   0.04965855    -0.32322181     0.03601574    -0.21272305     3.1902909e-05
   7952000   0.050110564   -0.32313997     0.035885916   -0.21209306     0.0008585308 
   7953000   0.049783141   -0.32314819     0.036081763   -0.21239653     0.00046957158
   7954000   0.05033558    -0.32313663     0.035471011   -0.21216712     0.0010317592 
   7955000   0.049680856   -0.32306536     0.036003021   -0.21254587     0.00024298143
   7956000   0.050230392   -0.32309104     0.036219025   -0.21153129     0.00039027217
   7957000   0.050255194   -0.32296969     0.036201152   -0.21139061     0.00055794387
   7958000   0.05010793    -0.32325907     0.036386306   -0.21171571    -0.00060577496
   7959000   0.050688291   -0.32317847     0.035874124   -0.21127681     0.00062107459
   7960000   0.050543085   -0.32296552     0.036343816   -0.21081196    -1.3655903e-05
   7961000   0.050255207   -0.32319085     0.036228043   -0.21158486    -0.00019150883
   7962000   0.050201373   -0.32292212     0.035260408   -0.21236451     0.00081771253
   7963000   0.049421137   -0.32290598     0.035468049   -0.21331101     0.00038273645
   7964000   0.049857094   -0.32302174     0.035613914   -0.21262701     5.213495e-05 
   7965000   0.049542142   -0.32340433     0.0356739     -0.21342201    -0.00064436849
   7966000   0.049399356   -0.32320775     0.035985322   -0.21312818    -0.00084751077
   7967000   0.049897481   -0.32303814     0.035511037   -0.21268571     0.00039397757
   7968000   0.049668819   -0.32342098     0.035738313   -0.21318424     6.4272658e-06
   7969000   0.04927374    -0.32317447     0.03571359    -0.21355504    -0.00022352271
   7970000   0.049798079   -0.32328861     0.035315667   -0.21328065    -0.00068881984
   7971000   0.049708377   -0.32319029     0.035448795   -0.21318374    -0.00041733713
   7972000   0.050525531   -0.32324014     0.035974169   -0.21148256     0.00064332698
   7973000   0.049921222   -0.32314017     0.035866297   -0.21239687     0.0003332931 
   7974000   0.049529626   -0.32307216     0.036209452   -0.21257306    -0.00075370386
   7975000   0.049951695   -0.32289371     0.035279474   -0.21269153     0.00056174934
   7976000   0.050348745   -0.32296635     0.035979536   -0.21146857    -3.4886203e-05
   7977000   0.050484008   -0.3228065      0.035606506   -0.21147887     0.0006274257 
   7978000   0.05016316    -0.32324628     0.035670206   -0.21233619     0.00074972486
   7979000   0.050168999   -0.32294899     0.036066721   -0.21163363    -0.0012186131 
   7980000   0.050584765   -0.32297793     0.035773203   -0.21133247     0.00010700698
   7981000   0.05043217    -0.32338227     0.035873522   -0.21186537    -0.00063262637
   7982000   0.050073917   -0.32333511     0.036452429   -0.21177665    -0.00062430748
   7983000   0.050509846   -0.32351815     0.035695219   -0.21206305    -5.5515127e-05
   7984000   0.050019123   -0.3229406      0.036106136   -0.21181062    -0.00036213191
   7985000   0.049989627   -0.32284852     0.03612543    -0.21174349     0.00043411782
   7986000   0.049960993   -0.32351306     0.035752184   -0.21282423     0.00071859482
   7987000   0.050140533   -0.32304641     0.036113033   -0.21172743     0.00036999472
   7988000   0.050459998   -0.32316905     0.035992762   -0.21149118    -0.00067481069
   7989000   0.049909022   -0.32284762     0.035989564   -0.21199935     0.00017112684
   7990000   0.049877883   -0.32320385     0.035881326   -0.21251053     0.000442469  
   7991000   0.050261572   -0.32370228     0.03582776    -0.21248702    -0.00010271875
   7992000   0.050179924   -0.32318319     0.035363767   -0.21255439     5.4223256e-05
   7993000   0.049622973   -0.3232875      0.035585885   -0.21327196    -0.00036668482
   7994000   0.049897695   -0.3228966      0.035670413   -0.21238447    -5.5492294e-05
   7995000   0.05005043    -0.32296639     0.036131839   -0.21176375    -0.00041281731
   7996000   0.049790241   -0.32299268     0.035869732   -0.21244241     6.3025593e-05
   7997000   0.050044112   -0.32333938     0.035860554   -0.2124175      0.00033486999
   7998000   0.049559712   -0.32323787     0.03605209    -0.21285101     2.1168712e-05
   7999000   0.050032307   -0.32307303     0.036059263   -0.21197015     0.00068727873
   8000000   0.050286658   -0.32325426     0.036126033   -0.2117031      0.00054620019
   8001000   0.049741576   -0.3232337      0.035461426   -0.21316472     0.001289651  
   8002000   0.050076859   -0.32365548     0.035631785   -0.21291325    -0.00040163308
   8003000   0.049443106   -0.32344171     0.036230816   -0.21305102    -6.9443794e-05
   8004000   0.04978493    -0.32333791     0.035733841   -0.21293149    -0.0010407757 
   8005000   0.049899518   -0.32339197     0.035918199   -0.21262932     0.00017626952
   8006000   0.049654673   -0.32314736     0.035680286   -0.21298987     0.00062498611
   8007000   0.04997544    -0.32324349     0.0355002     -0.21278497     7.2877405e-05
   8008000   0.049853328   -0.32316604     0.035488736   -0.21290213    -0.00031506661
   8009000   0.049749977   -0.32324013     0.035591341   -0.21302864     0.00061920025
   8010000   0.049705416   -0.32297916     0.035894436   -0.21253141    -0.00014280364
   8011000   0.049840774   -0.32354865     0.035862053   -0.21293026     7.337776e-05 
   8012000   0.050259853   -0.32334114     0.035382878   -0.21257334     0.00053452795
   8013000   0.050671769   -0.32314573     0.035689493   -0.21145349     0.0004909382 
   8014000   0.049830322   -0.32322894     0.036000156   -0.21248812     0.00040218802
   8015000   0.049916503   -0.32305582     0.035414335   -0.21277156     0.00029726261
   8016000   0.049809244   -0.32326771     0.036319476   -0.21223919     0.0006537038 
   8017000   0.050400441   -0.32346302     0.036271584   -0.21159565     0.00013697901
   8018000   0.04977646    -0.32299418     0.035783844   -0.21255046    -0.00077591462
   8019000   0.050299267   -0.32317397     0.036036341   -0.2116936     -0.00058680607
   8020000   0.050036497   -0.32312403     0.036170063   -0.21190407     0.0006116487 
   8021000   0.050087947   -0.32303121     0.03570691    -0.21219723     0.00066976081
   8022000   0.050076601   -0.32277582     0.035979714   -0.21168605     0.00048723054
   8023000   0.050254989   -0.32309037     0.035924058   -0.21178869    -0.00037448193
   8024000   0.049849233   -0.32387974     0.036143553   -0.21296716    -0.0013825347 
   8025000   0.049696597   -0.32343997     0.035098517   -0.21380137     0.00060509628
   8026000   0.049754297   -0.32362322     0.035265002   -0.21373158    -7.0217741e-05
   8027000   0.049708154   -0.3233238      0.035772992   -0.21299339    -0.00022964909
   8028000   0.050133714   -0.32342468     0.035819076   -0.21240989     0.00025677497
   8029000   0.050173661   -0.32336299     0.03633627    -0.21177109     0.00056739807
   8030000   0.050161933   -0.32328921     0.035643552   -0.21240761    -7.9871201e-05
   8031000   0.050300686   -0.32374696     0.036013042   -0.21228775    -0.00069515502
   8032000   0.050733126   -0.32358704     0.035711223   -0.21178104     0.00093942906
   8033000   0.049435318   -0.32340061     0.035823435   -0.21342898     0.00021391213
   8034000   0.049951841   -0.32383758     0.035872744   -0.21304191     0.00037367382
   8035000   0.050072967   -0.32371358     0.035827768   -0.2127812     -8.7033547e-05
   8036000   0.04967216    -0.32312614     0.035773358   -0.21284935     0.001044357  
   8037000   0.049933072   -0.323753       0.035752554   -0.21310567     0.00039766554
   8038000   0.049544896   -0.3239867      0.035948059   -0.21372609    -0.0014539987 
   8039000   0.049653258   -0.32336795     0.035551307   -0.21334156    -3.6577608e-05
   8040000   0.050345562   -0.32364098     0.035658661   -0.21246885    -0.00016307169
   8041000   0.050199663   -0.32360044     0.035809965   -0.21249584     0.00044506314
   8042000   0.049564412   -0.32324219     0.0365272     -0.21237317     0.00030844058
   8043000   0.050097771   -0.3233484      0.035877124   -0.21232947     0.0011200632 
   8044000   0.049943988   -0.32291986     0.035679349   -0.21232936     4.7428271e-05
   8045000   0.050111717   -0.32340959     0.035867558   -0.21237931     0.00085624508
   8046000   0.050171302   -0.32323371     0.036457024   -0.21152459     9.7307984e-05
   8047000   0.049378103   -0.32320568     0.036413628   -0.21272968    -0.00030435222
   8048000   0.050355968   -0.32384809     0.03585809    -0.21246092     0.0002134183 
   8049000   0.049665748   -0.32316374     0.03533628    -0.21333364     0.00094986612
   8050000   0.049732378   -0.32353388     0.036365192   -0.21257494    -0.00012524069
   8051000   0.050223337   -0.32345034     0.034938195   -0.213182       0.00082865595
   8052000   0.049365175   -0.32374872     0.035630847   -0.21407488    -0.00050639178
   8053000   0.049122736   -0.3236199      0.035213459   -0.21472709    -8.1998676e-05
   8054000   0.050287647   -0.32367448     0.035684926   -0.21256295    -0.00029063648
   8055000   0.05001348    -0.32376233     0.036051808   -0.21269514    -0.00053328685
   8056000   0.049525897   -0.32342252     0.035217259   -0.21392121     0.00081823524
   8057000   0.049743817   -0.3234563      0.036041857   -0.21280353     0.00014198138
   8058000   0.049949709   -0.3234816      0.035498586   -0.21306329     0.00042705742
   8059000   0.049838922   -0.32360716     0.035758472   -0.21309512    -0.00062729261
   8060000   0.049878153   -0.32319893     0.036173783   -0.21221275    -6.2499154e-05
   8061000   0.050273876   -0.32372791     0.035675097   -0.21264687    -8.5914398e-05
   8062000   0.050188563   -0.32365688     0.035606956   -0.21277194     0.00013927697
   8063000   0.050011047   -0.3236976      0.036698955   -0.21198691     0.00033596451
   8064000   0.050266983   -0.32370279     0.035907601   -0.21239958    -0.00050771261
   8065000   0.050492888   -0.32358251     0.035756965   -0.2120911     -9.4719583e-05
   8066000   0.05020602    -0.32363027     0.03507097    -0.21325513    -6.0665112e-05
   8067000   0.049774947   -0.3236178      0.035721625   -0.21323857     0.00014849751
   8068000   0.049768346   -0.3234852      0.036153665   -0.21268383    -0.00039213212
   8069000   0.049825996   -0.32357583     0.036162103   -0.21267955    -0.00051439853
   8070000   0.050775566   -0.32327661     0.03549929    -0.21161888    -0.00032425629
   8071000   0.049682005   -0.32363012     0.036086474   -0.21302545     0.00049308933
   8072000   0.04954345    -0.32355328     0.035868162   -0.21337474    -0.00076220862
   8073000   0.049541783   -0.32367899     0.03559548    -0.21377563    -8.2470048e-06
   8074000   0.05063386    -0.32339193     0.036050524   -0.21139551    -0.001000652  
   8075000   0.05000439    -0.32340976     0.036030831   -0.21237719     0.00054061551
   8076000   0.050259742   -0.32383153     0.035891199   -0.21255559    -0.00044967493
   8077000   0.049626604   -0.32342729     0.03620744    -0.21278475    -0.00035902185
   8078000   0.05056964    -0.32381642     0.036147279   -0.21181957    -0.00018659647
   8079000   0.050351973   -0.32391782     0.036415083   -0.21197965     0.00012060911
   8080000   0.050295009   -0.32335577     0.03580725    -0.21211087     0.00050008594
   8081000   0.049810768   -0.3239171      0.035728866   -0.21347691    -0.00044817495
   8082000   0.049947547   -0.32362159     0.035815837   -0.21288927    -0.00062709261
   8083000   0.050267775   -0.32346272     0.035337606   -0.21272831     0.00048931224
   8084000   0.049993625   -0.32372042     0.035859235   -0.21287558    -0.00089428346
   8085000   0.05004788    -0.32403169     0.035766865   -0.21319785    -0.00048860585
   8086000   0.05026341    -0.3235152      0.035783635   -0.21234132     0.0007132967 
   8087000   0.050200396   -0.32339769     0.036390191   -0.21171177    -0.0011818847 
   8088000   0.049729998   -0.32407729     0.035466872   -0.21402023    -0.00036116464
   8089000   0.049888826   -0.32385325     0.036129617   -0.21289522    -0.00021505618
   8090000   0.049955267   -0.32345869     0.03624717    -0.21228345    -0.00054341267
   8091000   0.050130326   -0.32368343     0.035695372   -0.21279742    -0.00040799759
   8092000   0.050301609   -0.32360489     0.036235578   -0.21192177     1.8462814e-05
   8093000   0.049921513   -0.32363644     0.035817573   -0.21294143    -0.00065033636
   8094000   0.049877111   -0.32411121     0.035529238   -0.21377113     7.408097e-06 
   8095000   0.049544816   -0.3236229      0.03574772    -0.21356275     0.00038852433
   8096000   0.049642111   -0.32407208     0.036232125   -0.2133816      0.00040165891
   8097000   0.050060582   -0.32383202     0.035792959   -0.21295304     0.00056548931
   8098000   0.050131533   -0.32382094     0.035915072   -0.21271342     0.00022428235
   8099000   0.049862893   -0.32440223     0.035972336   -0.21364038     4.8021804e-05
   8100000   0.050253019   -0.323868       0.035434425   -0.21305891     0.00058149732
   8101000   0.049987953   -0.3240687      0.035681996   -0.21340962     0.00033154893
   8102000   0.050126247   -0.32393044     0.035426095   -0.21331982     0.00083285056
   8103000   0.049533316   -0.32412802     0.035602535   -0.21423031    -0.00065010902
   8104000   0.050019765   -0.32374346     0.035879453   -0.2128392     -0.00021154148
   8105000   0.050110871   -0.3239686      0.03629299    -0.21251416    -0.0011864469 
   8106000   0.050632837   -0.32416257     0.036519031   -0.21169919    -0.000360837  
   8107000   0.050336324   -0.32345247     0.036341508   -0.21161134     0.00029781174
   8108000   0.050073218   -0.32378419     0.036552434   -0.21212677     0.00048420972
   8109000   0.050161094   -0.32387592     0.036197665   -0.21244147     0.00015401035
   8110000   0.050562836   -0.3238106      0.035510078   -0.21246116     0.00015306525
   8111000   0.050775328   -0.32360125     0.036455786   -0.21098738    -0.00029019399
   8112000   0.050176876   -0.32378122     0.035897763   -0.212623      -0.00028106483
   8113000   0.050344235   -0.32395874     0.036053107   -0.21239415     0.00038017766
   8114000   0.049739975   -0.32391414     0.036410175   -0.21289882    -0.00071216684
   8115000   0.05015067    -0.32381727     0.035616704   -0.21297941     0.000601122  
   8116000   0.050253927   -0.32384259     0.035579521   -0.21288704     0.00030545974
   8117000   0.049950445   -0.32397866     0.03608015    -0.21297767    -0.00076458355
   8118000   0.050303403   -0.32384749     0.035448754   -0.2129485      0.00028836038
   8119000   0.050175544   -0.32436038     0.035770481   -0.21333143     0.00012173695
   8120000   0.049819335   -0.32377973     0.035995945   -0.2130596      0.00060031929
   8121000   0.049978274   -0.32405157     0.035725003   -0.21336399     0.00096916163
   8122000   0.049490267   -0.3240143      0.035994089   -0.2137896      9.7927176e-05
   8123000   0.049683696   -0.32355895     0.035613499   -0.21342471    -0.00022772032
   8124000   0.049676032   -0.32376824     0.035879296   -0.2133797      0.00068588216
   8125000   0.049914769   -0.32374391     0.035695962   -0.21318063    -0.00016125039
   8126000   0.050006771   -0.32360819     0.03611421    -0.21248866    -0.00010382144
   8127000   0.050091921   -0.3238553      0.036020736   -0.21270153    -0.00045427839
   8128000   0.049752516   -0.32402337     0.035907126   -0.21349229     0.00012607184
   8129000   0.04984542    -0.32400768     0.036212983   -0.21303139    -0.00031626747
   8130000   0.049783964   -0.3240687      0.035927587   -0.21346999     2.6748765e-05
   8131000   0.049863462   -0.32432295     0.036312874   -0.2132197     -5.8881783e-05
   8132000   0.050079658   -0.32387161     0.035783411   -0.21297356     0.00013399576
   8133000   0.049637899   -0.32362264     0.036524681   -0.21264591    -0.00048636407
   8134000   0.050208812   -0.32419592     0.036445894   -0.21244167     4.1794251e-05
   8135000   0.049696903   -0.32365032     0.035692929   -0.21341685     0.00082662706
   8136000   0.050042571   -0.32392831     0.035792028   -0.21307727     0.00036924224
   8137000   0.049385463   -0.32367346     0.035644429   -0.21395562    -0.00015421963
   8138000   0.049762988   -0.32387616     0.035726918   -0.21350957    -0.0004537078 
   8139000   0.049975836   -0.32372141     0.036102124   -0.21266036     2.3481555e-05
   8140000   0.04968583    -0.32351369     0.035694647   -0.21329511    -0.0004144986 
   8141000   0.049754542   -0.32385296     0.035583757   -0.21364221     0.00026697872
   8142000   0.04958255    -0.32361218     0.035668654   -0.2135745      0.00065396263
   8143000   0.05021321    -0.32379549     0.036295784   -0.21218475     9.2948926e-07
   8144000   0.049712881   -0.32378617     0.035838931   -0.21338272     0.00025900694
   8145000   0.050043734   -0.32398875     0.035428828   -0.21349917     0.00060786475
   8146000   0.05020945    -0.32408248     0.036740829   -0.21203233    -0.00047994502
   8147000   0.04980991    -0.32352548     0.036466105   -0.21234933     5.7034665e-05
   8148000   0.049639097   -0.32411412     0.035987857   -0.21367242    -0.0004128511 
   8149000   0.049630437   -0.32382042     0.035878511   -0.21350105    -7.0071462e-05
   8150000   0.049824859   -0.32353365     0.03557694    -0.21322424     0.00013965979
   8151000   0.049858616   -0.32342902     0.035242021   -0.2134039      0.00050807853
   8152000   0.04994039    -0.32375367     0.035950776   -0.21289714     0.00013173891
   8153000   0.049763133   -0.32387317     0.03589086    -0.21334242     0.0002697621 
   8154000   0.049871964   -0.32322502     0.035513635   -0.21290827    -0.00038113959
   8155000   0.049793855   -0.32369293     0.035527497   -0.21347947     0.00010365671
   8156000   0.049890119   -0.32382284     0.03649645    -0.21249604    -0.00050778745
   8157000   0.050519462   -0.32399243     0.035503788   -0.21271434    -0.00027848281
   8158000   0.049872072   -0.32385312     0.035909115   -0.21314072     0.00093228912
   8159000   0.049439869   -0.32344846     0.035670151   -0.21362329     0.00015762558
   8160000   0.049797014   -0.32377526     0.036050747   -0.21303381    -0.00058455374
   8161000   0.049704594   -0.32372071     0.035996814   -0.21317181    -0.00024695343
   8162000   0.05054953    -0.32382588     0.035695483   -0.212311       0.00075179013
   8163000   0.050097032   -0.32375358     0.0360246     -0.21258828    -0.00012632887
   8164000   0.049997869   -0.32326117     0.035713776   -0.21255543     0.00064071082
   8165000   0.050138087   -0.32365592     0.035737502   -0.21271613     0.00036111677
   8166000   0.050128239   -0.32386885     0.036129115   -0.21255223    -0.00021203875
   8167000   0.050597611   -0.3240594      0.035639536   -0.21252835    -0.00097415485
   8168000   0.049367963   -0.32386568     0.035617913   -0.2142006     -0.00022443113
   8169000   0.050256707   -0.32380015     0.036062809   -0.21235714     0.00021921499
   8170000   0.049652283   -0.32420636     0.036354136   -0.2133786     -0.00067627816
   8171000   0.05027116    -0.32417336     0.035869996   -0.21290149    -0.00012636923
   8172000   0.050150517   -0.32366038     0.036195747   -0.21224371     0.00023918805
   8173000   0.050600177   -0.32397673     0.035614183   -0.21246718     0.00023948691
   8174000   0.049902025   -0.32387114     0.036511007   -0.21251193     0.00024362201
   8175000   0.050505072   -0.32363765     0.036527684   -0.21135724     0.00015395671
   8176000   0.049929369   -0.32355185     0.035617399   -0.21304523     7.6857985e-05
   8177000   0.050676011   -0.32381515     0.035564632   -0.21224141     0.00048311838
   8178000   0.050299016   -0.3240715      0.036161201   -0.21246664    -0.00069843949
   8179000   0.050286514   -0.3241254      0.03601874    -0.21268175    -1.8222875e-05
   8180000   0.049947042   -0.32397049     0.035563594   -0.21349117     0.00047975045
   8181000   0.049672787   -0.32429364     0.035844728   -0.21394454     4.6904943e-05
   8182000   0.049582538   -0.32380585     0.035858395   -0.21357844     0.00066928961
   8183000   0.049700553   -0.32369281     0.035790762   -0.21335602     0.00019350256
   8184000   0.050164178   -0.32423713     0.035958416   -0.2130373     -1.8644273e-05
   8185000   0.050125775   -0.32394771     0.036408408   -0.21235549     0.00014926234
   8186000   0.050455596   -0.32433405     0.036154305   -0.21250124    -0.00023254805
   8187000   0.049671849   -0.32405647     0.036159541   -0.21339396    -0.00097788082
   8188000   0.050658488   -0.32434588     0.035334976   -0.21302807     0.00067927059
   8189000   0.049981092   -0.32415995     0.036041965   -0.21315118     0.0002301532 
   8190000   0.050268804   -0.32443131     0.035813252   -0.21321971     0.00010494102
   8191000   0.050010057   -0.32397594     0.035571495   -0.2133942      0.00080523191
   8192000   0.049485264   -0.32446734     0.036192615   -0.21405161    -0.00045830983
   8193000   0.049796787   -0.32419649     0.036036053   -0.21347007    -0.00043000791
   8194000   0.049921103   -0.32432694     0.036156969   -0.21329315    -0.0002419717 
   8195000   0.049952937   -0.32423422     0.035688201   -0.21362144     0.00015844366
   8196000   0.049890102   -0.32426147     0.036072251   -0.2133589     -0.00013599257
   8197000   0.050230324   -0.32399063     0.036327827   -0.21232217    -0.00042036897
   8198000   0.050054366   -0.32430884     0.035795337   -0.21343679     8.8106959e-05
   8199000   0.050449347   -0.32388206     0.036080429   -0.21213249     0.00054869283
   8200000   0.050168772   -0.32431523     0.035944353   -0.21312258    -0.00042300647
   8201000   0.049328674   -0.32385349     0.036179106   -0.21368615    -2.0265368e-05
   8202000   0.049531842   -0.32405305     0.03692405    -0.21283603    -0.00043810719
   8203000   0.049732406   -0.32402379     0.036004759   -0.21342523     0.00084742244
   8204000   0.049468761   -0.32394386     0.03613145    -0.21361406     0.00079755446
   8205000   0.050138522   -0.32469969     0.035684469   -0.21381229    -0.00024900434
   8206000   0.049525414   -0.32436033     0.036136043   -0.21394095    -0.00021932494
   8207000   0.050311112   -0.32424521     0.035734669   -0.21304875     0.00070823277
   8208000   0.049743916   -0.32446423     0.035488074   -0.21436509     0.00045017425
   8209000   0.049963507   -0.32364556     0.035410796   -0.21329434     0.00036531923
   8210000   0.049976373   -0.32384365     0.035439181   -0.21344474     0.0014705146 
   8211000   0.049886366   -0.3241232      0.035819681   -0.2134788      0.0017270492 
   8212000   0.050420598   -0.32395882     0.036343463   -0.21198934     0.00079361503
   8213000   0.05003286    -0.32427875     0.036720493   -0.21251381    -0.00026549951
   8214000   0.050344207   -0.32404161     0.035740035   -0.21279013     0.00058170325
   8215000   0.050024066   -0.32435581     0.036095677   -0.21322887     0.0004894371 
   8216000   0.049955793   -0.3243189      0.035445289   -0.21394476    -0.00085255509
   8217000   0.049909778   -0.3246788      0.035553189   -0.21426577     0.0013806353 
   8218000   0.049834951   -0.32459533     0.035621619   -0.21422611     0.00051990461
   8219000   0.049455835   -0.32430276     0.036316879   -0.21380691     0.00025094799
   8220000   0.049952924   -0.32458468     0.035293028   -0.2143671      0.000580231  
   8221000   0.049783439   -0.32460723     0.035828926   -0.21410796     0.0003116966 
   8222000   0.049589034   -0.32419463     0.035230757   -0.21458512     6.722654e-05 
   8223000   0.050271188   -0.32429961     0.035499819   -0.21339788     0.00070410161
   8224000   0.050128249   -0.32411455     0.03517741    -0.21374962     0.00021761352
   8225000   0.049887322   -0.32426769     0.035556276   -0.21388526    -0.00012448666
   8226000   0.049524787   -0.32419309     0.035969494   -0.21394121    -4.8554103e-05
   8227000   0.050620755   -0.3244096      0.03633653    -0.21214684    -9.9445005e-06
   8228000   0.050352309   -0.32429922     0.035642398   -0.21313323    -0.00016246176
   8229000   0.050183707   -0.32452102     0.035991492   -0.21325882     0.00058217814
   8230000   0.049596328   -0.3243104      0.035555466   -0.21436524    -0.0012214408 
   8231000   0.049695837   -0.32415529     0.035880484   -0.21373586     0.00046421826
   8232000   0.050125367   -0.3243712      0.036079544   -0.21310845    -0.00030797059
   8233000   0.049796326   -0.32449524     0.035444927   -0.21436064     9.1027421e-05
   8234000   0.049757139   -0.32412686     0.035412081   -0.21408389     0.00029793984
   8235000   0.049594738   -0.32409191     0.035554854   -0.21414975     0.00011308534
   8236000   0.049773752   -0.32435363     0.035567136   -0.21413068     0.00096431198
   8237000   0.049708771   -0.32433347     0.035918555   -0.21385657    -0.00045859613
   8238000   0.050350956   -0.32403149     0.036229491   -0.21228044     1.5452815e-05
   8239000   0.05041859    -0.32411232     0.035767249   -0.21272206     0.00050182692
   8240000   0.049786721   -0.32390646     0.036338494   -0.2128927     -0.00048850219
   8241000   0.050094586   -0.32412852     0.036183928   -0.21280756     2.8553905e-05
   8242000   0.049976954   -0.32417257     0.035804641   -0.21340734    -0.00049496818
   8243000   0.050269866   -0.32414504     0.036043279   -0.21270183    -0.00080822437
   8244000   0.050354711   -0.32444587     0.035889489   -0.21302919     0.00025361785
   8245000   0.049396952   -0.32414389     0.035564384   -0.21448885     0.00042409372
   8246000   0.049883324   -0.32484206     0.035344781   -0.21467712    -0.00083302544
   8247000   0.05045613    -0.32417433     0.035699345   -0.21279567     0.00023353079
   8248000   0.049972814   -0.32420427     0.03645802    -0.21279186     0.00044834613
   8249000   0.049650286   -0.32455618     0.036341894   -0.21374367     0.0001496884 
   8250000   0.050219344   -0.32416037     0.036479316   -0.2123569     -0.00017487123
   8251000   0.050238094   -0.32383924     0.036105632   -0.21238133     0.00095886166
   8252000   0.049938515   -0.32378203     0.03613104    -0.21274805    -5.8955417e-05
   8253000   0.049785803   -0.32456134     0.035614784   -0.21427267    -0.00045647136
   8254000   0.049927338   -0.32419264     0.035896235   -0.21341023    -0.00093956554
   8255000   0.050244441   -0.32441931     0.035888553   -0.21316896     0.00020631847
   8256000   0.050679233   -0.32436415     0.036270168   -0.21208003     0.000180051  
   8257000   0.050054453   -0.32402047     0.035863535   -0.2130801      0.00021822901
   8258000   0.050043061   -0.32405984     0.03566303    -0.21333706     0.00031919509
   8259000   0.050096591   -0.32449151     0.036192964   -0.2131585      0.00031213437
   8260000   0.049751422   -0.32440902     0.036084369   -0.21370233     0.00031071169
   8261000   0.050160217   -0.32447444     0.035341484   -0.21389748     0.00096643927
   8262000   0.05017168    -0.32463624     0.036001588   -0.21338199    -0.0006473764 
   8263000   0.049706212   -0.3244055      0.035565602   -0.21428539     3.3678249e-05
   8264000   0.050608293   -0.3241909      0.035981217   -0.21230214     0.00041438009
   8265000   0.049925323   -0.32440393     0.036105685   -0.21341509    -0.00073131239
   8266000   0.05000571    -0.32461636     0.035841694   -0.21377094     0.00093993516
   8267000   0.049967767   -0.32371308     0.035600763   -0.2131655      0.0012890169 
   8268000   0.049522935   -0.32401612     0.035532589   -0.21420392    -0.00015877189
   8269000   0.050143396   -0.32454957     0.03621496    -0.21312437     0.00043369551
   8270000   0.05057124    -0.32401719     0.03629031    -0.21187492    -2.0875512e-05
   8271000   0.049821808   -0.32408095     0.035749855   -0.2136032     -0.00013711588
   8272000   0.049958624   -0.324498       0.03584632    -0.21371858     7.0144018e-05
   8273000   0.050437546   -0.32428587     0.036399289   -0.21223514    -0.00038318556
   8274000   0.050006114   -0.32423363     0.035483148   -0.21374615     0.00038938446
   8275000   0.050589835   -0.32441857     0.035650723   -0.21288799    -0.00014786381
   8276000   0.050099196   -0.32430691     0.035790673   -0.21337229     0.00055225115
   8277000   0.049924154   -0.32485997     0.036283643   -0.21369493    -0.00020196619
   8278000   0.049483908   -0.3248394      0.035372422   -0.2152459     -0.00013948203
   8279000   0.049363592   -0.32471921     0.035818355   -0.21486024    -0.00033750974
   8280000   0.050105993   -0.32430094     0.036046538   -0.21310026    -0.00051577063
   8281000   0.050477092   -0.3240606      0.035848208   -0.21250164     5.6389316e-06
   8282000   0.050278308   -0.32400012     0.035905089   -0.21268244    -0.0005836408 
   8283000   0.050356445   -0.32420433     0.035777509   -0.21289703     7.841713e-05 
   8284000   0.050450651   -0.32476719     0.036349362   -0.21274674    -0.00017612931
   8285000   0.05059556    -0.32426016     0.035471062   -0.21290065     0.00044770641
   8286000   0.050048192   -0.32405776     0.036533521   -0.2124568      0.00070081335
   8287000   0.050099145   -0.32447951     0.035419988   -0.21391565    -0.00029804112
   8288000   0.049965058   -0.32417994     0.036138242   -0.21309894    -0.0002213278 
   8289000   0.049728223   -0.32451539     0.035406797   -0.21452107    -0.0006018045 
   8290000   0.050434747   -0.32467716     0.035730652   -0.21329926    -0.00073358242
   8291000   0.050468251   -0.32450584     0.035939297   -0.21286905    -0.00030855183
   8292000   0.049968854   -0.32419072     0.036065214   -0.21317706    -3.7401273e-05
   8293000   0.049713782   -0.324453       0.036403796   -0.21348334    -0.00099995708
   8294000   0.050274259   -0.32420871     0.035799974   -0.21300222     0.00027877129
   8295000   0.049737376   -0.32469549     0.035066966   -0.21502728     0.00063949222
   8296000   0.050599039   -0.32465456     0.036214684   -0.21254622    -0.0003778295 
   8297000   0.050337791   -0.32442287     0.035888021   -0.21303303    -0.00036499002
   8298000   0.050186646   -0.3246732      0.035876231   -0.21352185     0.00020843382
   8299000   0.049397024   -0.32468536     0.036325929   -0.21426867    -0.00021734527
   8300000   0.049817203   -0.32459701     0.035773425   -0.2141026      0.00056152872
   8301000   0.050195638   -0.32443698     0.035784246   -0.21336413     0.00031673188
   8302000   0.050406404   -0.32436668     0.035939621   -0.21282233    -0.00040281778
   8303000   0.050117956   -0.32480182     0.0361745     -0.21345524    -0.00048178203
   8304000   0.050068822   -0.32472926     0.035768121   -0.21386275    -0.00027982291
   8305000   0.049713503   -0.32415098     0.035855025   -0.21373051     0.00023108001
   8306000   0.050161255   -0.32423058     0.035900283   -0.21309327    -0.00067729962
   8307000   0.049943827   -0.32412233     0.035735339   -0.21347609     6.7524624e-05
   8308000   0.050367052   -0.32446993     0.036309173   -0.21261505    -0.0004836577 
   8309000   0.049981593   -0.32447044     0.035723841   -0.21377905    -0.00026284243
   8310000   0.049845463   -0.32475604     0.036244719   -0.21374795     0.00024530117
   8311000   0.050506668   -0.32420712     0.036124618   -0.21232739     0.00039402465
   8312000   0.049624603   -0.32409527     0.035929737   -0.21373343     0.00017040432
   8313000   0.049350334   -0.32443509     0.036065669   -0.2143487     -0.00013942882
   8314000   0.050212813   -0.3247107      0.035807631   -0.21358871     0.00019354565
   8315000   0.049919636   -0.32465567     0.036055385   -0.21372566    -0.00087347166
   8316000   0.050620498   -0.32439884     0.035724804   -0.21274819     0.00025754603
   8317000   0.050061716   -0.32460432     0.035786334   -0.21373025     0.00016316173
   8318000   0.050192005   -0.32452027     0.035667838   -0.21356928     0.00020723988
   8319000   0.04995877    -0.32454857     0.036111573   -0.21350367     0.00048398511
   8320000   0.049763969   -0.32458128     0.036307368   -0.21363277    -9.018323e-05 
   8321000   0.05021005    -0.32463435     0.036232885   -0.21309125     0.00047193636
   8322000   0.049992305   -0.32407569     0.035215835   -0.21387623     1.9414638e-05
   8323000   0.050133455   -0.32493739     0.035617066   -0.21412499     0.00031902455
   8324000   0.049419461   -0.32413559     0.036056165   -0.21395502     0.00023183844
   8325000   0.050298455   -0.324516       0.035376471   -0.21369672    -0.00026365686
   8326000   0.049970334   -0.32465049     0.035730348   -0.21396948    -0.00022429951
   8327000   0.050068341   -0.32504113     0.036069172   -0.21387429    -2.4984881e-07
   8328000   0.049742436   -0.32440925     0.035906192   -0.21389422    -0.00066162497
   8329000   0.050228631   -0.32442541     0.035717228   -0.2133701     -0.00028703197
   8330000   0.049879078   -0.32475611     0.036017378   -0.21392494    -0.00018102903
   8331000   0.04957444    -0.32464001     0.036023656   -0.21425949     0.00028487921
   8332000   0.04971576    -0.32429895     0.03513835    -0.21459178    -0.00064479657
   8333000   0.04977349    -0.3242625      0.03562357    -0.21398352    -0.00017711994
   8334000   0.049998764   -0.32432251     0.036419939   -0.21290927     0.00016941088
   8335000   0.050187808   -0.32442269     0.036178814   -0.21296702     0.00052228685
   8336000   0.050380247   -0.32423184     0.035833358   -0.21283299     0.00070752741
   8337000   0.0498177     -0.32432632     0.03612783    -0.21347676    -0.00090258464
   8338000   0.049530582   -0.32452779     0.035955389   -0.21428132    -8.0465588e-06
   8339000   0.049969288   -0.32428203     0.03655372    -0.21277921    -0.00099322543
   8340000   0.049782843   -0.32454407     0.036056071   -0.21381856     0.0011755868 
   8341000   0.049776201   -0.32432074     0.035923543   -0.21373771     0.00074126114
   8342000   0.050237636   -0.3245169      0.036069741   -0.21309557     0.00069444044
   8343000   0.050492398   -0.32433277     0.035686401   -0.21291266     0.00032665851
   8344000   0.050331406   -0.324822       0.03610745    -0.21322231     0.00067409882
   8345000   0.049977971   -0.3246207      0.035764245   -0.21389433     1.0054902e-05
   8346000   0.050104219   -0.32459629     0.035833832   -0.21361098     0.00021383248
   8347000   0.05007983    -0.32454501     0.035601818   -0.21382829     0.00057720326
   8348000   0.049483767   -0.32461373     0.03531358    -0.21507929     0.00074835535
   8349000   0.050101824   -0.32504549     0.035685871   -0.21421173    -0.00013643888
   8350000   0.050628554   -0.32463659     0.035711204   -0.21298745     1.217451e-05 
   8351000   0.050262657   -0.32476883     0.035846597   -0.21353311     0.00027424146
   8352000   0.049915136   -0.32475305     0.035740827   -0.21414435    -0.00065417786
   8353000   0.04980761    -0.32488401     0.036224365   -0.21395305    -0.00043045421
   8354000   0.050090027   -0.3250369      0.035916444   -0.21399026    -0.00015003099
   8355000   0.049354787   -0.32454209     0.0358759     -0.21463879     0.00010786973
   8356000   0.049970038   -0.32433052     0.036040792   -0.2133395     -6.3551856e-06
   8357000   0.049928729   -0.32423512     0.036059146   -0.21328771     9.9465452e-05
   8358000   0.049951499   -0.32449368     0.035279147   -0.21429212     0.00025677352
   8359000   0.049765539   -0.32465617     0.036417794   -0.21359488     0.00035539976
   8360000   0.049769549   -0.32468585     0.035927807   -0.21410854    -0.00024218033
   8361000   0.04961054    -0.32501506     0.035714637   -0.21488941    -7.5595408e-06
   8362000   0.050106456   -0.32460882     0.035691689   -0.21376229     0.00062558902
   8363000   0.050424797   -0.32467688     0.03553988    -0.21350469     0.00075768682
   8364000   0.050162362   -0.32489237     0.036171145   -0.21348253     7.4284257e-05
   8365000   0.049701914   -0.32485364     0.035985491   -0.21432009    -0.0003533152 
   8366000   0.050136773   -0.32473938     0.036018628   -0.21352044    -0.00040328209
   8367000   0.05028969    -0.32434889     0.036016781   -0.21290244    -8.2900303e-05
   8368000   0.050313783   -0.32421537     0.036053535   -0.21269603     2.1992878e-05
   8369000   0.049744162   -0.32442281     0.036376668   -0.21343472    -0.00074667362
   8370000   0.050133942   -0.32452047     0.035800333   -0.21352407    -0.00026160033
   8371000   0.05039264    -0.32464378     0.035800857   -0.21325884    -0.00017975837
   8372000   0.049863288   -0.32447169     0.036247883   -0.2134337     -0.00073722654
   8373000   0.050863498   -0.32440869     0.035958989   -0.21215938     0.00014777938
   8374000   0.050210953   -0.32459965     0.036046488   -0.21324159    -0.0011181601 
   8375000   0.049792107   -0.32480269     0.035558999   -0.21456035     0.00043651771
   8376000   0.050256028   -0.32456236     0.035953948   -0.21322923     0.000208288  
   8377000   0.050105552   -0.32429125     0.036208064   -0.21292971     0.0010658461 
   8378000   0.05058453    -0.32433017     0.035766199   -0.21269207     0.00057426837
   8379000   0.050068159   -0.32453011     0.035422178   -0.21401053    -0.00039767298
   8380000   0.049644159   -0.32430033     0.036207868   -0.21363103     0.00034387802
   8381000   0.0504468     -0.3246107      0.035540537   -0.21340484    -5.1188995e-05
   8382000   0.049958006   -0.32432491     0.035735395   -0.21365734     0.00056522734
   8383000   0.050055051   -0.32453019     0.036489997   -0.21296246    -5.076393e-05 
   8384000   0.050476138   -0.32482369     0.035666091   -0.21344827     0.0010182086 
   8385000   0.049861428   -0.32470391     0.036748716   -0.21316787    -0.0003999423 
   8386000   0.049898014   -0.32470619     0.03568232    -0.21418167     5.4972237e-05
   8387000   0.050364128   -0.32463911     0.035998824   -0.21309896    -0.00032085709
   8388000   0.050333694   -0.32442474     0.035354213   -0.21357486     0.00045444758
   8389000   0.049966137   -0.32449007     0.035339302   -0.21420639    -0.00010611806
   8390000   0.049699106   -0.32431198     0.03602319    -0.21374494     0.0009787094 
   8391000   0.049967478   -0.32452612     0.036085731   -0.21349401    -0.00057078612
   8392000   0.049833948   -0.32483287     0.035370078   -0.2147167     -9.5218307e-05
   8393000   0.050024919   -0.32443464     0.035685995   -0.21371611     0.0018713369 
   8394000   0.050055801   -0.32487871     0.035810963   -0.21398889    -0.00018254702
   8395000   0.049830705   -0.32449688     0.035765433   -0.21399021    -0.00012370518
   8396000   0.050039093   -0.32419768     0.035660202   -0.21348368     9.8574773e-05
   8397000   0.050067329   -0.32444275     0.03534055    -0.21400605    -0.00055354836
   8398000   0.049862421   -0.32410354     0.036090396   -0.21322434     0.0014454981 
   8399000   0.04971602    -0.32477108     0.036073397   -0.21412846    -0.000952236  
   8400000   0.049888648   -0.32480956     0.035940439   -0.21404097    -0.0002585653 
   8401000   0.049979885   -0.32412785     0.03569622    -0.21346664     0.00058122897
   8402000   0.049537785   -0.3243926      0.035943921   -0.21414679     0.00029662351
   8403000   0.049997908   -0.32453649     0.035926761   -0.2136177      0.00036426398
   8404000   0.049880045   -0.32498209     0.036039258   -0.21412759    -0.00062547946
   8405000   0.049854651   -0.32459487     0.036035529   -0.21378219    -3.6749872e-05
   8406000   0.049375055   -0.32461238     0.035746404   -0.21480817    -0.00044745817
   8407000   0.050250479   -0.32471256     0.036066651   -0.21327505     0.00036186494
   8408000   0.050134835   -0.32480428     0.035882827   -0.21372405    -0.00012158601
   8409000   0.049980611   -0.32509715     0.036051585   -0.21407948    -0.00081448474
   8410000   0.04979286    -0.32469857     0.035629855   -0.21438424    -0.00020040025
   8411000   0.050142944   -0.32470253     0.034747422   -0.21474554    -0.00031046975
   8412000   0.050114192   -0.32490792     0.036158007   -0.21358348     0.00035225682
   8413000   0.050490601   -0.32508604     0.036135561   -0.21321946     0.00015583709
   8414000   0.049382195   -0.32486555     0.035987767   -0.21480927    -0.00033852825
   8415000   0.049709249   -0.32457288     0.035810654   -0.21420316    -0.00015631093
   8416000   0.050308376   -0.32499877     0.035833082   -0.21370799     8.7159203e-05
   8417000   0.049874022   -0.32479086     0.036364378   -0.21362028    -0.0010010245 
   8418000   0.050353078   -0.32506009     0.036049005   -0.21348635     0.00014501994
   8419000   0.050334224   -0.32466948     0.035907628   -0.21326539     0.00067056511
   8420000   0.050289062   -0.32490151     0.035833723   -0.21363907    -0.00056313814
   8421000   0.050389703   -0.32463245     0.036311194   -0.21274158     0.0009660346 
   8422000   0.050283526   -0.32484192     0.036415389   -0.21300611     0.0010747937 
   8423000   0.050221965   -0.32494553     0.035808241   -0.2138092      0.00026703498
   8424000   0.049860002   -0.32446408     0.035905379   -0.21377352     0.00023251628
   8425000   0.049888761   -0.32455599     0.035758888   -0.21396878    -0.00050771423
   8426000   0.049907845   -0.32457327     0.036197066   -0.21351927    -0.00024710969
   8427000   0.049882977   -0.32429148     0.035649034   -0.21382281     0.0005903636 
   8428000   0.049923595   -0.32496719     0.035688157   -0.21439847     0.00016161231
   8429000   0.049613569   -0.32488791     0.035360975   -0.21511138    -6.0315564e-05
   8430000   0.049958471   -0.32468786     0.035927167   -0.21382782    -0.00075277583
   8431000   0.050064812   -0.32421374     0.035830679   -0.21329069     7.0388625e-05
   8432000   0.050141515   -0.32427462     0.035907318   -0.21315988    -8.171727e-05 
   8433000   0.049660211   -0.32458092     0.036577028   -0.21351839    -0.0010611651 
   8434000   0.050086991   -0.32445719     0.03579589    -0.21353566     1.7079696e-05
   8435000   0.049629636   -0.32470864     0.036468684   -0.21380031    -0.0010471423 
   8436000   0.050007328   -0.32479417     0.035882603   -0.21390541     8.4277417e-05
   8437000   0.050350684   -0.3247655      0.035977516   -0.21326683     0.00075222879
   8438000   0.050560591   -0.32458999     0.035592643   -0.21316135     0.00017988174
   8439000   0.049325641   -0.32485383     0.036050627   -0.21481951    -0.00081647972
   8440000   0.049524035   -0.32477279     0.036067435   -0.21442409    -0.00031655731
   8441000   0.049514188   -0.32460202     0.035756326   -0.21457921    -0.00056474231
   8442000   0.049434497   -0.32442761     0.035846426   -0.21443423    -0.00046108809
   8443000   0.049160087   -0.32440994     0.036036348   -0.21463822     0.00023165858
   8444000   0.04945083    -0.32446361     0.035418734   -0.21487341     0.0010590001 
   8445000   0.04995966    -0.32476768     0.035466857   -0.21436617    -0.00012390859
   8446000   0.049794038   -0.32444688     0.035291468   -0.21446918     0.00089063496
   8447000   0.049388448   -0.32460786     0.0360794     -0.21445057     0.00027289351
   8448000   0.049873653   -0.32445526     0.036336159   -0.21331345    -5.9829075e-05
   8449000   0.050150085   -0.32496612     0.035746848   -0.213999      -0.00047743389
   8450000   0.050191381   -0.32481468     0.035416184   -0.21411628    -0.00055738632
   8451000   0.049910812   -0.32486895     0.036518261   -0.2134893      0.00056240637
   8452000   0.050414415   -0.32494367     0.036093678   -0.21323325    -0.0013372239 
   8453000   0.050130121   -0.32457508     0.036199697   -0.21318506     0.00023622885
   8454000   0.050309627   -0.32472621     0.0353765     -0.21389014     0.0013518653 
   8455000   0.050201913   -0.32501612     0.035635495   -0.21408261    -0.0006439243 
   8456000   0.049971402   -0.32459396     0.035443802   -0.21419789     0.00047531341
   8457000   0.050276063   -0.3248925      0.035246869   -0.2142364     -4.4164621e-05
   8458000   0.050128909   -0.32471428     0.035781581   -0.21374418     0.00023867653
   8459000   0.049810964   -0.32503126     0.036163887   -0.21415575    -0.00076697445
   8460000   0.050493338   -0.32471779     0.036163849   -0.21281882    -0.00028564096
   8461000   0.049897241   -0.32505135     0.036236757   -0.21397356     0.00064799791
   8462000   0.050024793   -0.32460351     0.035442146   -0.21412901     0.00095354631
   8463000   0.049679526   -0.32475886     0.035549579   -0.2146948      3.8873722e-06
   8464000   0.049784654   -0.32490198     0.035620247   -0.21460957    -0.00062686045
   8465000   0.050640872   -0.32488916     0.035229452   -0.2137033      0.0003534874 
   8466000   0.050562212   -0.3247213      0.035714182   -0.21316869     0.00061425478
   8467000   0.050286293   -0.32476547     0.036142153   -0.21319874     0.00032236055
   8468000   0.050071976   -0.32492386     0.036010849   -0.21380989     0.0011184104 
   8469000   0.049809891   -0.32488269     0.035653099   -0.21451958     0.0002320298 
   8470000   0.049909222   -0.32428345     0.035345768   -0.21407868     5.6087941e-05
   8471000   0.049989424   -0.32491085     0.035996487   -0.21393506     0.00044365201
   8472000   0.049905824   -0.32492375     0.035925264   -0.21414458    -0.0003181053 
   8473000   0.049741916   -0.32499439     0.035975196   -0.21441114    -0.00045927414
   8474000   0.050157865   -0.32465071     0.035809044   -0.21360972     0.0009953331 
   8475000   0.050110832   -0.32513106     0.036030057   -0.2139396     -9.3635707e-05
   8476000   0.049963991   -0.32456656     0.036015565   -0.21360985    -0.00027293509
   8477000   0.050018636   -0.3247878      0.036491996   -0.21327269    -6.9565917e-05
   8478000   0.049808917   -0.32484958     0.036162408   -0.21397861    -0.00014398914
   8479000   0.050567644   -0.32495339     0.036012198   -0.21309462    -0.00067289954
   8480000   0.049916083   -0.3245399      0.035706118   -0.21396449    -0.0002616076 
   8481000   0.050165218   -0.32504582     0.036271419   -0.21353143    -9.8590374e-05
   8482000   0.049993522   -0.32515993     0.035957576   -0.2142169      0.00099215936
   8483000   0.050034872   -0.3249333      0.035450555   -0.21443528    -9.166394e-05 
   8484000   0.049562847   -0.32513418     0.036287971   -0.21450674     0.00051374174
   8485000   0.049880806   -0.32453342     0.035999849   -0.21371719    -0.00044625811
   8486000   0.049804703   -0.32508181     0.036018425   -0.21436115    -0.00045139925
   8487000   0.050257631   -0.32475069     0.035297379   -0.21407172     0.00088732918
   8488000   0.049556164   -0.32468735     0.03574189    -0.21461601    -0.00016833621
   8489000   0.049923271   -0.32500476     0.035446966   -0.21467772     0.00057088308
   8490000   0.049728814   -0.3245178      0.035694462   -0.21423493    -5.0055087e-05
   8491000   0.050185844   -0.32431438     0.03630157    -0.2127389      0.00042587683
   8492000   0.050532219   -0.32463642     0.036282361   -0.21256062    -0.00039350558
   8493000   0.049663165   -0.32453595     0.036022146   -0.21402386    -0.00014575887
   8494000   0.049756971   -0.3248517      0.035694056   -0.21452701     0.00049217154
   8495000   0.049548229   -0.32466132     0.036061209   -0.21428256     0.00016498956
   8496000   0.050457342   -0.32472049     0.035887049   -0.21315232    -0.00019629635
   8497000   0.050038467   -0.32482696     0.03602538    -0.21374872     0.00030249064
   8498000   0.050146177   -0.32515552     0.035289712   -0.21465139     0.00025975873
   8499000   0.049996243   -0.32493614     0.034894367   -0.21505224     0.00064722547
   8500000   0.050195456   -0.32473042     0.035804999   -0.21363709     0.001076965  
   8501000   0.049934351   -0.32524358     0.035739755   -0.21460713    -8.3402631e-05
   8502000   0.049767781   -0.32490633     0.035556603   -0.21470287    -0.00044665527
   8503000   0.050202891   -0.32446391     0.035487712   -0.21367672     0.00051199075
   8504000   0.0501676     -0.3244277      0.036047708   -0.21313345     0.00023842387
   8505000   0.049962195   -0.32467231     0.036515192   -0.21321866    -0.00085729285
   8506000   0.050252543   -0.32492212     0.035984996   -0.21356317     0.00028568069
   8507000   0.049987018   -0.32459435     0.035847698   -0.21377097     0.00024867396
   8508000   0.049887262   -0.32513178     0.035779557   -0.21452616    -0.00039025178
   8509000   0.05061663    -0.32530061     0.03600086    -0.21337971    -1.6448597e-05
   8510000   0.049707268   -0.32489843     0.035790693   -0.21455165    -0.00060585327
   8511000   0.049817084   -0.32512953     0.03639559    -0.21401314    -0.00097289261
   8512000   0.050495639   -0.32451856     0.035540218   -0.21323977     0.00023081449
   8513000   0.049759089   -0.32480021     0.03613009    -0.21403631    -0.0001101586 
   8514000   0.049966677   -0.32477503     0.036194885   -0.21363497    -0.00019227649
   8515000   0.050239621   -0.3245273      0.036162953   -0.21300977    -0.00030045201
   8516000   0.050119816   -0.32461241     0.035685569   -0.21375197     0.00053865068
   8517000   0.050268704   -0.32503221     0.035667214   -0.21396681     0.00065598416
   8518000   0.05027914    -0.32500758     0.035560316   -0.21403342     0.0010119781 
   8519000   0.049900587   -0.32480144     0.035780748   -0.21417465     0.00094346541
   8520000   0.049217586   -0.32496199     0.035694248   -0.21544612     0.00038350083
   8521000   0.049758673   -0.32475604     0.035879418   -0.21424343    -6.6487485e-05
   8522000   0.050111505   -0.3250234      0.035558128   -0.21430287     0.00063247851
   8523000   0.050160606   -0.32475515     0.03648446    -0.21303463    -0.00023538018
   8524000   0.050110666   -0.3250147      0.035980717   -0.21387283    -0.00081514096
   8525000   0.050030331   -0.32505737     0.035707801   -0.21430891    -0.00026432259
   8526000   0.049659999   -0.32447528     0.036166073   -0.21382401    -0.00026664137
   8527000   0.050172389   -0.32494881     0.035921047   -0.21377403    -0.00058388093
   8528000   0.050600786   -0.32449827     0.036357856   -0.21224413     0.0005814049 
   8529000   0.050007397   -0.32480985     0.036041623   -0.21376197    -0.0011277189 
   8530000   0.050455585   -0.32487736     0.036326839   -0.21287203    -0.00030770569
   8531000   0.049959059   -0.32476209     0.036423724   -0.21340461     0.00085852564
   8532000   0.049936784   -0.3254583      0.035808303   -0.21474966    -0.00034481754
   8533000   0.049977614   -0.32459545     0.035947313   -0.21368656     0.00052918663
   8534000   0.04953059    -0.32442232     0.035944795   -0.21418643     0.00017738105
   8535000   0.049247135   -0.32473507     0.035963709   -0.21490542     0.00088583031
   8536000   0.050597704   -0.32516549     0.036200503   -0.21307332     1.3114939e-05
   8537000   0.049840941   -0.32516451     0.036374606   -0.21403331     0.00044079811
   8538000   0.049658589   -0.32465435     0.035867482   -0.21430379     0.00073224871
   8539000   0.049597639   -0.32491388     0.03565279    -0.21486944    -0.0009077273 
   8540000   0.050429514   -0.32514487     0.035849912   -0.21365556    -0.00027852966
   8541000   0.049555096   -0.32494207     0.035656036   -0.21495819    -0.00018069146
   8542000   0.049693118   -0.32508433     0.035900751   -0.21464871     0.00019434432
   8543000   0.049337003   -0.3251611      0.035819531   -0.21534084    -0.00036655442
   8544000   0.050213072   -0.32481087     0.036362038   -0.21313409     6.5172018e-06
   8545000   0.049839876   -0.32488078     0.035724681   -0.21440111    -0.00061793809
   8546000   0.050645833   -0.32469268     0.036108363   -0.21262047    -0.00015246875
   8547000   0.050335628   -0.32493662     0.036201451   -0.2132366      0.00031152052
   8548000   0.051010868   -0.32471138     0.036287414   -0.2119126      0.00065710199
   8549000   0.050051115   -0.32455064     0.036143677   -0.21333514    -0.00018745287
   8550000   0.049891345   -0.32504969     0.036102306   -0.21411519    -0.00018573671
   8551000   0.050162274   -0.32486517     0.035630867   -0.21399575    -0.00013419598
   8552000   0.050158107   -0.32464229     0.036096616   -0.21331336     0.00057936684
   8553000   0.05012999    -0.32469372     0.03637795    -0.21312564     0.00032318641
   8554000   0.049876723   -0.32507926     0.03597687    -0.21429213    -1.5130816e-05
   8555000   0.049807537   -0.32496783     0.036009388   -0.21425195    -0.00012241705
   8556000   0.050039021   -0.32441647     0.035957354   -0.21340543     0.00131562   
   8557000   0.049903499   -0.32481387     0.035313278   -0.21465017     0.0011342826 
   8558000   0.049821648   -0.32508407     0.034951594   -0.21540483     0.00056330593
   8559000   0.049090699   -0.32505006     0.035533404   -0.21588536     0.00017007952
   8560000   0.049317576   -0.32523401     0.036004469   -0.21525795     0.00018779112
   8561000   0.049559021   -0.32499008     0.035632915   -0.21502343     0.00042896248
   8562000   0.049741349   -0.32484738     0.035718917   -0.21452126     0.00010909125
   8563000   0.049851713   -0.3251337      0.035495858   -0.21486509     0.00068460663
   8564000   0.04983867    -0.3252833      0.036018094   -0.21451203    -0.00042630642
   8565000   0.050596332   -0.32506716     0.03569324    -0.21348432    -0.00057227172
   8566000   0.050051101   -0.32477198     0.036462485   -0.21323769    -0.00067683527
   8567000   0.050022981   -0.32464244     0.035553486   -0.21405932     0.00070092348
   8568000   0.049979551   -0.32508295     0.035635307   -0.21448315    -0.00031175688
   8569000   0.049908306   -0.32494854     0.036278303   -0.21381261    -0.00010908086
   8570000   0.049696108   -0.32493419     0.036189763   -0.21420508    -0.00027208282
   8571000   0.049540542   -0.32472722     0.035717966   -0.21470323     0.00018132259
   8572000   0.050099291   -0.32459982     0.035148022   -0.21430771     0.00044313965
   8573000   0.050291113   -0.32502103     0.03567896    -0.21391027     0.00066104373
   8574000   0.049867188   -0.32485602     0.03620463    -0.21385543     0.00096933796
   8575000   0.049828417   -0.32483854     0.036048112   -0.21405262    -0.00050011279
   8576000   0.049959358   -0.32496276     0.0359782     -0.21405036     3.9744096e-05
   8577000   0.050263934   -0.32519108     0.0356348     -0.21416525     0.00050533009
   8578000   0.049936107   -0.32509581     0.035762809   -0.21443367     0.00016883184
   8579000   0.050160714   -0.32524685     0.036294258   -0.21371638    -0.00050363807
   8580000   0.049815567   -0.32511836     0.035925297   -0.21447454    -0.00093353952
   8581000   0.049710497   -0.32496104     0.035683824   -0.21471628     0.00050369342
   8582000   0.050138453   -0.32539147     0.03572917    -0.21445947     0.00010726583
   8583000   0.049948966   -0.32491014     0.035980604   -0.21401092     0.00055424127
   8584000   0.049863705   -0.32497726     0.035141912   -0.21504461     0.0013330104 
   8585000   0.05019011    -0.32497365     0.035821779   -0.21387156     0.0004126445 
   8586000   0.05005462    -0.32472267     0.036447988   -0.2131976      0.00018841169
   8587000   0.050422473   -0.32456277     0.035497388   -0.21343655    -8.9199957e-05
   8588000   0.050325469   -0.32509053     0.035961746   -0.21364545     0.00079237804
   8589000   0.050308084   -0.32504017     0.03580179    -0.21378112     0.00081887108
   8590000   0.049774122   -0.32499405     0.035876439   -0.21446125     0.0003623024 
   8591000   0.049706428   -0.32449635     0.035778236   -0.21416328     0.00062219228
   8592000   0.0498595     -0.32469947     0.036043738   -0.21387131    -0.00014086574
   8593000   0.050361611   -0.32500771     0.036318435   -0.21315173     0.0012462377 
   8594000   0.050014447   -0.32481471     0.035664462   -0.21413342     0.00072115948
   8595000   0.05079833    -0.32523162     0.035724793   -0.21331425    -0.00037151873
   8596000   0.050314359   -0.32524494     0.036029494   -0.21374878     7.389192e-05 
   8597000   0.049926459   -0.32526832     0.036090782   -0.21429268    -0.000585878  
   8598000   0.050221108   -0.32469831     0.035872772   -0.21349874    -0.00066221483
   8599000   0.050073266   -0.32513676     0.036386247   -0.21364546     0.00068657265
   8600000   0.05006277    -0.32490363     0.036694676   -0.21311964    -0.0006132364 
   8601000   0.049800691   -0.32496655     0.036122228   -0.21414811     0.00050388718
   8602000   0.050267938   -0.32505711     0.035817144   -0.21384293    -0.00027611781
   8603000   0.050503096   -0.32475808     0.035298342   -0.21370998     0.00091186329
   8604000   0.050483653   -0.32482295     0.036376401   -0.21272595    -0.00044295489
   8605000   0.050360903   -0.32494784     0.03568511    -0.21372625    -0.00019568956
   8606000   0.049740846   -0.32500972     0.035809681   -0.21459358     0.00025872275
   8607000   0.049955867   -0.3248788      0.036099971   -0.21384986    -0.00034037996
   8608000   0.050618006   -0.32486041     0.035604343   -0.21333396    -0.00032336568
   8609000   0.049789      -0.32496054     0.035979881   -0.21430198     0.00076687334
   8610000   0.049500104   -0.32509144     0.035861476   -0.21498459    -0.00015492589
   8611000   0.049850343   -0.32479535     0.035086215   -0.21493845    -8.1914633e-05
   8612000   0.049449472   -0.32524859     0.03623471    -0.21484445    -0.00060998166
   8613000   0.049591022   -0.32506896     0.035476146   -0.21521108     0.00036958908
   8614000   0.049647528   -0.32517494     0.035602331   -0.21510612     0.00033627089
   8615000   0.050529001   -0.32470958     0.03519365    -0.21372732    -0.00011804291
   8616000   0.050205743   -0.32530358     0.036977205   -0.21302262    -3.6803257e-05
   8617000   0.049532612   -0.32532386     0.03596485    -0.21506488    -0.00081243684
   8618000   0.049517065   -0.32523207     0.03569043    -0.21527084    -0.00049651903
   8619000   0.050242359   -0.32503376     0.035879147   -0.21379594     0.00040032989
   8620000   0.050070516   -0.32519344     0.036171821   -0.21392069    -0.00082075378
   8621000   0.050040339   -0.32509797     0.036240473   -0.21380183     0.0011558201 
   8622000   0.049911449   -0.32526552     0.036619951   -0.21378323    -0.0011219693 
   8623000   0.050576255   -0.32497815     0.035462684   -0.21365598    -0.00015978211
   8624000   0.049437506   -0.32489867     0.036457821   -0.21428938     0.00054412903
   8625000   0.050133059   -0.32541764     0.036025799   -0.2141971     -0.00028691196
   8626000   0.050580658   -0.32519389     0.035274858   -0.21405294    -0.00012043319
   8627000   0.049991051   -0.32502636     0.035291322   -0.21475329    -1.59617e-07  
   8628000   0.049589097   -0.32497285     0.035914805   -0.2146792     -0.0008844194 
   8629000   0.050189452   -0.32516661     0.036213419   -0.21367387     0.00044930844
   8630000   0.050200832   -0.32543556     0.035544297   -0.21459487     7.2881835e-05
   8631000   0.050083696   -0.3250974      0.03603204    -0.21394467    -0.0002968085 
   8632000   0.050200658   -0.32492781     0.036610536   -0.21302115     5.491588e-05 
   8633000   0.049776467   -0.32496051     0.036552231   -0.21374839    -0.00057065485
   8634000   0.050200492   -0.32516564     0.035822115   -0.21404764    -0.00020413412
   8635000   0.049380947   -0.32456622     0.036146416   -0.21435316     0.00013497086
   8636000   0.050657961   -0.32494323     0.03534834    -0.21361285     5.9588379e-05
   8637000   0.050016636   -0.3250522      0.036034937   -0.21399715     0.00034695483
   8638000   0.049823512   -0.32494799     0.036350555   -0.21386699    -0.00017042224
   8639000   0.050307025   -0.32528976     0.035781449   -0.21405264    -3.8327496e-05
   8640000   0.050195016   -0.32486191     0.035783857   -0.21379039    -0.00016801291
   8641000   0.04990161    -0.32493955     0.035579352   -0.21451261     0.00012315236
   8642000   0.049845194   -0.32489823     0.035245031   -0.21489024     0.00017035949
   8643000   0.050174709   -0.32483256     0.035649594   -0.21392576     0.00019903187
   8644000   0.049598394   -0.32485629     0.035871947   -0.21459155    -0.00017525136
   8645000   0.050459699   -0.32499071     0.036359299   -0.21294674     0.00064414643
   8646000   0.050367645   -0.32510629     0.036518645   -0.21304106    -1.1485991e-06
   8647000   0.050213228   -0.32511374     0.035905549   -0.21389321    -0.0003232589 
   8648000   0.050215007   -0.32528858     0.03634976    -0.21362117    -0.00025835813
   8649000   0.050108971   -0.3248702      0.035724063   -0.21398753    -0.00041442517
   8650000   0.050410979   -0.32457849     0.035563493   -0.2134034      0.00076958214
   8651000   0.050613958   -0.32493305     0.035684917   -0.21333209     0.0010408796 
   8652000   0.049873785   -0.32492032     0.036359594   -0.21375487    -0.00033132611
   8653000   0.049941018   -0.32492227     0.035911138   -0.21410444     0.00030935114
   8654000   0.049824664   -0.32507944     0.035786981   -0.21456029     0.00089248004
   8655000   0.050190702   -0.32466681     0.035927253   -0.21345836     0.00065272575
   8656000   0.050340453   -0.32513939     0.036116375   -0.21351721    -0.0011398453 
   8657000   0.050481674   -0.3251584      0.035893652   -0.21354713    -0.00078702852
   8658000   0.050196152   -0.32527362     0.036232097   -0.21375215    -0.00016751106
   8659000   0.050058166   -0.32462082     0.035797234   -0.21374118     0.0010061803 
   8660000   0.049952957   -0.32495218     0.036250685   -0.2137769     -0.00089737092
   8661000   0.050241326   -0.32529377     0.036240257   -0.21369638    -0.00034840818
   8662000   0.049797193   -0.32538089     0.035844479   -0.21484544    -4.5295347e-05
   8663000   0.049760224   -0.32541468     0.035232952   -0.21554621    -0.00044900262
   8664000   0.049637269   -0.32532312     0.035392843   -0.21547918     0.00060802785
   8665000   0.049969713   -0.32527143     0.035550964   -0.21477073    -0.00028594312
   8666000   0.049515152   -0.32538283     0.036241412   -0.21487348     1.4948093e-05
   8667000   0.049770491   -0.32503268     0.03590601    -0.21447575    -0.0001556979 
   8668000   0.049823308   -0.32480827     0.035508619   -0.21456951    -0.00026206278
   8669000   0.050226483   -0.32492994     0.036016995   -0.21357808     0.00063135599
   8670000   0.05000909    -0.32517776     0.035958336   -0.21421063     0.00055715681
   8671000   0.05010319    -0.32467988     0.035737496   -0.21379245     0.00091255226
   8672000   0.049746765   -0.32540547     0.035993479   -0.21479666     0.00050883033
   8673000   0.050053031   -0.32478544     0.035666662   -0.21404408    -0.00097360638
   8674000   0.0499684     -0.32518016     0.035657368   -0.21457502    -0.00031321104
   8675000   0.049514847   -0.32506169     0.036162721   -0.21463149     2.8319767e-05
   8676000   0.050366058   -0.32534751     0.035954805   -0.21384849    -0.00050589693
   8677000   0.049763252   -0.32552238     0.03568556    -0.21519676     2.4688765e-05
   8678000   0.049363854   -0.3250111      0.035851289   -0.2151188      0.0012575814 
   8679000   0.050129862   -0.32515907     0.035559401   -0.21440972     0.00016299286
   8680000   0.04971934    -0.32503561     0.035928559   -0.21453285    -7.2766073e-05
   8681000   0.050066515   -0.32523071     0.035772522   -0.21436326     0.00052717932
   8682000   0.050115664   -0.3250179      0.035843415   -0.21400584     0.00027595171
   8683000   0.050000548   -0.32515584     0.035811386   -0.21434847     0.00011944709
   8684000   0.05016237    -0.32495538     0.035976105   -0.21374057     9.0155989e-07
   8685000   0.050240189   -0.3249558      0.03588517    -0.21371521     0.00032619475
   8686000   0.050693293   -0.32475984     0.03574582    -0.21297898    -0.0005653273 
   8687000   0.050742916   -0.32456158     0.035521512   -0.2129306      4.261339e-06 
   8688000   0.050052996   -0.32507904     0.03617097    -0.21383342    -4.2335496e-05
   8689000   0.049979517   -0.32475762     0.036191528   -0.21360165     0.00074489834
   8690000   0.049875522   -0.32517573     0.035800324   -0.21456695     0.00043415204
   8691000   0.050168921   -0.32487473     0.035539855   -0.21408635     0.00096072738
   8692000   0.050055929   -0.32489276     0.035962031   -0.21385167    -0.00030082733
   8693000   0.049453684   -0.32478598     0.036091859   -0.21451839     6.3983839e-05
   8694000   0.050302022   -0.32531293     0.036982051   -0.21288272    -0.000672305  
   8695000   0.050316799   -0.32508284     0.035356996   -0.21425551     0.00019538728
   8696000   0.0496825     -0.32493747     0.036409898   -0.21400863    -0.00056240507
   8697000   0.050451638   -0.32529602     0.036354985   -0.21326846    -0.00056134042
   8698000   0.049976253   -0.32521157     0.036731503   -0.21352052    -0.00022674867
   8699000   0.050125193   -0.32517697     0.036711434   -0.2132826      0.0005374639 
   8700000   0.050198457   -0.32510773     0.03628181    -0.21353309     0.00036023344
   8701000   0.0503224     -0.32517206     0.036517205   -0.21317613    -0.00025295381
   8702000   0.050086615   -0.32494809     0.036611565   -0.21321145    -0.00059382306
   8703000   0.049792989   -0.32518322     0.036263854   -0.2142347     -6.0404691e-05
   8704000   0.049501841   -0.3251419      0.035828381   -0.21506555     0.0005102543 
   8705000   0.049971062   -0.32569306     0.035789448   -0.21495185    -0.00074850683
   8706000   0.049941055   -0.32508276     0.036125451   -0.21405056    -0.00077114205
   8707000   0.050474869   -0.32479932     0.035760276   -0.21333163    -0.00017201416
   8708000   0.049812317   -0.32476247     0.035558451   -0.21449037     0.00093246208
   8709000   0.049862242   -0.32532211     0.036500672   -0.2140329     -0.00082111208
   8710000   0.04936471    -0.32554316     0.035846806   -0.21565407     0.00048579009
   8711000   0.050166237   -0.32507965     0.035723869   -0.21411128    -9.0734358e-05
   8712000   0.050422288   -0.32488831     0.035990701   -0.21326906     0.00084904425
   8713000   0.049864841   -0.32542921     0.036020432   -0.21461634     0.00051573454
   8714000   0.049744446   -0.32522406     0.035326607   -0.2152856     -0.00012406145
   8715000   0.049340153   -0.325132       0.036367042   -0.2147595      0.00080022604
   8716000   0.05005815    -0.32554616     0.035884744   -0.21457904     0.00030687175
   8717000   0.050085323   -0.32555789     0.036159096   -0.21427566    -8.7763397e-05
   8718000   0.050268249   -0.32514439     0.036275432   -0.21347145     0.00020665765
   8719000   0.05028724    -0.32519634     0.036079021   -0.21369133    -0.00032239524
   8720000   0.04965811    -0.32494982     0.036433704   -0.21403376    -0.00026241189
   8721000   0.049823337   -0.32542576     0.036305014   -0.21439056    -0.00026091885
   8722000   0.049624484   -0.32514492     0.035138248   -0.21557475     0.00075999876
   8723000   0.04902071    -0.32522709     0.035626309   -0.21607446    -0.00017861943
   8724000   0.049329926   -0.32563572     0.036089112   -0.21555649    -0.00073823881
   8725000   0.049646223   -0.32533446     0.035729968   -0.21513996     0.00071725296
   8726000   0.049961429   -0.32534716     0.036267839   -0.21414201    -1.7939287e-05
   8727000   0.050548858   -0.32578795     0.037001058   -0.2129685     -0.00021451837
   8728000   0.049999431   -0.32521018     0.035661685   -0.21455419     0.00098901104
   8729000   0.049645591   -0.32533243     0.036173421   -0.21469543    -0.00081475193
   8730000   0.05030548    -0.32542312     0.03594545    -0.21402432     0.0005818338 
   8731000   0.049513287   -0.32564056     0.035930465   -0.21544496    -0.00022731988
   8732000   0.050167937   -0.32546625     0.035469198   -0.21475       -0.00023221071
   8733000   0.049512725   -0.32549015     0.036078728   -0.21514713    -0.00019899313
   8734000   0.049976645   -0.32502341     0.035412148   -0.21465113    -0.00023268761
   8735000   0.050065448   -0.32533415     0.035526391   -0.21471443    -7.7265684e-05
   8736000   0.049513447   -0.32576281     0.035813603   -0.21568383    -0.0014344859 
   8737000   0.049787733   -0.32545981     0.035559443   -0.21522359    -0.00078202207
   8738000   0.050647762   -0.32527116     0.035441059   -0.21386336     0.0014194648 
   8739000   0.049664756   -0.3255693      0.035692647   -0.21538433     0.00067226048
   8740000   0.05008728    -0.32562214     0.035968651   -0.21452742     0.00041338283
   8741000   0.050242615   -0.32588392     0.036310593   -0.21421426    -0.00052344631
   8742000   0.049660794   -0.3258867      0.035622838   -0.21577748     0.00012854892
   8743000   0.049995271   -0.32551949     0.035627924   -0.2149035      0.00048348553
   8744000   0.049540753   -0.3253678      0.035245745   -0.21581572     0.00011521681
   8745000   0.050460607   -0.32533673     0.036251665   -0.21339904    -0.00058200434
   8746000   0.050400992   -0.32506425     0.035745205   -0.21372243    -0.0004755774 
   8747000   0.050378022   -0.32538462     0.036116507   -0.21370595     0.0003292498 
   8748000   0.049942167   -0.32531369     0.036177877   -0.2142274     -0.00070488132
   8749000   0.050011424   -0.32530007     0.035930769   -0.214357       0.00043442817
   8750000   0.049839215   -0.32521661     0.036095882   -0.21436672    -6.7439998e-05
   8751000   0.050514899   -0.32539449     0.035739824   -0.2138872      0.0005513103 
   8752000   0.050312603   -0.32542039     0.036015088   -0.21394127     0.00032287047
   8753000   0.049943725   -0.32554018     0.035948609   -0.21468081    -3.2157838e-06
   8754000   0.049882602   -0.32526407     0.036049924   -0.21439507     0.0012709118 
   8755000   0.049869016   -0.32528217     0.035511277   -0.2149722      0.0019006169 
   8756000   0.049779465   -0.3250893      0.035813327   -0.21461159     0.00010140524
   8757000   0.050158716   -0.32570801     0.035939511   -0.21453528    -0.00077185598
   8758000   0.049998567   -0.3256558      0.035971444   -0.21469134    -0.0010716986 
   8759000   0.050268678   -0.32565511     0.036312226   -0.21394473    -0.00052457395
   8760000   0.04970862    -0.32503342     0.035775879   -0.21469942     0.0011429539 
   8761000   0.050230751   -0.32473236     0.035458549   -0.21393254     0.0007978972 
   8762000   0.05024647    -0.32498094     0.035723212   -0.21389289     0.00053669585
   8763000   0.049973508   -0.32541842     0.036018082   -0.21444491    -0.00028880623
   8764000   0.050193235   -0.32523246     0.035686257   -0.21426121     0.00058742928
   8765000   0.050197216   -0.32551854     0.036456453   -0.21377112     0.0003809778 
   8766000   0.049803524   -0.3257501      0.036145767   -0.21490387    -1.6978146e-05
   8767000   0.049918444   -0.32574497     0.036092031   -0.2147801     -0.00023257773
   8768000   0.050520755   -0.32576828     0.035747192   -0.21424484     0.00083062099
   8769000   0.049945519   -0.32589692     0.036025578   -0.2149579     -0.00084917014
   8770000   0.049787474   -0.32586357     0.035655484   -0.2155317      0.00025792303
   8771000   0.049386455   -0.325525       0.035485783   -0.21596432    -0.00049931116
   8772000   0.049722618   -0.32577525     0.036417657   -0.21477847     0.00027949052
   8773000   0.049840524   -0.32550854     0.036072045   -0.21468053    -0.0011163434 
   8774000   0.049804136   -0.32547931     0.035432136   -0.21534579     0.00016545684
   8775000   0.049733077   -0.3259048      0.035943613   -0.21536638    -0.00037104766
   8776000   0.049588645   -0.32561238     0.036149272   -0.21508493     0.00017375184
   8777000   0.05045867    -0.32551397     0.036345656   -0.21348519     0.00028165736
   8778000   0.050389645   -0.32531285     0.036447682   -0.21328558     4.3971168e-05
   8779000   0.050630971   -0.32524976     0.036054994   -0.21325321     0.00074985708
   8780000   0.049839499   -0.32568652     0.036637701   -0.2142944     -0.0007389731 
   8781000   0.04981839    -0.32573168     0.035960485   -0.21504843    -0.00032273938
   8782000   0.04969091    -0.3255865      0.035481551   -0.21557339     0.00010916397
   8783000   0.050687002   -0.32554118     0.036235787   -0.2132798      2.8035942e-06
   8784000   0.049945953   -0.32519149     0.035955204   -0.21432219     0.00084816438
   8785000   0.049757551   -0.32551763     0.036432216   -0.21445391     0.0010120005 
   8786000   0.050112848   -0.32562784     0.036203032   -0.21426039    -0.00011978151
   8787000   0.049922175   -0.32529108     0.035623944   -0.21478871    -0.00077746865
   8788000   0.050603155   -0.32577442     0.03564227    -0.21423232     0.00059716964
   8789000   0.049748086   -0.32554008     0.036408738   -0.21451403    -0.00068124492
   8790000   0.049912826   -0.32617648     0.035724625   -0.21558745    -0.00039650715
   8791000   0.05027145    -0.32611491     0.035682575   -0.21503002     0.00019197813
   8792000   0.049788123   -0.32577878     0.035309999   -0.21579141     0.00068780564
   8793000   0.050047771   -0.3259502      0.035947378   -0.214936       0.00018977284
   8794000   0.049509732   -0.32571178     0.035677151   -0.21577482     6.7597538e-05
   8795000   0.049732518   -0.32594164     0.035405257   -0.21594242    -0.00071673917
   8796000   0.049444564   -0.32536819     0.035659367   -0.21554676     0.00026529254
   8797000   0.049715787   -0.32583787     0.036040787   -0.21522821     0.00012167512
   8798000   0.049619542   -0.32523289     0.035949168   -0.21485921     0.00096013199
   8799000   0.049906525   -0.32527201     0.03631488    -0.21410217    -0.00025786325
   8800000   0.049976465   -0.32539339     0.036074062   -0.21435947    -0.00043526328
   8801000   0.050480542   -0.32567115     0.035777193   -0.21417803    -1.5997827e-05
   8802000   0.050488464   -0.32573348     0.035846753   -0.21415892    -3.2076175e-05
   8803000   0.049754472   -0.32567357     0.035874188   -0.21517249     0.00078110883
   8804000   0.050227924   -0.32513006     0.036004814   -0.21378822     0.00089093957
   8805000   0.050366192   -0.32577917     0.035748295   -0.21448646     0.00067589634
   8806000   0.050061647   -0.3252135      0.036046369   -0.21407951     0.00092867478
   8807000   0.049714661   -0.3251679      0.036475105   -0.21412561     0.00050135889
   8808000   0.049944877   -0.32525785     0.036287616   -0.21405775     9.695757e-05 
   8809000   0.049633845   -0.32528385     0.035779795   -0.21505809    -0.00014503723
   8810000   0.049315246   -0.32605275     0.036173537   -0.21591112     3.9068296e-05
   8811000   0.04953919    -0.32568547     0.036028659   -0.21535282    -0.00052480255
   8812000   0.049815908   -0.32599452     0.035855899   -0.21541958     0.00024916537
   8813000   0.049869416   -0.32578665     0.035757999   -0.21522935    -0.00022065323
   8814000   0.04944436    -0.32521659     0.036164412   -0.21489042    -0.00052959919
   8815000   0.050260134   -0.3256795      0.036519288   -0.21377487    -0.00096042463
   8816000   0.049917831   -0.32548185     0.036485605   -0.21412433    -0.0012418035 
   8817000   0.050238543   -0.32529718     0.036161638   -0.21378259     9.0230227e-05
   8818000   0.049766359   -0.32521081     0.035511686   -0.2150544      0.00091208617
   8819000   0.04960459    -0.32568997     0.035421972   -0.21586591    -0.00068988745
   8820000   0.049441803   -0.32594312     0.035842198   -0.21594301    -0.0001457487 
   8821000   0.049652668   -0.32529626     0.035640313   -0.21518175    -0.00026228621
   8822000   0.049655413   -0.32559501     0.035732743   -0.21538395     0.00060708308
   8823000   0.050132199   -0.32568248     0.0356807     -0.21480833    -0.00016374978
   8824000   0.050464275   -0.32538959     0.035769875   -0.21392818     0.00013231231
   8825000   0.049679172   -0.32582202     0.035645823   -0.21566224     0.00029921263
   8826000   0.050211849   -0.3258906      0.035711532   -0.21486615    -0.0011065782 
   8827000   0.049827831   -0.32545432     0.035537681   -0.21517971     0.00043349996
   8828000   0.04996897    -0.3255014      0.035840192   -0.21471258     0.0002408847 
   8829000   0.050386598   -0.32576148     0.035426607   -0.21475985    -0.00014095947
   8830000   0.049710853   -0.32578991     0.036144592   -0.21508385    -6.0794483e-05
   8831000   0.049934237   -0.3251281      0.035798777   -0.2144328      0.00054457487
   8832000   0.050313089   -0.32566139     0.035020709   -0.21517591     0.00025555646
   8833000   0.049580698   -0.3254975      0.03634142    -0.21478983     0.00036070049
   8834000   0.050238089   -0.32558727     0.036694486   -0.21354051    -0.00019422932
   8835000   0.049918704   -0.32530986     0.035867439   -0.2145692      5.2333661e-05
   8836000   0.04994145    -0.32523648     0.035386892   -0.21494224     0.00063896075
   8837000   0.050218679   -0.32509513     0.036065779   -0.21370619    -0.00086901083
   8838000   0.050362671   -0.32571153     0.035806465   -0.21436593    -0.0005002836 
   8839000   0.049313615   -0.32522878     0.035816908   -0.21544623     0.00036342148
   8840000   0.050094576   -0.32541319     0.035964361   -0.21431181     0.00034955363
   8841000   0.050013772   -0.325135       0.035876371   -0.21424281    -0.00041688512
   8842000   0.050259602   -0.32547407     0.035676402   -0.21441313     0.0010830373 
   8843000   0.049906666   -0.32533024     0.036034669   -0.2144404      0.00036340975
   8844000   0.050197542   -0.32538905     0.035588252   -0.21450934     0.00092094468
   8845000   0.049641929   -0.32587834     0.036024025   -0.21539623    -0.00033545088
   8846000   0.050542655   -0.32566488     0.035919615   -0.21393618     0.00053181365
   8847000   0.049353158   -0.32546653     0.035948784   -0.21549278    -0.00049362249
   8848000   0.049491443   -0.32586389     0.035412425   -0.21621909    -9.3980259e-05
   8849000   0.049977112   -0.32564709     0.035365408   -0.21532085     0.0002972264 
   8850000   0.049680218   -0.32566062     0.035851131   -0.21529397    -0.0012022892 
   8851000   0.049715605   -0.32559208     0.03579783    -0.21522566    -0.00038988581
   8852000   0.049833496   -0.32559001     0.03568254    -0.21516205    -4.6388074e-05
   8853000   0.049579669   -0.32539044     0.035595241   -0.2154305      0.0013935181 
   8854000   0.0493718     -0.32578141     0.036535157   -0.21519333     3.7478574e-05
   8855000   0.050462233   -0.32582874     0.036525019   -0.21361525    -0.0010628741 
   8856000   0.049861243   -0.32532641     0.036424958   -0.21411442    -0.00022120295
   8857000   0.050055631   -0.32586602     0.036068985   -0.21471844     0.00026500016
   8858000   0.049782811   -0.32547492     0.03592437    -0.21488115    -0.00074489161
   8859000   0.049853511   -0.32598449     0.035811365   -0.21539769    -0.00068231707
   8860000   0.049956606   -0.32543788     0.035939221   -0.21456859    -0.0008090447 
   8861000   0.049913183   -0.32576188     0.03556734    -0.2153296      0.00031251106
   8862000   0.050023913   -0.32618839     0.035779343   -0.21537802    -0.00071629107
   8863000   0.050007979   -0.32567791     0.035596419   -0.21507437     2.0290928e-05
   8864000   0.049491209   -0.32563737     0.035450198   -0.21595515     0.00011085245
   8865000   0.049928374   -0.32535647     0.034866287   -0.21560246     0.00043139063
   8866000   0.050055994   -0.32552386     0.036179142   -0.21426557    -8.2634261e-05
   8867000   0.050414255   -0.32554514     0.03555408    -0.21437455    -0.00039205395
   8868000   0.050224574   -0.32574501     0.036238271   -0.21417474     0.00043086199
   8869000   0.050253097   -0.3255904      0.035936251   -0.21427937     5.4904379e-05
   8870000   0.0499632     -0.32565885     0.035722942   -0.21499595     0.0005032496 
   8871000   0.049940387   -0.32585912     0.036239734   -0.21471364     0.00025252289
   8872000   0.050152371   -0.32576489     0.035857998   -0.21468319    -9.4476716e-05
   8873000   0.049653651   -0.32556162     0.035735841   -0.21535011     0.00060970044
   8874000   0.050057412   -0.32600953     0.035482211   -0.21544605    -0.00058730926
   8875000   0.050123046   -0.32554951     0.036076356   -0.21429344    -0.00031632664
   8876000   0.050114613   -0.32587414     0.035882294   -0.21482478     1.1472435e-05
   8877000   0.050115989   -0.32595446     0.036384809   -0.21440051    -2.8310187e-06
   8878000   0.049993258   -0.32535423     0.035343838   -0.21502534     0.0007793296 
   8879000   0.050199938   -0.32556753     0.035503886   -0.2147686     -0.00067033317
   8880000   0.050346177   -0.32601018     0.035573547   -0.21492224     0.00098258268
   8881000   0.050142256   -0.32607701     0.03597674    -0.21489173     0.00018454886
   8882000   0.050441646   -0.32578578     0.035748445   -0.21437975     0.00019147705
   8883000   0.050287153   -0.32554966     0.03603212    -0.21409168    -0.00045909791
   8884000   0.04946382    -0.32565662     0.036241724   -0.21522395     0.00034540078
   8885000   0.050245881   -0.32556342     0.036174486   -0.21402497     0.00054811354
   8886000   0.049421543   -0.32584168     0.036224809   -0.21548934    -0.00018091031
   8887000   0.050477167   -0.32569964     0.035122192   -0.21486658     0.00023397311
   8888000   0.050045328   -0.32545293     0.035497331   -0.21489245    -0.00051522696
   8889000   0.049613332   -0.32558666     0.035797254   -0.21537421    -0.000244176  
   8890000   0.049629896   -0.32609663     0.036044399   -0.21561219     0.00016021319
   8891000   0.049597516   -0.32573214     0.035795605   -0.21554506     0.00021615677
   8892000   0.049912842   -0.32570632     0.035646763   -0.21519512     0.00013561182
   8893000   0.04985709    -0.32632711     0.035596006   -0.2159503      0.0004760683 
   8894000   0.049300737   -0.32551812     0.035799662   -0.21577212     0.00042177438
   8895000   0.049496582   -0.32578579     0.03560918    -0.21593653    -0.00014190879
   8896000   0.049710349   -0.32581968     0.035608271   -0.21565069     0.00064768524
   8897000   0.04966589    -0.32620321     0.03605256    -0.21565662    -0.00082876035
   8898000   0.049821823   -0.32632352     0.035405069   -0.21619054    -0.00029298579
   8899000   0.049772294   -0.32592558     0.036068431   -0.21520352    -0.00099457538
   8900000   0.049984134   -0.32587117     0.036464043   -0.21443576    -7.6925147e-05
   8901000   0.050193062   -0.32591958     0.036091364   -0.21454349    -2.0133432e-05
   8902000   0.050359767   -0.32577575     0.035710337   -0.21453064    -0.00047115338
   8903000   0.050220258   -0.3255631      0.03593454    -0.21430303    -0.00022614962
   8904000   0.049646396   -0.32573214     0.036198468   -0.21506888    -0.0010934181 
   8905000   0.050159139   -0.3259547      0.035351302   -0.21536954     0.00046546308
   8906000   0.049896693   -0.32567648     0.03566388    -0.21517239    -0.00011048151
   8907000   0.049393366   -0.32593657     0.035826259   -0.21602504    -0.00025411634
   8908000   0.049721076   -0.32609275     0.036112156   -0.21540379    -0.0012596689 
   8909000   0.05024626    -0.32585659     0.035374206   -0.21511786     0.00073497867
   8910000   0.050458877   -0.32597665     0.035754331   -0.21453889    -0.00074370581
   8911000   0.05055491    -0.32616751     0.035310593   -0.21502944     0.0012371604 
   8912000   0.049480161   -0.3260383      0.03551153    -0.21631132    -0.0005247891 
   8913000   0.050083976   -0.32648626     0.035367442   -0.2159977     -0.00060406507
   8914000   0.049565002   -0.32667413     0.035482135   -0.21684929    -0.00079151805
   8915000   0.050074319   -0.3258232      0.035789267   -0.2149273     -0.00014941849
   8916000   0.050105424   -0.32623825     0.035814387   -0.21527057     3.5358315e-05
   8917000   0.049636213   -0.32625169     0.036020449   -0.21578172    -0.00050206493
   8918000   0.049562221   -0.32597722     0.035523614   -0.21611508    -9.6764171e-05
   8919000   0.049975821   -0.32628642     0.035953622   -0.2153739     -0.0002099625 
   8920000   0.049416875   -0.32650435     0.036188634   -0.21619519    -0.00053301972
   8921000   0.050348847   -0.32626606     0.03591822    -0.21482944     0.00056722775
   8922000   0.049734177   -0.32565084     0.03633441    -0.21471998    -0.00074537472
   8923000   0.050259554   -0.32572967     0.036136091   -0.21420912    -0.00043787855
   8924000   0.050500686   -0.32613708     0.035820426   -0.21457051    -0.00066326996
   8925000   0.050402972   -0.32600957     0.035872474   -0.21453752     2.0044767e-05
   8926000   0.049877039   -0.32612748     0.036407859   -0.21490889    -0.00013584931
   8927000   0.050004362   -0.32609026     0.035838487   -0.21525007     0.00024552839
   8928000   0.050478793   -0.32600723     0.035529966   -0.21476396     0.0005585582 
   8929000   0.049807395   -0.32591063     0.035582074   -0.21562228     0.00024410553
   8930000   0.049333584   -0.32543765     0.035529732   -0.21591232     0.00065656066
   8931000   0.050421435   -0.32588563     0.036081592   -0.21417677     2.8622729e-05
   8932000   0.050210368   -0.32606253     0.036492862   -0.21425898    -0.00038296909
   8933000   0.050434954   -0.32590087     0.036701547   -0.21355178    -8.4364378e-05
   8934000   0.04991945    -0.32596439     0.036132284   -0.21495776     0.0007973365 
   8935000   0.049468898   -0.32593989     0.036223777   -0.21551755    -0.00013927631
   8936000   0.04990155    -0.32597924     0.035863233   -0.21526851     0.00045839726
   8937000   0.050546948   -0.32631984     0.036230479   -0.21427383     0.00029279357
   8938000   0.050243256   -0.32595284     0.036015243   -0.21457758    -0.00053477861
   8939000   0.050733656   -0.32598298     0.035706901   -0.21418051     0.00050855416
   8940000   0.049984248   -0.32577307     0.036184641   -0.21461689    -0.00017718809
   8941000   0.050035393   -0.32599299     0.035570737   -0.215374       6.9173082e-06
   8942000   0.050185696   -0.32639502     0.035873744   -0.21524759     0.00016015302
   8943000   0.050520886   -0.32600315     0.035251543   -0.21497516     0.00062166823
   8944000   0.049761223   -0.32626489     0.035195953   -0.21643191     0.00053467209
   8945000   0.049680624   -0.32625748     0.035486667   -0.21625468     0.00095511027
   8946000   0.049550014   -0.32617865     0.035630797   -0.21622763    -0.00066974979
   8947000   0.049038516   -0.32584386     0.035959587   -0.21633124    -0.00077890325
   8948000   0.050248933   -0.32628944     0.035408975   -0.21551193     0.00024076196
   8949000   0.049796529   -0.32625628     0.035646861   -0.21591945    -0.0002148943 
   8950000   0.049984726   -0.32579931     0.035214059   -0.21561299     0.00041723619
   8951000   0.049554885   -0.32638513     0.036068438   -0.21598916    -3.135062e-05 
   8952000   0.04979352    -0.32606896     0.036005398   -0.2153781     -0.00021214975
   8953000   0.050327262   -0.32621602     0.035869882   -0.21486012    -0.0002095675 
   8954000   0.050385322   -0.32570574     0.03509902    -0.21503361     0.00080739162
   8955000   0.049799055   -0.32609393     0.036491558   -0.21490861     0.00041942125
   8956000   0.049113542   -0.32610391     0.035359816   -0.21707854     0.00033903939
   8957000   0.049486794   -0.32646761     0.036297197   -0.21594501    -0.00013345422
   8958000   0.050273653   -0.32608686     0.035715837   -0.21496541     0.00083190601
   8959000   0.050326678   -0.32604326     0.036462804   -0.21409531     0.00010524948
   8960000   0.050193948   -0.32617305     0.036142221   -0.21474476     3.5579913e-05
   8961000   0.050118549   -0.32617996     0.035296181   -0.21571081     0.00066123655
   8962000   0.049764768   -0.32570191     0.035848864   -0.2152107     -0.00032679996
   8963000   0.049802485   -0.32587949     0.035606747   -0.21557384    -0.00063285658
   8964000   0.049856153   -0.32587415     0.036019311   -0.21507543    -0.00035634104
   8965000   0.049902775   -0.32618487     0.036145891   -0.21518964    -0.00041042039
   8966000   0.050226882   -0.32631039     0.03594965    -0.21502528     0.00026190908
   8967000   0.049540803   -0.32571099     0.035819912   -0.21558467     0.00041032952
   8968000   0.050157522   -0.32573839     0.036386932   -0.21412003    -2.0982344e-06
   8969000   0.050126047   -0.3257797      0.035765372   -0.2148301      0.00056315166
   8970000   0.050376968   -0.32597276     0.035616311   -0.21479588    -0.00014095132
   8971000   0.049589286   -0.32574641     0.035817157   -0.21555012     0.00023450412
   8972000   0.049987795   -0.32592646     0.035539101   -0.2154105      0.00036525091
   8973000   0.050382877   -0.32585965     0.035854332   -0.21443588     0.00021863022
   8974000   0.050182596   -0.3259423      0.03627801    -0.21439525     0.00029081174
   8975000   0.050674807   -0.32575828     0.035734375   -0.21401659     0.00014844452
   8976000   0.049803754   -0.32565669     0.036144657   -0.21481123     0.0012697711 
   8977000   0.04979771    -0.32575664     0.036639012   -0.21442588     0.00062833567
   8978000   0.049814711   -0.32621231     0.036634676   -0.21486039     0.00032397427
   8979000   0.049815036   -0.32581907     0.035976402   -0.21512494    -0.00058208793
   8980000   0.050045935   -0.32561634     0.03606949    -0.2144828      0.00061000738
   8981000   0.050480165   -0.32640684     0.036470951   -0.21422053    -0.00011027136
   8982000   0.049810956   -0.32631364     0.036441824   -0.2151602     -0.00058458723
   8983000   0.050360693   -0.32595858     0.036443328   -0.21397909    -1.51106e-05  
   8984000   0.049992795   -0.32572097     0.035910631   -0.21482598     2.7369994e-05
   8985000   0.050048928   -0.32615883     0.036296254   -0.21479403    -0.0012382129 
   8986000   0.04956256    -0.32565918     0.035636519   -0.21568361     0.00094471178
   8987000   0.049869049   -0.32634887     0.03661307    -0.21493705     5.7129624e-05
   8988000   0.049652656   -0.32602374     0.036590367   -0.21495919    -0.00013764953
   8989000   0.050182735   -0.3263315      0.035730746   -0.2153315      0.00052144896
   8990000   0.050605547   -0.32658629     0.035719983   -0.21496289     0.00020454303
   8991000   0.050238628   -0.32619671     0.036341959   -0.21450167     0.00019422298
   8992000   0.049832343   -0.32639156     0.03606689    -0.21558098    -0.00061530715
   8993000   0.050044806   -0.32591002     0.035564794   -0.21528286    -2.7105814e-05
   8994000   0.04990969    -0.32616797     0.036324324   -0.21498394     6.3387912e-06
   8995000   0.050251399   -0.32648057     0.035632665   -0.21547567     0.00042778662
   8996000   0.049904682   -0.32592712     0.036157073   -0.21491786    -0.0001056217 
   8997000   0.050220126   -0.32600163     0.035445187   -0.21523112     0.0013575118 
   8998000   0.049929714   -0.32641817     0.036040955   -0.21548747     3.4158695e-05
   8999000   0.050137622   -0.32633035     0.036316909   -0.21481185     0.0001630984 
   9000000   0.050167209   -0.32559945     0.035468797   -0.2148847      0.00044728012
   9001000   0.050145406   -0.3260231      0.035779032   -0.21503081    -3.3766796e-05
   9002000   0.050234734   -0.32576652     0.036349895   -0.21406938    -0.00015057372
   9003000   0.050209083   -0.32628226     0.035974654   -0.21499884    -0.00018433755
   9004000   0.049637333   -0.32635863     0.036109356   -0.21579808    -4.0142442e-05
   9005000   0.049606499   -0.32616839     0.035955516   -0.21580792     0.00079106894
   9006000   0.049558719   -0.32654963     0.036259106   -0.21595724    -0.00045926641
   9007000   0.050274387   -0.32659988     0.036513359   -0.21467981     0.00023378526
   9008000   0.050287148   -0.32629483     0.036236568   -0.2146324      0.000400755  
   9009000   0.049490103   -0.32630897     0.036038382   -0.21604022     0.00026219679
   9010000   0.049727926   -0.32591905     0.036045742   -0.21528623    -0.00080317612
   9011000   0.049947959   -0.32591518     0.03613817    -0.21485991     0.00065773164
   9012000   0.04989664    -0.32600441     0.036198592   -0.21496569    -0.00067692635
   9013000   0.050274131   -0.32616574     0.035713259   -0.21504615    -0.00012619599
   9014000   0.049762699   -0.32612552     0.035539527   -0.21594676    -0.00044049037
   9015000   0.04988994    -0.32642863     0.036514245   -0.21508431    -0.00081803355
   9016000   0.050605427   -0.32645181     0.036411059   -0.21413751    -0.00020422765
   9017000   0.050283207   -0.32609436     0.036704855   -0.21396956    -0.0004918087 
   9018000   0.049357624   -0.32594899     0.035508624   -0.21640871    -0.00052328339
   9019000   0.049897993   -0.32597673     0.036110404   -0.21502416     0.00016525301
   9020000   0.049717653   -0.32603654     0.035829023   -0.21563585     0.0013322949 
   9021000   0.049655806   -0.32653235     0.036252805   -0.21580064     0.00065730319
   9022000   0.049862489   -0.32608319     0.035711752   -0.21558253     0.00038560692
   9023000   0.049368443   -0.3262945      0.036140588   -0.21610602     3.0163712e-05
   9024000   0.049758498   -0.32588726     0.034893203   -0.21636113    -0.00045347887
   9025000   0.050100087   -0.3262754      0.036096026   -0.21503409    -0.00028342279
   9026000   0.049548307   -0.32590824     0.03604028    -0.21555029     0.00075954342
   9027000   0.049851067   -0.32628704     0.036055377   -0.21545988    -0.00031452806
   9028000   0.049721241   -0.32625072     0.035534257   -0.21613941     7.5249019e-05
   9029000   0.050094561   -0.32605284     0.035968613   -0.21494723    -0.00045879965
   9030000   0.050323341   -0.32637045     0.036343052   -0.21454726    -0.00033228075
   9031000   0.049564087   -0.32639106     0.036176868   -0.21587285    -0.00050301011
   9032000   0.05022339    -0.32642813     0.036105458   -0.21499245     0.00022531247
   9033000   0.049774686   -0.3264707      0.035681201   -0.21613228    -0.000379958  
   9034000   0.050389383   -0.32608201     0.035830259   -0.21467256    -0.00012057569
   9035000   0.049679784   -0.32580574     0.035770155   -0.21552072    -0.00024285957
   9036000   0.049920747   -0.32607596     0.036281024   -0.21491864     0.00040362732
   9037000   0.049850562   -0.32583418     0.036518314   -0.21454485    -0.0010234243 
   9038000   0.050299833   -0.32597452     0.035819641   -0.21471        0.00098914632
   9039000   0.050829974   -0.32597931     0.036046583   -0.21369269    -4.5910477e-05
   9040000   0.050468361   -0.32647378     0.036177931   -0.21459819    -0.00052400675
   9041000   0.050151877   -0.32606149     0.036715516   -0.21412301    -0.00064218371
   9042000   0.049881975   -0.32607296     0.03682885    -0.21442597    -0.00058356555
   9043000   0.050308628   -0.32615217     0.036406869   -0.21428723     0.00066657779
   9044000   0.05089053    -0.32617156     0.035344076   -0.21449662     0.00059071876
   9045000   0.050156712   -0.32589766     0.035578241   -0.21508921    -0.00062982142
   9046000   0.049844085   -0.32616419     0.0361802     -0.21522269    -0.00043047406
   9047000   0.049647855   -0.32602479     0.035944047   -0.21561377     0.0011307947 
   9048000   0.050670902   -0.32634418     0.035911828   -0.2144309      0.00029817761
   9049000   0.049763697   -0.32635815     0.035888195   -0.21582923    -0.00031412417
   9050000   0.050604299   -0.32639787     0.036118601   -0.21437772    -0.00025330554
   9051000   0.050261146   -0.32592507     0.035450797   -0.21508742    -0.00033078104
   9052000   0.050365576   -0.32624994     0.036079124   -0.21462733     0.00044848515
   9053000   0.050025963   -0.3260833      0.03579925    -0.21524995     7.1490683e-06
   9054000   0.04989631    -0.32618955     0.036140549   -0.21520936    -4.2633355e-05
   9055000   0.049880377   -0.32648819     0.035835734   -0.21583672     0.00014276097
   9056000   0.049822758   -0.32621952     0.036231015   -0.21525919    -0.00032291255
   9057000   0.050044194   -0.32596711     0.035925475   -0.21498019    -0.0002657549 
   9058000   0.050352286   -0.3262321      0.036861469   -0.21384708     0.00022449905
   9059000   0.05005569    -0.32606957     0.036411574   -0.21457931    -0.00013951153
   9060000   0.050193493   -0.32607378     0.035873034   -0.21491537     0.00065083666
   9061000   0.050136676   -0.32633849     0.035851133   -0.2152872      0.00058403027
   9062000   0.049824995   -0.3260191      0.036207865   -0.21507857    -0.00029330955
   9063000   0.050223595   -0.32616972     0.035758381   -0.21508081    -0.00046022119
   9064000   0.050018558   -0.32577734     0.035752496   -0.21500185     0.00037035223
   9065000   0.049887381   -0.32585877     0.036371515   -0.21466101    -0.00010302193
   9066000   0.050244464   -0.32635779     0.035816688   -0.21517926     0.00013764934
   9067000   0.049891429   -0.32658296     0.036520018   -0.21523063    -0.00043222069
   9068000   0.049868486   -0.32633431     0.035970911   -0.2155655     -0.00062082991
   9069000   0.05026378    -0.32588169     0.036047433   -0.21444345    -0.00022623325
   9070000   0.05029518    -0.3259104      0.035949305   -0.2145232     -0.00013085535
   9071000   0.050426161   -0.3259078      0.036697972   -0.21357547    -0.00035694094
   9072000   0.050987666   -0.32648827     0.035759561   -0.21425214     0.00057688549
   9073000   0.04985003    -0.32624932     0.036145167   -0.21533393     0.00052822994
   9074000   0.050084985   -0.32615557     0.035615821   -0.21541711    -0.00062347744
   9075000   0.04990855    -0.32650464     0.036025359   -0.21562129    -0.00012330818
   9076000   0.049743205   -0.32608514     0.036049876   -0.21542527    -8.091674e-05 
   9077000   0.049472308   -0.32650807     0.036003421   -0.21630098    -0.00018768949
   9078000   0.049909621   -0.32625438     0.036278597   -0.21511618    -0.00068853979
   9079000   0.049954668   -0.3264567      0.036099166   -0.21543037    -0.00046409332
   9080000   0.049979068   -0.3259751      0.036522668   -0.21448866    -0.0011336139 
   9081000   0.050392908   -0.32620031     0.036245696   -0.21437013     0.00048177751
   9082000   0.050239474   -0.32629247     0.036269767   -0.21466835     0.00077675453
   9083000   0.049612393   -0.32634991     0.036578753   -0.21535737    -0.00038783255
   9084000   0.0495856     -0.32674267     0.035569404   -0.21679967    -0.0010398089 
   9085000   0.049440489   -0.32625249     0.036103043   -0.2159935      0.00015101333
   9086000   0.050071018   -0.32614646     0.036095556   -0.21494922    -0.00027164973
   9087000   0.050274295   -0.32666137     0.036141951   -0.21511284    -0.00065355216
   9088000   0.049951991   -0.32631821     0.036142655   -0.21525241     0.00079935927
   9089000   0.050679388   -0.32620438     0.035589171   -0.21460103     2.8316532e-05
   9090000   0.049740926   -0.32658074     0.03617826    -0.21579591     0.00065115946
   9091000   0.050302512   -0.32656769     0.03663534    -0.21448345     0.00041270625
   9092000   0.05007471    -0.32630953     0.035530593   -0.21567172     0.00052309197
   9093000   0.049973196   -0.32617951     0.035727983   -0.21549657     0.00029194391
   9094000   0.050466889   -0.32596948     0.036162178   -0.21411185     0.00086332868
   9095000   0.049719978   -0.32622056     0.036205575   -0.21543983    -6.4708207e-05
   9096000   0.050986879   -0.32641039     0.03557731    -0.21435769     2.3132596e-05
   9097000   0.050053148   -0.32591844     0.035816742   -0.21502682     0.00043439871
   9098000   0.05025149    -0.3260934      0.035895401   -0.21482562    -0.00019661022
   9099000   0.049697009   -0.32646077     0.036329763   -0.2155903     -0.00010293685
   9100000   0.049986875   -0.32655975     0.035706107   -0.21587817    -0.00027899025
   9101000   0.049482939   -0.32669526     0.035948337   -0.2165273      0.00029003873
   9102000   0.049959727   -0.32642406     0.035931283   -0.21555802     0.00047586055
   9103000   0.050530901   -0.32662226     0.035899302   -0.2149315      0.00056084381
   9104000   0.050586306   -0.32646159     0.035951396   -0.21463563     0.00048801784
   9105000   0.049739817   -0.32620223     0.035228831   -0.21636849    -0.00032143814
   9106000   0.050088819   -0.32658029     0.03608088    -0.21537103    -0.00033080818
   9107000   0.05041923    -0.32607948     0.035567141   -0.21488838     9.5019114e-05
   9108000   0.049674063   -0.32644796     0.036072481   -0.21586919    -0.00042025914
   9109000   0.050066505   -0.3261565      0.035679935   -0.21538165     0.0009120192 
   9110000   0.050100476   -0.3263305      0.036328089   -0.21485654     0.00044055456
   9111000   0.050379882   -0.32627105     0.03606322    -0.21464288    -0.00018461596
   9112000   0.049593352   -0.32648186     0.035634015   -0.21646261     0.00023527999
   9113000   0.049804203   -0.32654556     0.035733173   -0.2161109     -9.3609011e-05
   9114000   0.050158701   -0.32649797     0.035322502   -0.21594227    -0.00020433306
   9115000   0.049924525   -0.32646613     0.03548606    -0.21609812    -0.00054802821
   9116000   0.049839028   -0.32650253     0.035973      -0.21577581    -0.00023278655
   9117000   0.050440324   -0.32654595     0.036165012   -0.21472533    -0.00062915318
   9118000   0.050398636   -0.32699951     0.035822268   -0.21558416     0.00030594574
   9119000   0.050195114   -0.32632077     0.035906776   -0.21512618     0.00072298211
   9120000   0.049666016   -0.32630284     0.035592695   -0.21621593     3.84906e-05  
   9121000   0.049992957   -0.32606182     0.036074508   -0.21500272     0.00052231494
   9122000   0.051167884   -0.32618048     0.036191486   -0.21324212     0.00061379397
   9123000   0.049724953   -0.32676015     0.036657819   -0.21551972    -0.00011459965
   9124000   0.050830069   -0.32658307     0.035438519   -0.21490437     0.00063659464
   9125000   0.050418633   -0.32670959     0.035804119   -0.21528241     0.000369174  
   9126000   0.050120423   -0.32661949     0.036196574   -0.21524713    -0.00057070034
   9127000   0.050006862   -0.32640394     0.036149243   -0.21524924     0.00063373206
   9128000   0.049921151   -0.32676515     0.035901418   -0.21598683     0.00032791322
   9129000   0.050017935   -0.3262213      0.035982283   -0.21521696     0.00059805057
   9130000   0.050261863   -0.32623804     0.03621812    -0.21463199    -0.00072825193
   9131000   0.05049797    -0.32692743     0.035852579   -0.21533278     9.5158434e-05
   9132000   0.050249277   -0.32641424     0.036034861   -0.21501033     0.00062331645
   9133000   0.050277228   -0.32664385     0.036238388   -0.21499448    -0.00037953826
   9134000   0.050390135   -0.32646521     0.03595931    -0.21492558    -0.00030397372
   9135000   0.050160825   -0.3265439      0.036160888   -0.21514662     0.00016355083
   9136000   0.050751299   -0.32643004     0.035889441   -0.21441856    -0.00064709134
   9137000   0.050573534   -0.32662744     0.035792543   -0.21497949    -0.00022670792
   9138000   0.049871188   -0.32660262     0.036038385   -0.21576228    -0.00055285829
   9139000   0.049833136   -0.32661364     0.035448212   -0.21642055     6.3954769e-05
   9140000   0.050043322   -0.32677237     0.035963952   -0.21574828     0.00017432325
   9141000   0.049821639   -0.32697375     0.03521812    -0.21702799     0.00043512182
   9142000   0.049424112   -0.32648912     0.035437587   -0.21692015     0.00018693838
   9143000   0.049763992   -0.32656429     0.035722232   -0.21620089    -2.9158046e-05
   9144000   0.049765534   -0.32715461     0.035984162   -0.21652697     0.00020299684
   9145000   0.04966218    -0.32677915     0.035721191   -0.21656949    -0.001146358  
   9146000   0.049695616   -0.32694519     0.036448468   -0.2159581     -0.00022964777
   9147000   0.049579547   -0.32652923     0.035493788   -0.21667092    -1.2504321e-06
   9148000   0.049561346   -0.32670804     0.03610073    -0.21627008    -0.00012538743
   9149000   0.049919648   -0.32675314     0.03562846    -0.21625004     0.00033080824
   9150000   0.050238951   -0.32648417     0.036054003   -0.21507661     6.180201e-05 
   9151000   0.050375965   -0.32661045     0.036087397   -0.21496398     0.0015219582 
   9152000   0.050085172   -0.32662145     0.035654924   -0.21584361    -0.00030608053
   9153000   0.049789657   -0.32696397     0.035919018   -0.21636528    -0.00087974393
   9154000   0.050299443   -0.32616241     0.035872887   -0.21484522    -0.00031497339
   9155000   0.050021735   -0.32615116     0.036465873   -0.21465753     0.0003624116 
   9156000   0.049588071   -0.32653713     0.036080663   -0.21607916     0.00039349262
   9157000   0.050291997   -0.32684325     0.036053309   -0.21535681     0.00029325382
   9158000   0.050039113   -0.32647436     0.035998005   -0.21542253    -0.00021391089
   9159000   0.049904926   -0.32648253     0.035644906   -0.21598507    -0.00046752577
   9160000   0.050125066   -0.32681931     0.035987074   -0.21564949    -0.00032170273
   9161000   0.049538613   -0.32649144     0.036204674   -0.21598364     0.00011541701
   9162000   0.050338671   -0.32648057     0.036050691   -0.21492674    -0.00096270958
   9163000   0.050512106   -0.32654824     0.035788501   -0.21499647    -0.00037340496
   9164000   0.050394396   -0.32653773     0.035805862   -0.21514515    -2.6627854e-06
   9165000   0.049614154   -0.32627009     0.036289215   -0.21556445     0.0004503713 
   9166000   0.049539027   -0.32682848     0.036397415   -0.21612731    -0.00080313888
   9167000   0.049380809   -0.32644881     0.036275017   -0.21610736    -1.8107609e-05
   9168000   0.049980914   -0.32640704     0.036055893   -0.21538461    -0.00054262994
   9169000   0.050347553   -0.3267992      0.035739173   -0.21554357    -0.00023936439
   9170000   0.049981582   -0.32636642     0.035981878   -0.21541701    -3.3269924e-05
   9171000   0.049591087   -0.32689015     0.035308715   -0.2171996     -0.00049367232
   9172000   0.049826758   -0.32664903     0.035830544   -0.21608317     0.00045608405
   9173000   0.050226761   -0.32645238     0.036109825   -0.21500728    -0.00010142931
   9174000   0.050335492   -0.32660311     0.035927022   -0.21517772    -0.00033719018
   9175000   0.049844144   -0.32655684     0.035982026   -0.21581342     0.00014566549
   9176000   0.050151124   -0.32653724     0.035027763   -0.21628765     0.00046848176
   9177000   0.049419542   -0.32647392     0.035816464   -0.21653292     0.0012750485 
   9178000   0.050211076   -0.32683904     0.035960552   -0.21556674     7.3720796e-05
   9179000   0.04977933    -0.3266144      0.036075538   -0.21587468    -0.00060272014
   9180000   0.049933137   -0.32635239     0.035565636   -0.21589188     0.0013785703 
   9181000   0.050212083   -0.32648382     0.035703194   -0.21546736     0.0008438524 
   9182000   0.049794162   -0.32678526     0.035781908   -0.21631693     0.00077236527
   9183000   0.050227254   -0.32720673     0.03526187    -0.21660884    -0.00037455935
   9184000   0.049929987   -0.32698059     0.035475928   -0.21661451     0.0006844371 
   9185000   0.050116004   -0.32683506     0.035911955   -0.21575395    -0.00018510012
   9186000   0.050423322   -0.32678376     0.035906892   -0.21524677     7.9462982e-05
   9187000   0.050242571   -0.32668023     0.035629535   -0.2156917     -0.00011112815
   9188000   0.050263727   -0.32618386     0.036267805   -0.21452533     0.00029991985
   9189000   0.049871242   -0.32639576     0.035972292   -0.21562144     0.0010405249 
   9190000   0.049925584   -0.32610726     0.036230918   -0.2149928     -4.8314876e-05
   9191000   0.050321353   -0.32628183     0.036075768   -0.2147289      0.00052789736
   9192000   0.050221497   -0.32658383     0.035870255   -0.21538619     0.00040445222
   9193000   0.050319318   -0.32687678     0.036106592   -0.21529608    -0.00017212304
   9194000   0.050245936   -0.32696737     0.035600757   -0.21600257    -0.00018025493
   9195000   0.049591988   -0.32648303     0.036093612   -0.21600623    -0.00037211565
   9196000   0.049820568   -0.32683235     0.035517962   -0.21658836     0.00051089527
   9197000   0.049681809   -0.32691634     0.036398949   -0.21599948    -0.00081643859
   9198000   0.049852829   -0.3266045      0.036123712   -0.21570636    -0.00048065609
   9199000   0.049401935   -0.32653867     0.03542296    -0.21701759     0.0001455212 
   9200000   0.050010233   -0.32681459     0.035429076   -0.21637501    -0.00069337927
   9201000   0.049946682   -0.32699475     0.036469714   -0.21560985    -8.355256e-05 
   9202000   0.050174388   -0.32708029     0.035828144   -0.21599542     0.00063045637
   9203000   0.04987848    -0.32691771     0.036194037   -0.21591078     0.00032005724
   9204000   0.05011359    -0.32722921     0.036044702   -0.21601897    -0.00026112419
   9205000   0.050076139   -0.326827       0.036239821   -0.21547781    -0.00093857495
   9206000   0.050170401   -0.32695156     0.036574438   -0.21512638    -0.00099917168
   9207000   0.050288153   -0.32682389     0.03597544    -0.21542108     0.00054055577
   9208000   0.049760471   -0.32663721     0.036134721   -0.21586659    -0.00021341807
   9209000   0.049438385   -0.32645703     0.035792012   -0.21651223    -0.00063679521
   9210000   0.050362724   -0.32710288     0.035585296   -0.21597837    -0.00040332604
   9211000   0.049332329   -0.32709556     0.035905455   -0.21719638    -0.0004854033 
   9212000   0.049972167   -0.32706542     0.035438091   -0.21667391     0.00060082699
   9213000   0.049421204   -0.32692995     0.035952763   -0.21685016     0.00063890733
   9214000   0.050141233   -0.32714519     0.036342151   -0.21559604     0.00078565533
   9215000   0.050470694   -0.32737051     0.035830665   -0.21583868     0.00010570338
   9216000   0.050175742   -0.32674243     0.036135343   -0.21534833     0.00077857242
   9217000   0.049655058   -0.3267738      0.036123211   -0.2161728     -0.0005450735 
   9218000   0.050444478   -0.32662491     0.035589848   -0.21537323     0.00031093876
   9219000   0.049936224   -0.32711815     0.03529959    -0.21691905     0.00021082317
   9220000   0.049848956   -0.32684578     0.035516029   -0.21656114     0.0011584987 
   9221000   0.049784086   -0.32686816     0.035526989   -0.21666986     8.0711045e-05
   9222000   0.049621214   -0.32661762     0.035731556   -0.21645904    -0.00019037689
   9223000   0.050099619   -0.32709798     0.03509559    -0.21685781     0.00053361937
   9224000   0.049792881   -0.32719508     0.036142895   -0.21636768    -0.00088412695
   9225000   0.049728841   -0.3271034      0.035396275   -0.21711868     0.00030858126
   9226000   0.049585667   -0.32699436     0.035802382   -0.21681827     0.00012858801
   9227000   0.050013835   -0.32662826     0.035313576   -0.21629877     0.0013209767 
   9228000   0.049688197   -0.32670257     0.036138765   -0.21603632     9.3174198e-05
   9229000   0.049548377   -0.32662836     0.036098511   -0.21621208    -1.475172e-05 
   9230000   0.049944954   -0.32653154     0.035917494   -0.21570145     0.0013115139 
   9231000   0.04980327    -0.32668596     0.036343019   -0.21564285     0.00056620998
   9232000   0.049649612   -0.32686972     0.036293417   -0.21610669     2.6923175e-05
   9233000   0.050162908   -0.32670072     0.036563335   -0.21489787    -0.00043711098
   9234000   0.050256088   -0.32696235     0.03655985    -0.21502324     0.00046238914
   9235000   0.050741946   -0.32704115     0.035432284   -0.21550085    -0.00071117071
   9236000   0.050193806   -0.32672804     0.035979264   -0.21546292     0.00031700147
   9237000   0.050227829   -0.32674228     0.036074857   -0.21533054     0.00088336272
   9238000   0.049704733   -0.32687246     0.036462892   -0.21585728    -2.5584017e-05
   9239000   0.049782146   -0.32729139     0.035817705   -0.21680528    -0.0010701254 
   9240000   0.050678109   -0.3273782      0.036629628   -0.21473632    -0.00056087192
   9241000   0.050505489   -0.32692221     0.036352916   -0.21481595    -0.00022518187
   9242000   0.049934685   -0.32710867     0.035745566   -0.21646591     6.6050303e-05
   9243000   0.049808141   -0.32706823     0.035743894   -0.21661694     0.0010375153 
   9244000   0.050283369   -0.32737892     0.035847766   -0.21611097    -0.0010114117 
   9245000   0.049943221   -0.32710488     0.036100594   -0.21609429     0.00022903733
   9246000   0.050313868   -0.32682668     0.036197143   -0.21516361     0.00025472579
   9247000   0.050410401   -0.32712432     0.035463682   -0.21604992     0.00035165197
   9248000   0.049928717   -0.32699401     0.035942084   -0.21616369    -8.4946215e-06
   9249000   0.050301708   -0.32680054     0.035606417   -0.21574643     0.00015663041
   9250000   0.04943033    -0.3267895      0.036056387   -0.2165924      0.00012980146
   9251000   0.049571549   -0.32692137     0.035461875   -0.21710697    -0.0012901064 
   9252000   0.04991489    -0.3273433      0.036562418   -0.21591338    -0.00030809841
   9253000   0.050336204   -0.3270933      0.035301684   -0.21629218     0.0003258969 
   9254000   0.049957539   -0.32687616     0.035284866   -0.21665982    -0.00085333056
   9255000   0.050131293   -0.32751566     0.035752274   -0.2165713      8.6914621e-05
   9256000   0.05007257    -0.32723356     0.035477126   -0.21665243     0.00038509876
   9257000   0.049848157   -0.32670569     0.035883819   -0.21605446     0.00011114619
   9258000   0.049840988   -0.32701104     0.036131841   -0.21612254    -0.00058945155
   9259000   0.049539965   -0.32676063     0.035554135   -0.21690134     0.00045744611
   9260000   0.05000224    -0.32702417     0.035852363   -0.21617329    -0.0001763247 
   9261000   0.049822564   -0.32742156     0.035872323   -0.21682021    -1.622368e-05 
   9262000   0.049752286   -0.32650958     0.035427618   -0.21645835     0.00069956398
   9263000   0.050089572   -0.32671313     0.036087647   -0.21549597    -3.7850583e-05
   9264000   0.049881475   -0.32718759     0.03604942    -0.21632079    -0.00038031064
   9265000   0.050165139   -0.32731463     0.035773124   -0.21629865    -0.00064252558
   9266000   0.050283276   -0.32681668     0.036102982   -0.21529365    -0.00020194391
   9267000   0.050403925   -0.32698673     0.036033285   -0.21535244    -6.3231606e-05
   9268000   0.049669219   -0.32715191     0.035634376   -0.21701851     0.0010460832 
   9269000   0.049888446   -0.32669617     0.035517659   -0.21635067    -0.00057687022
   9270000   0.04967014    -0.32689615     0.035745838   -0.2166499      0.00020641117
   9271000   0.049472869   -0.32670784     0.0357604     -0.21674293     0.00028259783
   9272000   0.050385164   -0.32661379     0.03628894    -0.21475198    -9.6333102e-05
   9273000   0.050530394   -0.32683594     0.036213977   -0.21483126     0.00030791992
   9274000   0.050628672   -0.32684848     0.035668336   -0.21524203     1.0183874e-05
   9275000   0.050219224   -0.32692364     0.036253654   -0.21534601    -3.9192618e-05
   9276000   0.049263031   -0.32702492     0.035901622   -0.21723352    -0.00024886972
   9277000   0.049919904   -0.32697016     0.035499427   -0.21659571    -0.00064767468
   9278000   0.050257007   -0.32690115     0.035302436   -0.21621807     0.00079046779
   9279000   0.050107047   -0.3265759      0.035693181   -0.215727       0.00017242503
   9280000   0.05049573    -0.32713394     0.035494136   -0.2159011      0.00063098093
   9281000   0.049812827   -0.32708617     0.035922244   -0.21644951     0.00031665715
   9282000   0.04998028    -0.32705217     0.035678142   -0.21640844    -0.0003779824 
   9283000   0.050536571   -0.3267579      0.035660126   -0.21529781     0.00072499484
   9284000   0.050150335   -0.32687205     0.036313857   -0.21533755    -0.00026079022
   9285000   0.050353148   -0.32691996     0.035869507   -0.2155256     -0.00011906779
   9286000   0.050454913   -0.32741533     0.035359408   -0.21637844    -0.00038653554
   9287000   0.049523367   -0.32646394     0.035771448   -0.21641224     0.00054223076
   9288000   0.050023857   -0.32707383     0.035798872   -0.21624401    -0.00089041105
   9289000   0.049633421   -0.32732899     0.036027584   -0.21685608    -0.00015429362
   9290000   0.050315235   -0.32719815     0.035664621   -0.21606555     0.00033268779
   9291000   0.049602987   -0.32707265     0.036056674   -0.2166163     -0.00048524889
   9292000   0.050162251   -0.3273867      0.035912352   -0.21623583    -0.00041408929
   9293000   0.04976692    -0.32706962     0.035912002   -0.21651205     0.00022302087
   9294000   0.049379297   -0.32725469     0.036748795   -0.21644173    -0.00048749799
   9295000   0.049945735   -0.32696515     0.03590997    -0.21614141     0.00075308731
   9296000   0.050045072   -0.32714039     0.035207145   -0.21687048     0.00039603613
   9297000   0.050099213   -0.3265781      0.035814232   -0.21561989    -3.2921977e-05
   9298000   0.049903853   -0.32712672     0.036133682   -0.21614209    -0.00051226955
   9299000   0.049642434   -0.32710269     0.036351859   -0.21629198    -7.2280659e-05
   9300000   0.049737837   -0.32716241     0.036384144   -0.21617633     0.00060154731
   9301000   0.050326358   -0.32677344     0.035859356   -0.21542941     0.00026316695
   9302000   0.050028693   -0.32704378     0.035544841   -0.21646074    -9.9119235e-05
   9303000   0.050142808   -0.32661689     0.036117279   -0.21529025     0.0010621538 
   9304000   0.05043197    -0.32650849     0.036191538   -0.21467388     0.0006365523 
   9305000   0.05015443    -0.32723646     0.036149492   -0.21586018    -0.00042443984
   9306000   0.049980915   -0.32708007     0.03649257    -0.21562097    -0.00015743589
   9307000   0.049719512   -0.32721926     0.035670843   -0.21697396    -0.00059715989
   9308000   0.049166825   -0.32706433     0.035703531   -0.21761532     0.00069514864
   9309000   0.050201663   -0.32717025     0.035627009   -0.21624561     0.00039487968
   9310000   0.050290311   -0.32706873     0.036046841   -0.21559129     1.7306258e-06
   9311000   0.049796163   -0.32707141     0.035924081   -0.2164579      0.00011261298
   9312000   0.050191782   -0.32723225     0.035974106   -0.21597533    -0.00045190773
   9313000   0.050236326   -0.32664988     0.036164213   -0.21513604     0.0006420419 
   9314000   0.04980163    -0.32701719     0.036306825   -0.21601274    -0.00073929898
   9315000   0.050402648   -0.32700655     0.036006813   -0.21540064     0.00011950022
   9316000   0.049590306   -0.32712521     0.035446299   -0.21729825     3.9734855e-05
   9317000   0.050402246   -0.3275094      0.035760646   -0.21615026    -2.5743377e-05
   9318000   0.049821102   -0.32693523     0.036565991   -0.2156424     -0.00066384432
   9319000   0.050060741   -0.32714455     0.03553665    -0.21652164    -9.0198171e-05
   9320000   0.049891399   -0.3273541      0.036317929   -0.2162039     -0.00036511899
   9321000   0.04977916    -0.32716849     0.035192313   -0.21731225     0.00038056098
   9322000   0.049660687   -0.32681505     0.035787622   -0.2165412      2.7757185e-05
   9323000   0.049885965   -0.32670966     0.035428758   -0.21645678     6.9659317e-05
   9324000   0.050107951   -0.32711193     0.035860683   -0.21609417     0.00021494985
   9325000   0.050081243   -0.32716624     0.035610405   -0.21643881    -0.00040719402
   9326000   0.050014166   -0.32661886     0.035746211   -0.21585624     0.00012412844
   9327000   0.049305175   -0.32698647     0.036145504   -0.21688797     0.00014823945
   9328000   0.049495087   -0.3270935      0.035885278   -0.21697038     0.00065345756
   9329000   0.050131912   -0.32698854     0.035663551   -0.21613198     0.00055505342
   9330000   0.049860743   -0.32707244     0.036091621   -0.21619453     0.00011831826
   9331000   0.049740787   -0.32726561     0.036329725   -0.21632952    -0.0010124705 
   9332000   0.050105016   -0.32703405     0.035801693   -0.21607968    -0.00072224035
   9333000   0.050053775   -0.32717801     0.03631759    -0.2157846     -0.00025845461
   9334000   0.050400586   -0.32701348     0.035463331   -0.21595415     0.00030266159
   9335000   0.049633483   -0.32731317     0.036480002   -0.21638775    -0.0013528735 
   9336000   0.050463755   -0.32741265     0.036933475   -0.21478842    -0.00049477716
   9337000   0.050390398   -0.32705103     0.035712496   -0.21575781     5.2862669e-05
   9338000   0.050503401   -0.32701485     0.036047705   -0.21521693     0.00026018544
   9339000   0.049815127   -0.32723104     0.035967271   -0.2165459     -0.00020173015
   9340000   0.049481342   -0.32704922     0.036004114   -0.21682788    -0.00069665247
   9341000   0.049504632   -0.32746987     0.036164791   -0.21705292     0.00018054397
   9342000   0.049849624   -0.32732654     0.036219249   -0.21633768    -0.00019409929
   9343000   0.04974402    -0.32713691     0.035957902   -0.2165678      0.0010284767 
   9344000   0.049638014   -0.32715318     0.035140856   -0.21756011     0.00079782966
   9345000   0.050415768   -0.32718269     0.035669478   -0.21589444     0.00026366179
   9346000   0.049981625   -0.32696496     0.036533678   -0.21546368    -0.00022456321
   9347000   0.049699877   -0.32686357     0.035996342   -0.21632222     0.00056019068
   9348000   0.05007528    -0.32695382     0.036281395   -0.21556435     4.7153886e-05
   9349000   0.050002589   -0.3271861      0.03647784    -0.21570922     0.00067788601
   9350000   0.050338663   -0.32692166     0.035332563   -0.21608597     0.00072253472
   9351000   0.049798323   -0.32719314     0.036592936   -0.21590753    -0.00043797676
   9352000   0.050016255   -0.32694361     0.035581424   -0.21634264    -0.00019104491
   9353000   0.050303489   -0.3271767      0.035995563   -0.21573077     0.0005575906 
   9354000   0.049575815   -0.32713412     0.036422018   -0.21635318    -0.00010723739
   9355000   0.050144713   -0.32729752     0.035615657   -0.21646964    -0.00017875707
   9356000   0.049860269   -0.3267638      0.036442397   -0.21553583     0.00021481711
   9357000   0.049858271   -0.32707831     0.036391393   -0.21590433    -7.6182134e-05
   9358000   0.050613034   -0.32701461     0.035629401   -0.21547055     0.00084871315
   9359000   0.049710928   -0.32708904     0.035936425   -0.21659104     0.00031658376
   9360000   0.049689327   -0.32729308     0.035817999   -0.2169459     -0.0013599088 
   9361000   0.049991519   -0.32716794     0.036546556   -0.21563895    -0.00015153372
   9362000   0.050061864   -0.327208       0.036427897   -0.21569215    -0.00039880256
   9363000   0.050178565   -0.32707824     0.036082411   -0.21573284     9.9140185e-05
   9364000   0.050451278   -0.32708095     0.035627075   -0.21578184     0.0013559701 
   9365000   0.049508912   -0.32684919     0.036064514   -0.2165261      0.00045416969
   9366000   0.049841333   -0.32710578     0.036542222   -0.21580639    -0.00058821243
   9367000   0.050412095   -0.32718667     0.036201723   -0.21537168     9.487788e-05 
   9368000   0.050287834   -0.32741741     0.036264244   -0.21572628    -0.00089290583
   9369000   0.050649162   -0.32729561     0.036057114   -0.21526966    -0.00063650229
   9370000   0.050253753   -0.32721707     0.036277548   -0.21556376    -0.0001909916 
   9371000   0.049995166   -0.32754039     0.035832668   -0.21671981     0.00028954473
   9372000   0.050137398   -0.32711546     0.03567077    -0.21624344    -0.00034881679
   9373000   0.050381078   -0.3268253      0.035533383   -0.21572518     0.001171759  
   9374000   0.049570652   -0.32680257     0.036151351   -0.21630003     0.00040431049
   9375000   0.050298129   -0.32701545     0.036456695   -0.21511643     0.00023188491
   9376000   0.050658535   -0.32725583     0.035562866   -0.21571006     0.00020563148
   9377000   0.050010084   -0.32730714     0.035736107   -0.21656074    -0.0002106291 
   9378000   0.049299102   -0.327625       0.035800173   -0.21788094    -0.00025085216
   9379000   0.049557644   -0.32759441     0.035545263   -0.21771748    -0.00083149043
   9380000   0.050219367   -0.32735845     0.035884476   -0.21614978     0.00015629619
   9381000   0.049748223   -0.32695042     0.035807271   -0.21652563     0.00077635365
   9382000   0.050206748   -0.32741957     0.035713708   -0.2164006      0.00068512499
   9383000   0.05004751    -0.3272994      0.035635492   -0.21659748     0.00046318289
   9384000   0.050212954   -0.3275194      0.035722851   -0.21648198     0.0002972383 
   9385000   0.05026549    -0.32755076     0.035430704   -0.21672669    -0.00050961843
   9386000   0.049928087   -0.32709843     0.036118297   -0.21609283     0.0010747608 
   9387000   0.049537676   -0.32701498     0.035920479   -0.21679278     0.00026614073
   9388000   0.050541279   -0.3273289      0.035543681   -0.21597819     0.00037898805
   9389000   0.0507214     -0.32723078     0.035972424   -0.21518116     0.00021866372
   9390000   0.049602706   -0.32691349     0.036069877   -0.21644435    -0.00027985597
   9391000   0.05038934    -0.3273563      0.035546241   -0.21623093     0.00032240024
   9392000   0.050379751   -0.32730634     0.036299981   -0.21544161     0.00025013353
   9393000   0.049664282   -0.32757218     0.036380871   -0.21669969    -0.0002264091 
   9394000   0.050212497   -0.32752035     0.036262492   -0.21594397     0.0007294821 
   9395000   0.050029843   -0.32747202     0.036299902   -0.21613219    -0.00021842916
   9396000   0.049739782   -0.32740695     0.035914555   -0.21688754     0.00062999287
   9397000   0.050226455   -0.32752641     0.035911163   -0.21628043    -0.00023657648
   9398000   0.050269445   -0.3274719      0.035631849   -0.21644075    -0.000196485  
   9399000   0.050504773   -0.32729338     0.036857185   -0.21468392    -0.0001790197 
   9400000   0.050504122   -0.32729182     0.035915465   -0.21562506     0.00025127342
   9401000   0.050105859   -0.32725259     0.03628574    -0.21581291    -0.00018008582
   9402000   0.049981517   -0.3274143      0.036302891   -0.21614397     0.00025364588
   9403000   0.049971504   -0.32770297     0.035651346   -0.2170992     -0.00083075414
   9404000   0.049965194   -0.32743676     0.035587962   -0.21690585    -0.00046825808
   9405000   0.049860255   -0.32704016     0.035714757   -0.21653984     0.00058316337
   9406000   0.04996076    -0.32714527     0.035851066   -0.2163579      0.00083643686
   9407000   0.049916108   -0.32757539     0.03634333    -0.21636273     0.00022210676
   9408000   0.050256561   -0.32764681     0.03588103    -0.2163858      0.00052481686
   9409000   0.04957763    -0.32717113     0.036011879   -0.2167976     -2.516166e-05 
   9410000   0.050002547   -0.32758998     0.035781376   -0.21680963    -0.0004998505 
   9411000   0.050168409   -0.32753063     0.035868972   -0.2164139     -0.00054631415
   9412000   0.050155138   -0.32701345     0.036078125   -0.21570747     0.00019295291
   9413000   0.050087069   -0.32745468     0.036532416   -0.2157965     -0.00052181589
   9414000   0.049578859   -0.32741533     0.036501812   -0.21655002     0.00061171735
   9415000   0.049934718   -0.32717565     0.036068002   -0.21621041     9.7174552e-05
   9416000   0.050053094   -0.32755658     0.036418214   -0.21606357    -0.00073269636
   9417000   0.050258027   -0.32725363     0.036094253   -0.2157772      0.00036050595
   9418000   0.049543585   -0.32710031     0.036067681   -0.21672205    -0.00054485938
   9419000   0.049963595   -0.32738689     0.03576108    -0.21668525     0.00047376309
   9420000   0.049990808   -0.32766139     0.036356666   -0.21632335    -0.00088475374
   9421000   0.050335473   -0.32762585     0.035975494   -0.21615202    -7.8173123e-05
   9422000   0.049872807   -0.32745226     0.036333862   -0.21631401    -0.00062004143
   9423000   0.0501301     -0.32749935     0.035709025   -0.21660003    -0.00017415674
   9424000   0.049626596   -0.32755856     0.035343254   -0.21778022    -0.00020843864
   9425000   0.049065986   -0.32767071     0.035912047   -0.21816444     3.2043682e-05
   9426000   0.050175959   -0.32764486     0.035757256   -0.21662852     0.00031119033
   9427000   0.049674315   -0.32735349     0.036214732   -0.2166321      6.6578039e-05
   9428000   0.050065513   -0.32730621     0.035893141   -0.21631965    -0.00042812806
   9429000   0.050590743   -0.32741334     0.036156217   -0.21537591    -5.8869101e-05
   9430000   0.050388538   -0.32698254     0.035329707   -0.2160749      0.00025081083
   9431000   0.050335208   -0.32735236     0.036035243   -0.21581918     6.0246573e-05
   9432000   0.049693839   -0.32735891     0.035703962   -0.217119       0.00015584218
   9433000   0.049704264   -0.32766901     0.03575494    -0.21736249     0.00020103958
   9434000   0.050381482   -0.32735315     0.035805906   -0.2159799     -0.00038746177
   9435000   0.049746332   -0.32727332     0.036417187   -0.21624145    -0.00013430221
   9436000   0.050555944   -0.32712455     0.03528681    -0.21600872     0.0004543457 
   9437000   0.050198089   -0.32715984     0.035844834   -0.21602273    -0.00050737061
   9438000   0.049936976   -0.3273762      0.035438949   -0.21703662    -0.00036920479
   9439000   0.049992305   -0.32708677     0.036115922   -0.21598722     0.0003722021 
   9440000   0.050077274   -0.32726106     0.035627859   -0.21652214     0.00032473018
   9441000   0.050763887   -0.32740823     0.036142813   -0.21512449    -0.00015731726
   9442000   0.050383134   -0.3273084      0.036164609   -0.21557397    -0.00063221139
   9443000   0.05060587    -0.32715372     0.035687104   -0.21556271     0.00031597717
   9444000   0.050150834   -0.32780786     0.035328156   -0.21725831     0.00036945114
   9445000   0.050342434   -0.32706192     0.035634224   -0.21591892     0.00038993524
   9446000   0.050012335   -0.32676354     0.036539271   -0.21521061    -0.00064278338
   9447000   0.04998758    -0.32732264     0.036356903   -0.2159892      3.3196435e-05
   9448000   0.050085453   -0.3275105      0.036564353   -0.21582281    -0.00075642808
   9449000   0.05005429    -0.32736657     0.036014876   -0.2162751      0.0005843949 
   9450000   0.050167829   -0.32733645     0.036230504   -0.21585906     0.00024559938
   9451000   0.050740038   -0.32706997     0.036323896   -0.21464093     0.00026850006
   9452000   0.050603149   -0.32725408     0.035866951   -0.2154873      1.1255856e-05
   9453000   0.049876909   -0.32716364     0.035863129   -0.21648997     0.00010942873
   9454000   0.050234474   -0.32751801     0.036394664   -0.2157765     -0.00064966903
   9455000   0.050141668   -0.32755218     0.035664625   -0.2166799     -0.00013047298
   9456000   0.049499796   -0.32704517     0.036195721   -0.21660455    -0.00044384982
   9457000   0.048779236   -0.32759856     0.036332579   -0.21810185    -3.4434442e-05
   9458000   0.049803011   -0.32775901     0.036142965   -0.21691635    -0.0014076022 
   9459000   0.04968103    -0.32697326     0.035734682   -0.21672184    -0.00024585488
   9460000   0.049809569   -0.32720506     0.035362484   -0.21713305     0.00035004099
   9461000   0.050282329   -0.32740271     0.0358145     -0.21616958     0.00079713592
   9462000   0.050468846   -0.32717559     0.036205291   -0.21527191    -0.00050839215
   9463000   0.050370414   -0.32704911     0.035910586   -0.21558778    -0.00032302129
   9464000   0.049863727   -0.32737664     0.035629416   -0.21695646    -0.00022222607
   9465000   0.049986639   -0.32766868     0.035885759   -0.2168078      2.9404432e-05
   9466000   0.050300834   -0.32812479     0.036255162   -0.21642324    -0.00099744131
   9467000   0.050090907   -0.32744424     0.035896295   -0.21641644    -0.00029233035
   9468000   0.049851      -0.32727373     0.035624907   -0.21687714     0.00081618771
   9469000   0.049752216   -0.32775296     0.035970744   -0.2171587      0.00055281836
   9470000   0.049539127   -0.32758195     0.035812653   -0.2174654     -0.00059313962
   9471000   0.049932546   -0.32760807     0.035337181   -0.2173769      0.00044155038
   9472000   0.049521176   -0.32743576     0.036281961   -0.21687683     0.0008621471 
   9473000   0.049608565   -0.32788441     0.035509891   -0.21796647    -0.00015985763
   9474000   0.049976026   -0.32731295     0.035830917   -0.21652283    -0.00075166887
   9475000   0.049757307   -0.32724947     0.035968254   -0.21665007    -0.00052359247
   9476000   0.049680717   -0.32724957     0.036192554   -0.21654075    -0.00085786982
   9477000   0.050339076   -0.32714086     0.0361967     -0.21544042     0.00041063695
   9478000   0.049813454   -0.3276832      0.036075028   -0.21689281    -0.00060672562
   9479000   0.049545538   -0.3273228      0.035776617   -0.21723267     0.00036581758
   9480000   0.049957928   -0.32716357     0.035456154   -0.21677536    -0.00043355043
   9481000   0.049771508   -0.32733928     0.036545627   -0.21614121    -0.00017841256
   9482000   0.049833905   -0.32782471     0.036594622   -0.21648406     0.00063466793
   9483000   0.049895089   -0.32718187     0.036175004   -0.21616906    -0.00069270604
   9484000   0.049915999   -0.32744073     0.035815216   -0.21675634     0.0010661688 
   9485000   0.049585379   -0.32699486     0.036065874   -0.21655572     0.00076361405
   9486000   0.049973234   -0.32737256     0.03595269    -0.21646485     0.00070978291
   9487000   0.050158967   -0.32732181     0.035754281   -0.21633393    -0.00032135325
   9488000   0.049943047   -0.32744022     0.035720801   -0.21680969    -0.00025646027
   9489000   0.050106991   -0.327465       0.035851166   -0.21645819     0.00018377983
   9490000   0.050175031   -0.32720986     0.036065691   -0.21588648     0.00022928438
   9491000   0.049844372   -0.327371       0.03668104    -0.21592822    -3.5448161e-05
   9492000   0.050381453   -0.32757059     0.03631116    -0.21569213    -0.00072716467
   9493000   0.050275707   -0.3268679      0.035818812   -0.21564039     0.00058283005
   9494000   0.050188613   -0.32718457     0.036596369   -0.21531014     0.00044988132
   9495000   0.049939066   -0.32675086     0.035817583   -0.21602951    -0.00035998954
   9496000   0.049643647   -0.32735639     0.036245377   -0.21665035     0.00089104547
   9497000   0.049933622   -0.32746256     0.036240233   -0.21632673    -0.00038028645
   9498000   0.050026042   -0.32695527     0.035983302   -0.21593774     0.00087182257
   9499000   0.050480481   -0.32754432     0.036071956   -0.21575652     0.00012899261
   9500000   0.050022754   -0.32727317     0.035323067   -0.21692081     0.00020239401
   9501000   0.049486376   -0.32745972     0.035834659   -0.21740028     0.0012101624 
   9502000   0.049874411   -0.32753581     0.035760141   -0.21696887    -0.00025134983
   9503000   0.05024803    -0.32752136     0.03544802    -0.21670616    -0.00022464038
   9504000   0.050030609   -0.32751309     0.035892981   -0.21657904    -0.00015775426
   9505000   0.050189187   -0.32738606     0.035861942   -0.21624519     0.0004945836 
   9506000   0.05021729    -0.32687197     0.036093728   -0.21545716     0.00064148121
   9507000   0.050111411   -0.32721636     0.036720946   -0.21533315     3.0123446e-05
   9508000   0.050102286   -0.32742401     0.035668105   -0.21660733     0.00023831544
   9509000   0.049716411   -0.32775971     0.036302892   -0.21688702     0.000295195  
   9510000   0.050506089   -0.32707319     0.036577012   -0.21474193     0.00024623427
   9511000   0.05058798    -0.32684891     0.036052646   -0.21491919    -0.00041868496
   9512000   0.050515517   -0.32729606     0.035824237   -0.21570343    -7.3549863e-05
   9513000   0.050440546   -0.32716532     0.035885301   -0.21562409     0.0005781264 
   9514000   0.050296328   -0.32716811     0.035529646   -0.21619884     0.00043463091
   9515000   0.049933838   -0.32739458     0.036269875   -0.21622878     0.00028160432
   9516000   0.050405508   -0.32732005     0.036148657   -0.21556801     6.1991635e-05
   9517000   0.050544697   -0.32740393     0.036032462   -0.21555931     0.00069596955
   9518000   0.049551685   -0.32779221     0.036492236   -0.21697724    -0.00045506896
   9519000   0.049518853   -0.32718084     0.035569081   -0.21733827     0.00044660025
   9520000   0.049518399   -0.32754229     0.036133565   -0.21713592    -0.00034254675
   9521000   0.049917511   -0.32802328     0.035718892   -0.21743296    -7.996059e-05 
   9522000   0.049129343   -0.32758687     0.035808252   -0.21808936    -0.00048689   
   9523000   0.050040714   -0.32745485     0.036080095   -0.21631852    -0.0007588925 
   9524000   0.04953428    -0.32746595     0.035938597   -0.21723072     1.0520626e-05
   9525000   0.049856873   -0.32792565     0.035723049   -0.21742211     0.00023350514
   9526000   0.050277899   -0.32780414     0.036070699   -0.21632145    -0.00086172034
   9527000   0.050398924   -0.32731549     0.036199269   -0.21552272     0.00029931505
   9528000   0.050097535   -0.32797288     0.035700217   -0.21713121    -0.00052116489
   9529000   0.050030395   -0.3278026      0.036516984   -0.21624486    -0.0017579333 
   9530000   0.04979009    -0.32752132     0.035412693   -0.21742831     0.00010644465
   9531000   0.050095132   -0.32709086     0.035762788   -0.21619022     0.0009797977 
   9532000   0.049949205   -0.32793422     0.036489445   -0.2165258      0.00043816567
   9533000   0.050339106   -0.32793354     0.036327758   -0.21610199    -2.2100427e-05
   9534000   0.050571164   -0.32770671     0.035648067   -0.21620679     0.00050547954
   9535000   0.050009224   -0.32769678     0.035961747   -0.21672604     0.00042554403
   9536000   0.050152376   -0.3284418      0.035581492   -0.2176366     -0.00059309037
   9537000   0.049736357   -0.32803819     0.035647883   -0.21779058    -4.9034633e-05
   9538000   0.049935586   -0.32798019     0.035869185   -0.21721245     0.000439842  
   9539000   0.050004411   -0.3274261      0.035768727   -0.2166556      0.00043504223
   9540000   0.050421231   -0.32753173     0.035371014   -0.21653375     0.00024425045
   9541000   0.04998868    -0.32808827     0.035616424   -0.21749366     0.00081967984
   9542000   0.050385303   -0.32801389     0.035484805   -0.21695601     3.0320061e-05
   9543000   0.049723591   -0.32804317     0.03642445    -0.21703814    -0.00083715791
   9544000   0.050190615   -0.32815118     0.036129657   -0.21674046    -0.0010967745 
   9545000   0.049674975   -0.3282071      0.03579489    -0.21790456     0.00017596881
   9546000   0.050462771   -0.32773753     0.035634516   -0.21641374     0.00034594515
   9547000   0.049615402   -0.32807812     0.03595446    -0.21770536    -9.1804502e-05
   9548000   0.049964691   -0.328022       0.035442203   -0.21763759     0.00045063335
   9549000   0.049970122   -0.32790501     0.036362572   -0.21659209    -0.00024347703
   9550000   0.049716914   -0.32779565     0.035720671   -0.21750442     2.0226786e-05
   9551000   0.049835898   -0.3277451      0.03555064    -0.21744543     0.00014304789
   9552000   0.049876257   -0.32809244     0.035929612   -0.21735327     4.1088149e-06
   9553000   0.050147274   -0.32782759     0.035997745   -0.21661379     0.00078288841
   9554000   0.050225218   -0.32771705     0.035700293   -0.21668379    -0.00031326998
   9555000   0.050382774   -0.32799287     0.036475491   -0.2159481      7.1702106e-05
   9556000   0.050170028   -0.32767819     0.035990296   -0.21643771    -4.5346552e-06
   9557000   0.050035103   -0.32763447     0.035973844   -0.21661281     0.00015297269
   9558000   0.049983142   -0.32771031     0.035683969   -0.21705646    -0.00036753608
   9559000   0.049819803   -0.32773342     0.03608443    -0.21692411    -4.1149556e-05
   9560000   0.050054392   -0.32787647     0.035452557   -0.21734717    -0.00046547083
   9561000   0.049724349   -0.3278768      0.035764597   -0.21753049    -0.00023435989
   9562000   0.049504616   -0.32776845     0.03629374    -0.21722258     0.00034493483
   9563000   0.05000489    -0.32801719     0.036272241   -0.21674246     9.699999e-05 
   9564000   0.049965255   -0.32742403     0.036261053   -0.21621992     0.00043146122
   9565000   0.049951772   -0.3279279      0.036040963   -0.21696411     0.0010883311 
   9566000   0.050156633   -0.32790013     0.035850172   -0.21681986    -0.00026188907
   9567000   0.049753966   -0.32811141     0.036278295   -0.21720698    -2.0749288e-05
   9568000   0.049496301   -0.32800745     0.035869888   -0.2178979     -0.00060471183
   9569000   0.049826026   -0.32777314     0.035899587   -0.21713934    -0.00045074993
   9570000   0.049842169   -0.32788347     0.035755624   -0.21736941     0.00021246185
   9571000   0.050072563   -0.32758349     0.03524148    -0.21723801     0.00021523765
   9572000   0.05015368    -0.32764867     0.035914997   -0.216508       0.0004370805 
   9573000   0.049814724   -0.32798721     0.035569709   -0.21770023     0.00063746687
   9574000   0.049660126   -0.32783282     0.036403093   -0.21694434     9.0760541e-05
   9575000   0.049903817   -0.32801275     0.036021948   -0.21713991    -3.2152799e-05
   9576000   0.050117025   -0.327644       0.036035538   -0.21643777     0.00068719508
   9577000   0.050070509   -0.32801095     0.035702889   -0.21720715     0.00028173341
   9578000   0.049856438   -0.32784261     0.035333908   -0.21772887     0.00049520484
   9579000   0.049708485   -0.32841802     0.036137801   -0.2177223      3.5107298e-05
   9580000   0.050007445   -0.3282689      0.036174563   -0.217088      -0.0003092256 
   9581000   0.050086336   -0.3278026      0.03581649    -0.21686145     6.7142489e-05
   9582000   0.049597533   -0.32787256     0.036002823   -0.21747823    -3.0179298e-06
   9583000   0.05011529    -0.32775705     0.036069984   -0.21651898    -0.00022487853
   9584000   0.050152853   -0.32810031     0.035764815   -0.21711107     0.0011387108 
   9585000   0.049667751   -0.32784348     0.035572242   -0.21777442    -0.00024221795
   9586000   0.049730373   -0.32814501     0.035850952   -0.21770331     0.00024401816
   9587000   0.050097813   -0.32749167     0.0357987     -0.2165511      0.00089791786
   9588000   0.05032864    -0.32772297     0.036102752   -0.21613213    -4.8501319e-05
   9589000   0.050166429   -0.32775146     0.035554823   -0.21695185     0.00050973632
   9590000   0.049970683   -0.32801306     0.035401485   -0.21766039     0.0001474191 
   9591000   0.050168178   -0.32823619     0.03595636    -0.21703241     0.00012762284
   9592000   0.049988974   -0.32776146     0.0359192     -0.21686364     0.00065064038
   9593000   0.05034983    -0.32782466     0.035927753   -0.21637704     0.00015109916
   9594000   0.049991805   -0.32784797     0.035821339   -0.21704376    -0.00019894272
   9595000   0.049584772   -0.3278658      0.035932974   -0.21756047     0.00058228134
   9596000   0.050286489   -0.32826597     0.035746054   -0.21709505     6.0446564e-06
   9597000   0.049870142   -0.32806094     0.03589046    -0.2173701      0.00031760966
   9598000   0.049968442   -0.327894       0.035905706   -0.21704047    -5.4276562e-05
   9599000   0.049959228   -0.32804164     0.035843867   -0.21726377     0.00066837656
   9600000   0.049939673   -0.32778545     0.035929246   -0.21695152     0.00031509407
   9601000   0.050008692   -0.32812166     0.036117546   -0.21699592     0.00013727312
   9602000   0.050396267   -0.32798537     0.036381483   -0.21601436    -0.0002474896 
   9603000   0.049929626   -0.32747594     0.03601331    -0.21657302     5.6044659e-05
   9604000   0.0497744     -0.32815972     0.036050784   -0.21745215    -0.00011643298
   9605000   0.050171575   -0.32809248     0.035855397   -0.21698457    -0.00022048183
   9606000   0.050128011   -0.32815377     0.03578507    -0.21718153     0.00047856262
   9607000   0.050360125   -0.3278998      0.036792415   -0.21557207    -0.0002984044 
   9608000   0.050435047   -0.32804379     0.036317338   -0.21607876     0.0010216846 
   9609000   0.049794195   -0.32782561     0.03626612    -0.21687302    -0.00051739994
   9610000   0.05023354    -0.32828427     0.036053751   -0.21688507     0.00028735768
   9611000   0.050022403   -0.32813258     0.036059749   -0.21704407    -0.00038172948
   9612000   0.05012523    -0.32809113     0.036129554   -0.21677859    -0.00015938895
   9613000   0.049971867   -0.32740179     0.035991952   -0.21645687     0.00082575268
   9614000   0.049899805   -0.32776651     0.036115691   -0.21680594     3.2296229e-05
   9615000   0.049529627   -0.32830653     0.035851421   -0.21816547    -0.00080649147
   9616000   0.049421565   -0.32814417     0.035733841   -0.21828277     0.00066207539
   9617000   0.049964075   -0.32831713     0.035612187   -0.21776367     0.00029467333
   9618000   0.05000497    -0.32795911     0.036495745   -0.21646075    -0.00027861693
   9619000   0.050262658   -0.32770885     0.036147504   -0.21617222    -0.00059309323
   9620000   0.04939996    -0.32782462     0.03610108    -0.21762838     0.00014409611
   9621000   0.050025609   -0.32824163     0.035963859   -0.2172442      0.00042863063
   9622000   0.049774652   -0.327795       0.0362311     -0.21690674    -6.9818004e-05
   9623000   0.050271      -0.3277244      0.035772921   -0.21654984     0.00023647322
   9624000   0.049637732   -0.32797537     0.036454132   -0.21706944     6.5940503e-06
   9625000   0.049568672   -0.32765557     0.035789601   -0.21751776    -0.00068555867
   9626000   0.049356067   -0.32845775     0.036199523   -0.2182289      0.00017460608
   9627000   0.050063218   -0.32803323     0.03549881    -0.21744443    -0.00019647371
   9628000   0.050159755   -0.3276874      0.035975371   -0.21647725     0.00089491803
   9629000   0.049973599   -0.32794568     0.036153639   -0.21683648     6.1374193e-05
   9630000   0.049577359   -0.32831592     0.035931751   -0.21802292    -0.00043452552
   9631000   0.050151821   -0.32826132     0.035769579   -0.21726886     3.3204316e-05
   9632000   0.049713506   -0.32785165     0.035979349   -0.21730685     0.00091942019
   9633000   0.049992837   -0.32797658     0.035418607   -0.21757355     0.00038832803
   9634000   0.050263053   -0.32820982     0.036033213   -0.21678689     5.4940947e-05
   9635000   0.049684982   -0.32778527     0.035550119   -0.21771248     0.00010974759
   9636000   0.049702814   -0.3283552      0.035801737   -0.21800406     0.00011904514
   9637000   0.049799881   -0.32827243     0.035579837   -0.21799759     0.00054723186
   9638000   0.049530635   -0.32813796     0.036247983   -0.21759882     0.00018284599
   9639000   0.049252381   -0.32852146     0.035690327   -0.21895733     0.00014273897
   9640000   0.049709469   -0.32834369     0.035785425   -0.21799887    -0.00060614161
   9641000   0.049581543   -0.3281947      0.036588108   -0.21723907    -0.00096110517
   9642000   0.049498895   -0.32827399     0.036453608   -0.21757683    -0.0002549135 
   9643000   0.050407958   -0.32808087     0.035852504   -0.21662131     0.00087147895
   9644000   0.049766046   -0.32812778     0.036434138   -0.21704939    -0.00037438154
   9645000   0.049401005   -0.32833415     0.035758708   -0.21847872     0.0004108226 
   9646000   0.049696191   -0.32806488     0.035558078   -0.21796733     0.00038382452
   9647000   0.049538945   -0.32835197     0.035929036   -0.21811931     5.3593678e-05
   9648000   0.049678898   -0.3283664      0.036744423   -0.21710844    -0.00099975861
   9649000   0.050477812   -0.32818012     0.035824566   -0.21664372    -0.0016346063 
   9650000   0.049928105   -0.32810249     0.035932932   -0.21728223    -0.00031750147
   9651000   0.049477216   -0.32828542     0.036389494   -0.21768489    -0.00097612518
   9652000   0.049992856   -0.32807614     0.036422624   -0.21666907    -0.0013212431 
   9653000   0.050184048   -0.32828333     0.036251747   -0.21676037     2.6621767e-05
   9654000   0.049914203   -0.32812525     0.035637714   -0.21762106    -0.00041616937
   9655000   0.049423625   -0.3281956      0.03640352    -0.21766142    -0.0006488031 
   9656000   0.05076156    -0.32842257     0.035895959   -0.21638918     0.00017593726
   9657000   0.050998023   -0.32832631     0.03564664    -0.21618757    -0.00044986361
   9658000   0.049901416   -0.32825307     0.035903972   -0.2175018     -0.0005840693 
   9659000   0.050073003   -0.32826217     0.035208187   -0.21794933    -0.00011746803
   9660000   0.04940257    -0.3283287      0.036439219   -0.2177904     -0.00013792847
   9661000   0.049798954   -0.32863542     0.035664154   -0.21827766    -0.00020213905
   9662000   0.049444586   -0.32844249     0.035537819   -0.21874258    -0.00037717071
   9663000   0.049809083   -0.32840981     0.035445723   -0.21825529    -0.00044070414
   9664000   0.050080415   -0.32833362     0.035836823   -0.21738102     0.00049113252
   9665000   0.049740378   -0.32795843     0.035612024   -0.21774065     0.00025384084
   9666000   0.050108409   -0.32825162     0.036142953   -0.2169509     -0.00068886794
   9667000   0.05022944    -0.3281759      0.035588345   -0.21724826    -0.00060000165
   9668000   0.049425373   -0.32829313     0.035918146   -0.21824171    -3.7671535e-05
   9669000   0.05018217    -0.32837457     0.035979758   -0.21712641    -3.7201605e-05
   9670000   0.049737839   -0.32812        0.036656817   -0.21686124     0.00018274283
   9671000   0.049669325   -0.32843601     0.036043398   -0.21789344    -0.00042282836
   9672000   0.049810277   -0.32821199     0.03599765    -0.21750375     0.00031307996
   9673000   0.049957856   -0.32804455     0.035855485   -0.21725712     0.00029070228
   9674000   0.049875556   -0.32834968     0.036161554   -0.21737962    -0.0005713534 
   9675000   0.049509868   -0.3281548      0.035857506   -0.21803728     0.00049298979
   9676000   0.05017266    -0.32850015     0.035727584   -0.21751843     0.00054963217
   9677000   0.049712926   -0.32827671     0.035845023   -0.21786711    -0.00053135373
   9678000   0.050361955   -0.32868088     0.035425823   -0.217717      -0.00055541548
   9679000   0.049935243   -0.32824145     0.035686466   -0.21765695    -0.00030170481
   9680000   0.049675897   -0.32842958     0.035188608   -0.21873193     0.00071096287
   9681000   0.049919463   -0.32858024     0.035534175   -0.2181717      0.00016773551
   9682000   0.050726389   -0.32817013     0.035539558   -0.2165459     -0.00015468088
   9683000   0.049752638   -0.32820068     0.036420945   -0.2171556      0.00016218731
   9684000   0.049742356   -0.32801521     0.03634378    -0.21706271     0.00011166399
   9685000   0.050425094   -0.32794433     0.036343487   -0.21596808     6.5330395e-05
   9686000   0.050011901   -0.32815121     0.036281434   -0.21685676    -6.016094e-05 
   9687000   0.050256452   -0.32792505     0.036477959   -0.21606727     0.00067511463
   9688000   0.050061513   -0.32812548     0.035778192   -0.21725986     6.4867872e-06
   9689000   0.050043161   -0.3283121      0.035486864   -0.21776533    -9.1033506e-07
   9690000   0.050059534   -0.32826904     0.03571243    -0.21747215     0.00048963735
   9691000   0.050363596   -0.32824361     0.035550816   -0.21715227     0.00042469847
   9692000   0.04978519    -0.3285208      0.035896661   -0.21795117    -0.00086905944
   9693000   0.049852209   -0.32821268     0.035833871   -0.21760532     0.00026026112
   9694000   0.050538973   -0.32799097     0.03546975    -0.21671765     6.39082e-05  
   9695000   0.050141521   -0.32816262     0.035614637   -0.21734055     0.0011132877 
   9696000   0.049726073   -0.32835557     0.036150774   -0.2176205     -0.00062979528
   9697000   0.04974782    -0.32814272     0.035841487   -0.21768431    -0.00084093377
   9698000   0.050393343   -0.32819188     0.035996549   -0.21661019    -1.6608218e-06
   9699000   0.049730011   -0.32825318     0.035365607   -0.21829737     0.00026389666
   9700000   0.049586412   -0.32833059     0.034770154   -0.21918562     0.00031645258
   9701000   0.05042316    -0.32828312     0.035986772   -0.21666649    -0.00042839417
   9702000   0.049956151   -0.32774824     0.036056881   -0.21676197     0.00048112177
   9703000   0.049768182   -0.32848589     0.036003898   -0.21783454    -0.00063018747
   9704000   0.049631987   -0.32837486     0.03565802    -0.21827366     0.00027961868
   9705000   0.049953726   -0.32859426     0.035633102   -0.2180354     -0.00048796182
   9706000   0.050469204   -0.32804726     0.035744878   -0.21660346     0.00058615176
   9707000   0.050401503   -0.32780366     0.035498774   -0.21670751    -0.0005412659 
   9708000   0.049716523   -0.32816645     0.035977377   -0.2176191      0.00029609685
   9709000   0.050419607   -0.32841461     0.036194614   -0.21659546    -9.0324565e-06
   9710000   0.049706115   -0.32840165     0.036200251   -0.21764703     0.0002392938 
   9711000   0.049832921   -0.3281443      0.035479304   -0.21792043    -0.00036409502
   9712000   0.050108129   -0.32808977     0.035440618   -0.21749181     0.00028495776
   9713000   0.049685162   -0.32822519     0.035864374   -0.21783788    -9.0290039e-05
   9714000   0.049830178   -0.32829747     0.03573505    -0.21782197     0.00031397727
   9715000   0.050162754   -0.3283525      0.035644939   -0.21746829     0.0013732124 
   9716000   0.049945251   -0.32825538     0.035885236   -0.2174571     -0.0005075097 
   9717000   0.050758102   -0.32855772     0.036082399   -0.21634308    -0.0017170783 
   9718000   0.05009067    -0.32797399     0.035607326   -0.21723551     0.00099501349
   9719000   0.050091625   -0.32849253     0.036023802   -0.21733613     0.00024153237
   9720000   0.050015733   -0.32854694     0.036419379   -0.2171088     -0.0010385575 
   9721000   0.049942007   -0.32842794     0.036756414   -0.21676335     0.0003305363 
   9722000   0.0494866     -0.32836194     0.036154904   -0.21798193    -1.2412281e-05
   9723000   0.050106941   -0.32841583     0.035545591   -0.21771468    -0.00037792408
   9724000   0.050118077   -0.32800145     0.036307014   -0.21652217     0.00032320466
   9725000   0.05003231    -0.32794        0.036209643   -0.21668673     0.00019485081
   9726000   0.050110652   -0.32829807     0.036162654   -0.21697428    -0.00041415833
   9727000   0.050210471   -0.32847256     0.035861788   -0.21729993     0.00082248696
   9728000   0.049898177   -0.32814768     0.035974757   -0.21733048     0.00019540028
   9729000   0.050179844   -0.32822124     0.035392727   -0.21756361    -8.8070248e-05
   9730000   0.049811768   -0.32853215     0.036838548   -0.21698077    -0.00011018707
   9731000   0.050505308   -0.32844151     0.03599588    -0.21669256    -0.00022570605
   9732000   0.049657144   -0.32815959     0.035575397   -0.21810329    -0.00043755986
   9733000   0.050348328   -0.32831014     0.03545131    -0.21734121     0.00032124486
   9734000   0.050265209   -0.3280312      0.03610801    -0.21653024     0.00068983007
   9735000   0.05001279    -0.32837636     0.035894836   -0.21746718     0.0001240351 
   9736000   0.049488143   -0.3279858      0.035423437   -0.21833494     0.00087633458
   9737000   0.049773372   -0.32854759     0.03559686    -0.21829549    -9.9570195e-05
   9738000   0.050241988   -0.32847702     0.036040952   -0.21707795     0.00017300354
   9739000   0.050271482   -0.32828924     0.035570451   -0.21731643    -0.00030756018
   9740000   0.049675824   -0.32837443     0.036148208   -0.2177173      0.00011352749
   9741000   0.050594179   -0.32825899     0.035088176   -0.21728444     0.0001721779 
   9742000   0.049692802   -0.32812105     0.036145865   -0.21744079     0.00010798726
   9743000   0.050265592   -0.32862598     0.036114947   -0.21711751    -0.00091984786
   9744000   0.050624675   -0.32802557     0.035878165   -0.2162153     -0.00013445628
   9745000   0.050422934   -0.32843011     0.035940177   -0.21686041     1.4243876e-05
   9746000   0.050303908   -0.32847875     0.036042556   -0.2169852     -0.00031758102
   9747000   0.049767015   -0.32817972     0.036079449   -0.21745456    -0.00091608902
   9748000   0.049594657   -0.3282449      0.036432574   -0.21742514    -0.0013487494 
   9749000   0.050612128   -0.32816153     0.036152202   -0.21609603    -0.00067826621
   9750000   0.050814501   -0.32887405     0.036496446   -0.21616077    -0.00014548117
   9751000   0.050035563   -0.32806235     0.036374491   -0.21663936     0.00022233966
   9752000   0.05049785    -0.32827422     0.036044808   -0.21648753    -0.00073243887
   9753000   0.050491402   -0.32765352     0.035701688   -0.21621961    -5.3118711e-05
   9754000   0.050335496   -0.32822788     0.036057718   -0.21667179     0.00016239816
   9755000   0.050075843   -0.32827962     0.036133558   -0.21703714     8.6689751e-05
   9756000   0.050733627   -0.32803624     0.0357775     -0.21616321     0.00010207831
   9757000   0.050208128   -0.32865665     0.036032852   -0.21731646    -0.00064376433
   9758000   0.050285433   -0.32827983     0.03593585    -0.2169207      2.810309e-05 
   9759000   0.049955617   -0.32815338     0.036004174   -0.21722061     0.00059661907
   9760000   0.050151723   -0.32858699     0.035783417   -0.21758084     0.00014500446
   9761000   0.050382508   -0.32810252     0.036030548   -0.21650309     8.152361e-05 
   9762000   0.050113327   -0.32819459     0.0358667     -0.21716275    -2.2062908e-05
   9763000   0.050381871   -0.32783728     0.035539795   -0.21672955     9.4142321e-05
   9764000   0.050276304   -0.32806125     0.035659802   -0.21699186     2.7680644e-05
   9765000   0.050237471   -0.32803465     0.036220561   -0.21646274     0.000159655  
   9766000   0.049878665   -0.32801196     0.036136035   -0.21706276    -0.00066312987
   9767000   0.049250313   -0.32839467     0.036363783   -0.21816018    -0.00048222236
   9768000   0.050356988   -0.32835274     0.035994214   -0.21682792    -0.00020159858
   9769000   0.050511921   -0.32856666     0.036003421   -0.21680025    -0.00012066728
   9770000   0.049999589   -0.3283994      0.035939476   -0.21746538     0.00094706875
   9771000   0.050214239   -0.32802715     0.03555903    -0.21715162     0.00022727606
   9772000   0.05083389    -0.32854217     0.035337487   -0.21695876     0.00017850279
   9773000   0.050287722   -0.32796787     0.036271225   -0.21626993     0.00015836401
   9774000   0.050242583   -0.32811534     0.035939688   -0.21681664     0.00075515443
   9775000   0.04919211    -0.3280581      0.035811557   -0.21846313     0.00034379862
   9776000   0.050023593   -0.32812558     0.036128967   -0.21696606    -0.00065625043
   9777000   0.049510724   -0.32862393     0.036567186   -0.21779545     2.4286504e-05
   9778000   0.049160964   -0.32818524     0.035773615   -0.21867494    -0.00058901934
   9779000   0.049596908   -0.32834751     0.036139087   -0.21781786     0.00032862729
   9780000   0.050095934   -0.32803208     0.034925531   -0.2179675      0.00099381551
   9781000   0.049127044   -0.32814526     0.035854381   -0.21860507    -0.00082069516
   9782000   0.049410227   -0.32851849     0.035924164   -0.21848377    -0.0003492408 
   9783000   0.049928356   -0.32862888     0.036099507   -0.21764167     9.1334589e-05
   9784000   0.049569598   -0.32806961     0.03644113    -0.21727888    -0.00043470369
   9785000   0.050416925   -0.32791028     0.035577532   -0.21671224     0.00043752377
   9786000   0.049724758   -0.32822708     0.036026628   -0.21761812     0.0006538098 
   9787000   0.049818923   -0.32806774     0.036634239   -0.21670994    -0.0011438786 
   9788000   0.049952546   -0.32794993     0.035994868   -0.21703108    -0.0003804933 
   9789000   0.050824901   -0.32827862     0.035878742   -0.21616744     0.0006041948 
   9790000   0.050407097   -0.32809186     0.035684073   -0.21680202    -0.00039207931
   9791000   0.049907378   -0.3279061      0.035817069   -0.21723279    -0.00025431156
   9792000   0.050220416   -0.32796593     0.03601826    -0.21662191     0.00024683906
   9793000   0.049502199   -0.32799823     0.036532793   -0.21721693    -0.00037971349
   9794000   0.050147851   -0.32823437     0.035388264   -0.21762918     0.00019911065
   9795000   0.050249433   -0.32820835     0.036200235   -0.21663882     2.2253783e-06
   9796000   0.049437603   -0.32805694     0.035949617   -0.2179557      1.3686428e-05
   9797000   0.049977971   -0.3281229      0.035893617   -0.21726717    -0.00030060303
   9798000   0.05032594    -0.32802799     0.036148975   -0.21639497     0.00085289362
   9799000   0.049853107   -0.32835578     0.036107652   -0.21747329    -0.00025315478
   9800000   0.050148296   -0.32819257     0.035834009   -0.21714097    -3.2704885e-05
   9801000   0.050467739   -0.32829088     0.035681288   -0.21691287    -6.1368548e-05
   9802000   0.04962021    -0.32794562     0.035441289   -0.21807882     0.0009328894 
   9803000   0.049989088   -0.32813297     0.035780509   -0.21737367    -9.0498139e-05
   9804000   0.049680712   -0.32803833     0.035652164   -0.21786991     8.3896222e-06
   9805000   0.049654198   -0.32802761     0.035996425   -0.21755469     9.8651951e-05
   9806000   0.049457669   -0.32871617     0.035625327   -0.21890913     0.00082022419
   9807000   0.049936225   -0.32779054     0.035689516   -0.21720152     0.0002183594 
   9808000   0.049846013   -0.328061       0.035759306   -0.2175375      8.5270482e-05
   9809000   0.050210635   -0.32816676     0.035685598   -0.21717007     9.4729661e-06
   9810000   0.050062583   -0.32801982     0.035479017   -0.21745178     0.00017203932
   9811000   0.04951702    -0.32799496     0.036253037   -0.21747119     2.5964192e-05
   9812000   0.049797973   -0.32863262     0.036096536   -0.21784395    -0.0012132103 
   9813000   0.049789824   -0.32835428     0.035757088   -0.21791727     0.00043840962
   9814000   0.050847817   -0.3285879      0.0361834     -0.2161377      0.00028234499
   9815000   0.050085972   -0.32839216     0.035199622   -0.21806843     0.00047555143
   9816000   0.049842893   -0.32802799     0.036180285   -0.21708819     0.00040499969
   9817000   0.049518994   -0.32835591     0.035869738   -0.21821247    -0.00030885186
   9818000   0.049295328   -0.32829095     0.036422284   -0.21793045    -6.0244162e-05
   9819000   0.049953085   -0.32806031     0.035508789   -0.21762673    -0.0012719189 
   9820000   0.049705307   -0.32808045     0.035668989   -0.21785831     0.00033932733
   9821000   0.049744451   -0.32793408     0.035896039   -0.21742618     0.00058200116
   9822000   0.048879763   -0.32810839     0.036023579   -0.21876989    -0.00022090086
   9823000   0.049613748   -0.32843119     0.035876591   -0.21813878     0.00014148002
   9824000   0.050237036   -0.32837874     0.035697847   -0.2173302     -0.00036051531
   9825000   0.049671882   -0.32821977     0.035594419   -0.21812234    -0.0003449884 
   9826000   0.050332072   -0.32834377     0.035598933   -0.2172516      0.00078811814
   9827000   0.050276632   -0.32803835     0.035917616   -0.21671065    -0.00011492265
   9828000   0.05034966    -0.32815572     0.036137091   -0.21649902     9.932108e-05 
   9829000   0.05037656    -0.32826058     0.035756345   -0.21694427     0.00013353648
   9830000   0.050160881   -0.32837138     0.035789515   -0.2173454      0.0002987045 
   9831000   0.049810809   -0.32861138     0.035618383   -0.21828161     0.00023812561
   9832000   0.04975545    -0.32852725     0.036042994   -0.2178559     -0.00073804205
   9833000   0.049862985   -0.32842587     0.03594314    -0.21769307    -0.00035837037
   9834000   0.049860633   -0.32840547     0.035440969   -0.21817837     0.00073739235
   9835000   0.049469323   -0.32827673     0.035340965   -0.21873657    -0.00067247704
   9836000   0.049385143   -0.3282348      0.035514496   -0.21864737     0.00055950309
   9837000   0.049567757   -0.32828815     0.035616567   -0.21832474    -0.00022253251
   9838000   0.050135975   -0.32875018     0.03559945    -0.21795162    -0.00015319781
   9839000   0.049900348   -0.32827085     0.036594033   -0.21683112    -0.00029591561
   9840000   0.049734906   -0.32832503     0.036356508   -0.21737097    -0.00014445853
   9841000   0.049925031   -0.32814533     0.035873511   -0.2173891      1.8737634e-05
   9842000   0.049707556   -0.32800786     0.035790976   -0.21766036    -0.00057785686
   9843000   0.050493655   -0.32803738     0.035765597   -0.21653619     0.00056622236
   9844000   0.049967836   -0.32807828     0.035721644   -0.21740971    -0.00045244355
   9845000   0.050273264   -0.32811686     0.036205442   -0.21650639    -3.8164139e-05
   9846000   0.050370027   -0.32838411     0.03614693    -0.21668702     0.0007883643 
   9847000   0.04981438    -0.32847988     0.035865633   -0.2178975      0.00065717415
   9848000   0.049965452   -0.32850541     0.035845394   -0.21771667    -0.00042332971
   9849000   0.049922501   -0.32813251     0.036206953   -0.21704663     0.00052204777
   9850000   0.049986944   -0.32838598     0.036196411   -0.217214       0.0006911836 
   9851000   0.049836076   -0.32843691     0.035641068   -0.21804655    -0.00025550055
   9852000   0.050176729   -0.32797751     0.035975165   -0.2167421      0.0005635278 
   9853000   0.050060077   -0.32840093     0.036254948   -0.21706071     0.00049326361
   9854000   0.049723808   -0.32830757     0.036376975   -0.21734969     0.00025234005
   9855000   0.049812101   -0.32846532     0.036478377   -0.21727361    -0.0002662435 
   9856000   0.049432548   -0.32839476     0.035910163   -0.21834056     0.00020284572
   9857000   0.04981752    -0.32841765     0.036396623   -0.21729956    -0.00048632928
   9858000   0.049829317   -0.32821075     0.035969592   -0.21750201     0.000116528  
   9859000   0.050315618   -0.32843067     0.036167301   -0.21679481    -0.00097626313
   9860000   0.050487878   -0.32883179     0.036471067   -0.21663379    -0.00069067874
   9861000   0.049869203   -0.32811297     0.036396772   -0.21691722     0.00016226872
   9862000   0.050160156   -0.32874836     0.03624484    -0.21726814    -0.00036517471
   9863000   0.049967138   -0.32835204     0.035589442   -0.21781673     9.5551714e-05
   9864000   0.050113923   -0.328311       0.035996267   -0.2171487     -0.00076268859
   9865000   0.050938      -0.32861504     0.036368312   -0.21584466    -4.769548e-05 
   9866000   0.050561528   -0.32878924     0.036172797   -0.21677905    -0.00048310938
   9867000   0.050365865   -0.3287255      0.036257655   -0.21692392     0.00015081416
   9868000   0.049973881   -0.32843255     0.036568797   -0.21690777    -0.00064243364
   9869000   0.050089825   -0.3284246      0.036015716   -0.217279      -0.00087310471
   9870000   0.050721372   -0.3287588      0.036125351   -0.2165563     -8.4909642e-05
   9871000   0.0502056     -0.32848811     0.036323606   -0.21686097     0.00078358295
   9872000   0.049914539   -0.32823634     0.036073032   -0.21729633    -0.00088412957
   9873000   0.04985424    -0.32876781     0.036163308   -0.21782796     0.00042860261
   9874000   0.049809587   -0.32857688     0.035694099   -0.21817322    -0.00015344123
   9875000   0.049766306   -0.32828543     0.035881545   -0.21775924    -0.0003405821 
   9876000   0.050408066   -0.32831844     0.035429522   -0.2172817     -0.00017829589
   9877000   0.049618215   -0.32854317     0.035633438   -0.21848722    -0.00035427764
   9878000   0.050071901   -0.32905529     0.035501561   -0.21845072    -6.0754176e-05
   9879000   0.050317222   -0.3287206      0.035733148   -0.21751649     0.00085307531
   9880000   0.050129179   -0.3286912      0.036564623   -0.21693766     0.00043335341
   9881000   0.049911143   -0.32827076     0.035470921   -0.21793796     0.000666559  
   9882000   0.049998263   -0.32893926     0.036300536   -0.21764617    -0.00021706307
   9883000   0.050343597   -0.3284231      0.035899804   -0.21701277     0.00077043913
   9884000   0.050279802   -0.32861987     0.035780377   -0.21742465    -0.00061623062
   9885000   0.049975612   -0.32814893     0.03604429    -0.21714606    -1.7558172e-05
   9886000   0.050019035   -0.32879299     0.035518695   -0.21825058     0.00023473409
   9887000   0.049664869   -0.32864074     0.035630354   -0.21851789    -4.2153663e-05
   9888000   0.04948092    -0.32824253     0.035542756   -0.21848319     0.0003445964 
   9889000   0.04960741    -0.3285253      0.036120274   -0.21799872    -9.2009758e-05
   9890000   0.05018205    -0.32824738     0.035706596   -0.21727257     0.00063550766
   9891000   0.050122727   -0.32844773     0.036198168   -0.21707033     0.00023522791
   9892000   0.050697122   -0.32850948     0.036140624   -0.21632808     1.1153957e-05
   9893000   0.04944834    -0.32848654     0.036622307   -0.21769651    -0.00096827934
   9894000   0.050113758   -0.32863384     0.03621572    -0.21725233    -0.00097273153
   9895000   0.049785641   -0.32850308     0.036436512   -0.21739292    -0.00041785444
   9896000   0.049896214   -0.32856268     0.035645678   -0.21807751     2.5661933e-06
   9897000   0.04936619    -0.32840374     0.036265082   -0.21809415    -0.00055137065
   9898000   0.049777663   -0.32859692     0.035537371   -0.21839787     0.0008149621 
   9899000   0.049922631   -0.32826557     0.035659565   -0.21772689     0.0006105636 
   9900000   0.049899107   -0.32876978     0.036063779   -0.21786217     0.00013993463
   9901000   0.050052096   -0.32844084     0.036225161   -0.21714238    -0.0010651974 
   9902000   0.049690333   -0.32815348     0.0358213     -0.21780149    -0.0002308148 
   9903000   0.049676763   -0.32817727     0.036250003   -0.21741692     6.4911497e-05
   9904000   0.049713718   -0.32886964     0.035823208   -0.21848066     0.00086784779
   9905000   0.050465324   -0.32846017     0.035714752   -0.21705231     0.0008146551 
   9906000   0.050094849   -0.32853271     0.035637446   -0.21775784     0.00028121775
   9907000   0.049986544   -0.32870754     0.036226037   -0.21750653    -0.00057022367
   9908000   0.050549839   -0.32837801     0.03577158    -0.21678656     1.1820996e-05
   9909000   0.049790477   -0.3285869      0.036261483   -0.21764452    -0.00079602202
   9910000   0.050123825   -0.32854043     0.035864826   -0.21749471     0.00012655639
   9911000   0.049531107   -0.32844546     0.036433647   -0.21771995     1.7561018e-05
   9912000   0.050119534   -0.32838206     0.035458679   -0.21774893     8.5702884e-05
   9913000   0.050439213   -0.32809838     0.035344386   -0.21710005     0.00086570696
   9914000   0.049766594   -0.3287176      0.036354382   -0.21771814    -0.00050944182
   9915000   0.049850789   -0.32816206     0.035653711   -0.21773699    -8.4312537e-05
   9916000   0.049736047   -0.32899828     0.035916892   -0.21848213     9.8217447e-05
   9917000   0.04964523    -0.32850323     0.035933448   -0.21810674    -0.00057793606
   9918000   0.049790834   -0.32852143     0.035829362   -0.21801063    -7.6596132e-06
   9919000   0.049795793   -0.32862787     0.036180744   -0.21775825    -0.00027669634
   9920000   0.050111584   -0.32825763     0.035563322   -0.21753178     0.0011217527 
   9921000   0.050020933   -0.328427       0.035845504   -0.21755494     0.00076346426
   9922000   0.050526889   -0.32813421     0.035961963   -0.21638681    -0.00093304753
   9923000   0.050174585   -0.32813778     0.035322419   -0.21755834    -0.0012075692 
   9924000   0.050025515   -0.32846246     0.035475901   -0.21795313     0.0004354456 
   9925000   0.050274659   -0.32872425     0.036387479   -0.21692964    -0.0010119099 
   9926000   0.05048956    -0.32861132     0.036212107   -0.21666976    -0.00048644505
   9927000   0.050371816   -0.32860386     0.036091038   -0.21695998    -4.2337207e-05
   9928000   0.049932228   -0.328502       0.035942765   -0.21766572     0.00015158777
   9929000   0.050277641   -0.32865078     0.036032705   -0.21720648     5.6564192e-06
   9930000   0.04927957    -0.32839572     0.036032938   -0.21844819    -0.00016145513
   9931000   0.049894987   -0.32834228     0.036002928   -0.2175017     -0.00029223534
   9932000   0.049429724   -0.32823248     0.035373559   -0.21871911    -0.00025030741
   9933000   0.049754114   -0.32837193     0.035057913   -0.21868766     0.00022235063
   9934000   0.049525049   -0.32848719     0.035811198   -0.21839321     0.00063234412
   9935000   0.050433038   -0.32804415     0.035815185   -0.21658429     0.0018134522 
   9936000   0.050123277   -0.32860461     0.035910473   -0.21751407     0.00046569937
   9937000   0.049742415   -0.32872877     0.036392427   -0.21772753     1.5018915e-05
   9938000   0.050015015   -0.32811418     0.035620195   -0.21747631     0.00028516131
   9939000   0.049699371   -0.32845898     0.035598571   -0.21831617     0.00057714563
   9940000   0.04971542    -0.32856039     0.036035511   -0.21795656    -0.00052731783
   9941000   0.050070443   -0.32853675     0.03572986    -0.21770607     0.00021385586
   9942000   0.048978036   -0.32862018     0.036640958   -0.21851691    -0.00039881608
   9943000   0.049702454   -0.32847146     0.035883572   -0.21803902     0.00034914725
   9944000   0.049577164   -0.32835665     0.036508223   -0.21748747    -0.00078808481
   9945000   0.04960684    -0.32864406     0.035845533   -0.21839306    -0.00078624005
   9946000   0.050229151   -0.3289442      0.035978673   -0.21762666     0.0002129328 
   9947000   0.050283923   -0.32822824     0.03600065    -0.21680657     0.00074343274
   9948000   0.049248008   -0.32846015     0.036117952   -0.21847496    -0.00046771125
   9949000   0.049740577   -0.32879028     0.036528549   -0.21765568     4.5327562e-05
   9950000   0.049953394   -0.32869384     0.035789983   -0.2179786      0.00017480516
   9951000   0.05012703    -0.32858366     0.035903331   -0.21749463     0.00013077988
   9952000   0.049636065   -0.32869933     0.035887568   -0.21836247     0.00049188872
   9953000   0.050110341   -0.32858339     0.036656999   -0.21676573     0.00030746414
   9954000   0.049923369   -0.32845877     0.035978264   -0.21760029    -0.00065302064
   9955000   0.049789417   -0.32875377     0.035805471   -0.21826899    -5.0592717e-05
   9956000   0.049690391   -0.32862574     0.036257351   -0.21783761    -0.00051636   
   9957000   0.050463266   -0.32842878     0.035511906   -0.21722686     0.00026090977
   9958000   0.05020414    -0.3286023      0.035758629   -0.21754232     9.4263335e-05
   9959000   0.050144651   -0.32892528     0.036059017   -0.21765414     9.5220829e-06
   9960000   0.049675897   -0.32855968     0.036026963   -0.21802368     0.00060116874
   9961000   0.050046654   -0.32877057     0.036444914   -0.21726052    -0.0012725184 
   9962000   0.049762689   -0.32858274     0.036132001   -0.21781153    -0.00095643016
   9963000   0.049936309   -0.32848195     0.036409216   -0.2171731     -0.0020703963 
   9964000   0.050357865   -0.32857498     0.035725116   -0.21731794    -0.00087787825
   9965000   0.05015194    -0.32855601     0.035698032   -0.21763492     0.00081130565
   9966000   0.049783005   -0.32841237     0.035997649   -0.21774503     0.00026813633
   9967000   0.050113857   -0.32853255     0.036004092   -0.21736252    -0.00047807136
   9968000   0.049859846   -0.328749       0.035438023   -0.21852603     9.5409916e-05
   9969000   0.05014723    -0.32828267     0.035189153   -0.21787752    -0.00015843117
   9970000   0.049388395   -0.32832065     0.036276493   -0.21796635     0.00073671138
   9971000   0.049600239   -0.328246       0.035703291   -0.21814715     0.00033755286
   9972000   0.050008832   -0.32892258     0.036164926   -0.21774924    -0.00044582688
   9973000   0.050105437   -0.32858046     0.036292702   -0.21713445    -0.00022297107
   9974000   0.04987174    -0.32877839     0.035730439   -0.21824517     0.00022162002
   9975000   0.050607794   -0.32856532     0.036152672   -0.21650585     1.2657048e-05
   9976000   0.049828494   -0.3282195      0.035859218   -0.21762237     0.0010972727 
   9977000   0.049987292   -0.32836538     0.036192692   -0.21719659     0.00078687442
   9978000   0.050016433   -0.3288803      0.035610017   -0.21825048    -0.00068420791
   9979000   0.049968844   -0.32861805     0.036209214   -0.2174604     -0.00010256012
   9980000   0.050108917   -0.3281209      0.035706147   -0.21725622    -0.00033264845
   9981000   0.050052923   -0.32899892     0.036929025   -0.21699535    -0.00059210098
   9982000   0.050542379   -0.32879579     0.036297355   -0.21668976    -1.9988737e-05
   9983000   0.05078516    -0.32863643     0.036022002   -0.2164416      0.00010689887
   9984000   0.050399473   -0.32853366     0.035702836   -0.21723649    -0.00012966464
   9985000   0.049921928   -0.32873268     0.036431695   -0.21742292    -0.00024606099
   9986000   0.05037054    -0.32847875     0.036173011   -0.2167548      0.00040435695
   9987000   0.049599739   -0.32853749     0.036260884   -0.2178818     -0.00022913319
   9988000   0.050047761   -0.32888054     0.035987931   -0.21782581    -0.0001183549 
   9989000   0.049935996   -0.32873699     0.035664742   -0.21817308     0.0003318909 
   9990000   0.049783768   -0.32846573     0.036142207   -0.21765269     0.00084716011
   9991000   0.050115393   -0.32826275     0.035967702   -0.21712681    -0.00025226921
   9992000   0.050084541   -0.32842583     0.035855552   -0.21744831     0.0004802402 
   9993000   0.049730305   -0.32831326     0.035502434   -0.21822018     0.00032113845
   9994000   0.050510478   -0.32895573     0.035920506   -0.2172744     -0.00048914178
   9995000   0.050338466   -0.32856986     0.035384831   -0.2176822      0.00065885712
   9996000   0.050140206   -0.32861379     0.035957962   -0.21745037    -0.00030355816
   9997000   0.050085729   -0.32889663     0.035664627   -0.21810826    -0.0014187466 
   9998000   0.050295341   -0.32847589     0.035735884   -0.21730187     5.3580068e-05
   9999000   0.050438019   -0.32852273     0.036110069   -0.21676052     0.00060556244
  10000000   0.050629695   -0.32917847     0.036137486   -0.21710134     0.00016363176
Loop time of 10934.2 on 8 procs for 9500000 steps with 15500 atoms

Performance: 75067.486 tau/day, 868.837 timesteps/s, 13.467 Matom-step/s
94.1% CPU use with 8 MPI tasks x 1 OpenMP threads

MPI task timing breakdown:
Section |  min time  |  avg time  |  max time  |%varavg| %total
---------------------------------------------------------------
Pair    | 2277.3     | 2501.6     | 2728.1     | 247.7 | 22.88
Bond    | 862.72     | 918.61     | 975.69     | 123.8 |  8.40
Neigh   | 17.546     | 17.593     | 17.636     |   0.7 |  0.16
Comm    | 648.92     | 925.74     | 1182.4     | 488.3 |  8.47
Output  | 359.07     | 361.35     | 363.55     |   7.8 |  3.30
Modify  | 6068       | 6080       | 6093.9     |   9.4 | 55.61
Other   |            | 129.3      |            |       |  1.18

Nlocal:         1937.5 ave        2280 max        1582 min
Histogram: 1 0 0 1 2 1 2 0 0 1
Nghost:        1193.38 ave        1317 max        1073 min
Histogram: 1 1 0 1 1 1 0 2 0 1
Neighs:              0 ave           0 max           0 min
Histogram: 8 0 0 0 0 0 0 0 0 0
FullNghs:      17683.8 ave       20237 max       14212 min
Histogram: 1 0 0 1 1 0 3 1 0 1

Total # of neighbors = 141470
Ave neighs/atom = 9.1270968
Ave special neighs/atom = 2.1612903
Neighbor list builds = 10303
Dangerous builds = 0

# Write data for deformation

write_restart ${Dir}/${file4_name}
write_restart /home/franvt/GitRepos/molDynLammps/polymericGels/gel-batch-1/data/2026-04-08-094029_6/${file4_name}
write_restart /home/franvt/GitRepos/molDynLammps/polymericGels/gel-batch-1/data/2026-04-08-094029_6/data.hydrogel
System init for write_restart ...
WARNING: Using a manybody potential with bonds/angles/dihedrals and special_bond exclusions (src/pair.cpp:250)
Hybrid pair style last /omp style table/omp
Last active /omp style is angle_style harmonic/omp
Total wall time: 3:11:48
